#------------------------------------------------------------------------------
#$Date: 2021-09-06 13:32:23 +0300 (Mon, 06 Sep 2021) $
#$Revision: 268688 $
#$URL: file:///home/coder/svn-repositories/cod/cif/7/24/27/7242760.cif $
#------------------------------------------------------------------------------
#
# This file is available in the Crystallography Open Database (COD),
# http://www.crystallography.net/
#
# All data on this site have been placed in the public domain by the
# contributors.
#
data_7242760
loop_
_publ_author_name
'Rather, Sumair A.'
'Saha, Binoy K.'
_publ_section_title
;
 Understanding the elastic bending mechanism in a 9,10-anthraquinone
 crystal through thermal expansion study
;
_journal_issue                   34
_journal_name_full               CrystEngComm
_journal_page_first              5768
_journal_page_last               5773
_journal_paper_doi               10.1039/D1CE00467K
_journal_volume                  23
_journal_year                    2021
_chemical_formula_moiety         'C14 H8 O2'
_chemical_formula_sum            'C14 H8 O2'
_chemical_formula_weight         208.20
_chemical_name_common            Anthraquinone
_chemical_name_systematic        9,10-Anthracenedione
_space_group_crystal_system      monoclinic
_space_group_IT_number           14
_space_group_name_Hall           '-P 2ybc'
_space_group_name_H-M_alt        'P 1 21/c 1'
_atom_sites_solution_hydrogens   geom
_audit_creation_date             2021-03-31
_audit_creation_method
;
Olex2 1.3-alpha
(compiled 2019.09.11 svn.r3662 for OlexSys, GUI svn.r5938)
;
_audit_update_record
;
2021-04-06 deposited with the CCDC.	2021-05-03 downloaded from the CCDC.
;
_cell_angle_alpha                90
_cell_angle_beta                 102.604(10)
_cell_angle_gamma                90
_cell_formula_units_Z            2
_cell_length_a                   7.8729(8)
_cell_length_b                   3.9195(5)
_cell_length_c                   15.7126(18)
_cell_measurement_reflns_used    508
_cell_measurement_temperature    178
_cell_measurement_theta_max      28.9814
_cell_measurement_theta_min      3.2079
_cell_volume                     473.17(10)
_computing_cell_refinement
;
CrysAlisPro, Agilent Technologies,
Version 1.171.36.21 (release 14-08-2012 CrysAlis171 .NET)
(compiled Sep 14 2012,17:21:16)
;
_computing_data_collection
;
CrysAlisPro, Agilent Technologies,
Version 1.171.36.21 (release 14-08-2012 CrysAlis171 .NET)
(compiled Sep 14 2012,17:21:16)
;
_computing_data_reduction
;
CrysAlisPro, Agilent Technologies,
Version 1.171.36.21 (release 14-08-2012 CrysAlis171 .NET)
(compiled Sep 14 2012,17:21:16)
;
_computing_molecular_graphics    'Olex2 1.3-alpha (Dolomanov et al., 2009)'
_computing_publication_material  'Olex2 1.3-alpha (Dolomanov et al., 2009)'
_computing_structure_refinement  'ShelXL 2018/3 (Sheldrick, 2015)'
_computing_structure_solution    'ShelXS n/a (Sheldrick, 2008)'
_diffrn_ambient_temperature      178.00(2)
_diffrn_detector_area_resol_mean 15.9821
_diffrn_measured_fraction_theta_full 0.963
_diffrn_measured_fraction_theta_max 0.816
_diffrn_measurement_details
;
#__ type_ start__ end____ width___ exp.time_
  1 omega  -75.00   12.00   1.0000    3.0000
omega____ theta____ kappa____ phi______ frames
    -      -16.8710  -19.0000  120.0000 87

#__ type_ start__ end____ width___ exp.time_
  2 omega  -81.00    5.00   1.0000    3.0000
omega____ theta____ kappa____ phi______ frames
    -      -16.8710  -57.0000   60.0000 86

#__ type_ start__ end____ width___ exp.time_
  3 omega   35.00   96.00   1.0000    3.0000
omega____ theta____ kappa____ phi______ frames
    -       19.6835  178.0000   30.0000 61
;
_diffrn_measurement_device_type  'Xcalibur, Eos'
_diffrn_measurement_method       '\w scans'
_diffrn_radiation_type           MoK\a
_diffrn_radiation_wavelength     0.71073
_diffrn_reflns_av_R_equivalents  0.0248
_diffrn_reflns_av_unetI/netI     0.0477
_diffrn_reflns_Laue_measured_fraction_full 0.963
_diffrn_reflns_Laue_measured_fraction_max 0.816
_diffrn_reflns_limit_h_max       4
_diffrn_reflns_limit_h_min       -10
_diffrn_reflns_limit_k_max       5
_diffrn_reflns_limit_k_min       -4
_diffrn_reflns_limit_l_max       20
_diffrn_reflns_limit_l_min       -19
_diffrn_reflns_number            2132
_diffrn_reflns_point_group_measured_fraction_full 0.963
_diffrn_reflns_point_group_measured_fraction_max 0.816
_diffrn_reflns_theta_full        25.000
_diffrn_reflns_theta_max         29.045
_diffrn_reflns_theta_min         3.319
_exptl_absorpt_coefficient_mu    0.098
_exptl_absorpt_correction_T_max  1.00000
_exptl_absorpt_correction_T_min  0.51018
_exptl_absorpt_correction_type   multi-scan
_exptl_absorpt_process_details
;
CrysAlisPro, Agilent Technologies,
Version 1.171.36.21 (release 14-08-2012 CrysAlis171 .NET)
(compiled Sep 14 2012,17:21:16)
Empirical absorption correction using spherical harmonics,
 implemented in SCALE3 ABSPACK scaling algorithm.
;
_exptl_crystal_colour            yellow
_exptl_crystal_colour_primary    yellow
_exptl_crystal_density_diffrn    1.461
_exptl_crystal_description       block
_exptl_crystal_F_000             216
_exptl_crystal_size_max          0.62
_exptl_crystal_size_mid          0.26
_exptl_crystal_size_min          0.16
_refine_diff_density_max         0.158
_refine_diff_density_min         -0.217
_refine_diff_density_rms         0.052
_refine_ls_extinction_method     none
_refine_ls_goodness_of_fit_ref   1.008
_refine_ls_hydrogen_treatment    constr
_refine_ls_matrix_type           full
_refine_ls_number_parameters     73
_refine_ls_number_reflns         1029
_refine_ls_number_restraints     0
_refine_ls_restrained_S_all      1.008
_refine_ls_R_factor_all          0.0773
_refine_ls_R_factor_gt           0.0512
_refine_ls_shift/su_max          0.000
_refine_ls_shift/su_mean         0.000
_refine_ls_structure_factor_coef Fsqd
_refine_ls_weighting_details
'w=1/[\s^2^(Fo^2^)+(0.0717P)^2^] where P=(Fo^2^+2Fc^2^)/3'
_refine_ls_weighting_scheme      calc
_refine_ls_wR_factor_gt          0.1230
_refine_ls_wR_factor_ref         0.1443
_reflns_Friedel_coverage         0.000
_reflns_number_gt                700
_reflns_number_total             1029
_reflns_threshold_expression     'I > 2\s(I)'
_cod_data_source_file            d1ce00467k2.cif
_cod_data_source_block           anthraquinone-178k
_cod_depositor_comments
'Adding full bibliography for 7242759--7242768.cif.'
_cod_original_cell_volume        473.18(9)
_cod_database_code               7242760
_shelx_shelxl_version_number     2018/3
_shelx_space_group_comment
;
The symmetry employed for this shelxl refinement is uniquely defined
by the following loop, which should always be used as a source of
symmetry information in preference to the above space-group names.
They are only intended as comments.
;
_shelx_estimated_absorpt_t_max   0.985
_shelx_estimated_absorpt_t_min   0.942
_olex2_refinement_description
;
1. Fixed Uiso
 At 1.2 times of:
  All C(H) groups
2.a Aromatic/amide H refined with riding coordinates:
 C5(H5), C3(H3), C6(H6), C4(H4)
;
_shelx_res_file
;
TITL BKS-SS-DI-ANTH-178K-SS in P21/c #14
    anthraquinone-178k.res
    created by SHELXL-2018/3 at 17:31:19 on 31-Mar-2021
REM reset to P21/c #14
CELL 0.71073 7.872911 3.919546 15.712578 90 102.6037 90
ZERR 2 0.000793 0.000471 0.001832 0 0.0102 0
LATT 1
SYMM -X,0.5+Y,0.5-Z
SFAC C H O
UNIT 28 16 4

L.S. 4
PLAN  5
SIZE 0.62 0.26 0.16
TEMP -95.15(2)
CONF
BOND $H
HTAB
MORE -1
fmap 2
acta 50
REM <olex2.extras>
REM <HklSrc "%.\\Anthraquinone-178K.hkl">
REM </olex2.extras>

WGHT    0.071700
FVAR      13.50883
C2    1    0.434958    0.654085    0.414725    11.00000    0.02776    0.02900 =
         0.02669   -0.00343    0.00422   -0.00173
C7    1    0.325924    0.640235    0.474190    11.00000    0.02547    0.02803 =
         0.02953   -0.00559    0.00311   -0.00318
C1    1    0.614360    0.513025    0.437893    11.00000    0.02634    0.03650 =
         0.03014   -0.00285    0.00786   -0.00318
C5    1    0.098961    0.914999    0.368810    11.00000    0.02802    0.03756 =
         0.04279   -0.00314   -0.00368    0.00225
AFIX  43
H5    2   -0.015806    1.004306    0.353124    11.00000   -1.20000
AFIX   0
O1    3    0.709787    0.523642    0.386138    11.00000    0.03662    0.07557 =
         0.03719    0.00979    0.01688    0.00842
C3    1    0.373628    0.798322    0.332990    11.00000    0.03821    0.03749 =
         0.02786   -0.00173    0.00708   -0.00158
AFIX  43
H3    2    0.447052    0.807388    0.292424    11.00000   -1.20000
AFIX   0
C6    1    0.157783    0.771357    0.450410    11.00000    0.02640    0.03572 =
         0.04023   -0.00303    0.00761   -0.00153
AFIX  43
H6    2    0.083116    0.762163    0.490385    11.00000   -1.20000
AFIX   0
C4    1    0.206087    0.929199    0.310123    11.00000    0.04015    0.03961 =
         0.03016   -0.00050   -0.00387   -0.00008
AFIX  43
H4    2    0.165245    1.028300    0.254223    11.00000   -1.20000
AFIX   0
HKLF 4




REM  BKS-SS-DI-ANTH-178K-SS in P21/c #14
REM wR2 = 0.1443, GooF = S = 1.008, Restrained GooF = 1.008 for all data
REM R1 = 0.0512 for 700 Fo > 4sig(Fo) and 0.0773 for all 1029 data
REM 73 parameters refined using 0 restraints

END

WGHT      0.0717      0.0000

REM No hydrogen bonds found for HTAB generation

REM Highest difference peak  0.158,  deepest hole -0.217,  1-sigma level  0.052
Q1    1   0.4800  0.8250  0.2771  11.00000  0.05    0.16
Q2    1   0.2794  0.4536  0.3999  11.00000  0.05    0.15
Q3    1   0.1117  0.7319  0.2354  11.00000  0.05    0.14
Q4    1   0.6670  0.7049  0.3055  11.00000  0.05    0.14
Q5    1   0.6375  0.3429  0.3064  11.00000  0.05    0.14
;
_shelx_res_checksum              92233
_shelx_hkl_file
;
   0   0   3-26.6759 107.623   2
   0   0  -3 91.1383 122.358   2
   0   0  -4 206956. 2761.32   2
   0   0   4 208075. 2864.40   2
   0   0  -5 35.4598 133.727   2
   0   0   5-170.442 220.127   2
   0   0   5-352.191 201.887   3
   0   0   6 707.929 213.224   3
   0   0  -6 11.2714 128.245   2
   0   0   6 551.677 214.816   2
   0   0   7-306.174 181.714   3
   0   0   7-43.4605 174.004   2
   0   0   8 17284.3 875.600   3
   0   0   8 17956.9 1264.57   2
   0   0   9-132.306 154.981   3
   0   0   9 56.7357 212.954   2
   0   0  10 914.375 381.197   2
   0   0  10 180.510 150.722   3
   0   0  11 115.172 159.070   3
   0   0  11-91.3291 286.256   2
   0   0  12 4038.79 491.833   3
   0   0  12 4022.55 766.668   2
   0   0  13 38.0426 368.542   2
   0   0  13 68.9017 142.995   3
   0   0  14 7285.61 658.527   3
   0   1   0 109.854 121.787   3
   0   1  -1 167464. 2368.42   3
   0   1  -1 164344. 1677.22   1
   0   1   1 166538. 2285.00   3
   0   1   1 158429. 2245.42   2
   0  -1   1 163870. 2384.31   3
   0   1  -2 584136. 4550.23   3
   0   1   2 578338. 4598.91   2
   0  -1   2 581256. 4620.35   3
   0  -1  -2 589231. 4371.23   2
   0   1  -3 177384. 2573.41   3
   0  -1   3 171875. 2571.09   3
   0  -1  -3 175309. 2563.49   2
   0   1   4 23812.8 1087.32   2
   0   1  -4 25756.0 1026.95   3
   0  -1   4 25794.6 1040.29   3
   0  -1  -4 26427.9 1100.67   2
   0  -1  -5 155705. 2910.25   2
   0  -1   5 152643. 2652.62   3
   0   1  -5 154585. 2671.33   3
   0   1   5 146773. 2928.12   2
   0   1  -6 49455.2 1600.12   3
   0  -1   6 48736.3 1562.79   3
   0   1   6 45612.0 1759.39   2
   0  -1   7 22817.8 1110.45   3
   0   1  -7 24828.5 1218.52   3
   0   1   7 21534.8 1335.85   2
   0  -1   8 20166.9 1090.49   3
   0   1   8 19920.7 1336.87   2
   0  -1   9 7787.82 685.871   3
   0   1   9 9734.29 998.168   2
   0  -1  10 1288.95 299.082   3
   0   1  10 1327.69 460.277   2
   0  -1  11-25.3418 151.879   3
   0   1  11 119.360 272.839   2
   0  -1  12 2725.45 461.294   3
   0   1  12 3381.87 713.783   2
   0  -1  13 75.2599 157.836   3
   0   1  13 129.459 431.351   2
   0   1  14 917.742 506.112   2
   0  -1  14 937.725 286.188   3
   0  -1  15 1081.07 296.008   3
   0   1  15 1257.05 571.167   2
   0   1  16 704.776 561.931   2
   0   1  17 133.359 479.952   2
   0   1 -18-118.896 260.799   1
   0   1  18 44.4289 359.303   2
   0  -1 -19-336.807 742.579   1
   0   2   0 9089.52 376.262   1
   0   2   0 15301.5 862.954   2
   0   2   1 14711.8 890.454   2
   0   2  -1 15887.4 617.624   1
   0   2  -2 4790.96 391.385   1
   0   2   2 4302.69 533.724   2
   0   2   3 35648.8 1544.25   2
   0   2  -3 34322.9 1185.55   1
   0   2  -4 35927.4 1378.06   1
   0  -2   4 33153.9 1632.67   3
   0   2  -5 68329.5 2060.40   1
   0  -2   5 64886.3 2341.64   3
   0   2   5 72561.7 2395.64   2
   0   2   6 11540.4 1018.98   2
   0  -2   6 9061.52 899.219   3
   0   2   7 9156.87 948.729   2
   0  -2   7 7225.97 840.726   3
   0   2   8 11463.7 1115.65   2
   0  -2   8 9011.20 953.094   3
   0  -2   9-57.6648 192.418   3
   0   2   9 104.499 208.196   2
   0  -2  10 4621.17 721.344   3
   0   2  10 6655.74 955.665   2
   0  -2  11 630.798 330.750   3
   0   2  11 1455.11 608.924   2
   0  -2  12 5432.33 817.117   3
   0   2  12 7008.82 1004.34   2
   0   2  13 6968.25 1133.76   2
   0  -2  13 6898.25 962.771   3
   0   2 -14 1525.04 511.378   1
   0   2  14 870.154 590.378   2
   0  -2  14 883.603 347.895   3
   0  -2  15 7948.66 1020.61   3
   0   2 -15 10638.1 1341.89   1
   0   2  15 11791.8 1576.83   2
   0   2 -16 14874.4 1629.24   1
   0   2  16 13282.1 1731.37   2
   0   2  17-476.970 587.854   2
   0  -2 -17 108.182 404.937   1
   0   2 -17 25.3748 198.856   1
   0  -2 -18-81.6603 394.042   1
   0   3   0 51.8057 119.121   2
   0   3   1 857.528 269.428   2
   0   3  -1 731.689 310.173   2
   0   3  -1 355.315 81.9775   1
   0   3  -2 12089.8 666.956   1
   0   3   2 12344.6 1025.65   2
   0   3  -3 8198.44 635.874   1
   0   3   3 7983.95 839.958   2
   0   3   4 972.568 345.030   2
   0   3  -4 890.070 230.204   1
   0   3  -5 1685.36 333.573   1
   0   3   5 1572.03 446.754   2
   0   3  -6 2999.27 499.506   1
   0   3   6 2736.48 577.935   2
   0   3  -7 136.107 124.643   1
   0   3   7 90.3410 221.974   2
   0   3   8 2888.63 606.947   2
   0   3  -8 3195.42 550.689   1
   0   3  -9 4249.00 700.931   1
   0   3   9 4343.76 810.982   2
   0   3 -10 1527.65 438.811   1
   0   3  10 1816.55 554.049   2
   0   3 -11 2853.09 630.456   1
   0   3  11 3339.11 772.258   2
   0   3 -12 3309.49 718.553   1
   0   3  12 2898.86 762.310   2
   0   3 -13-9.08037 236.611   1
   0   3  13 388.767 467.009   2
   0   3  14 149.373 306.188   2
   0   3 -14 423.024 213.122   1
   0   3 -15 510.097 298.974   1
   0   3  15 1401.65 699.816   2
   0   3 -16 2647.46 725.955   1
   0   4   0 53.7497 130.116   2
   0   4   1 291.848 155.959   2
   0   4  -1 445.195 200.098   2
   0   4  -2 115.408 170.438   2
   0   4   2-62.1319 188.619   2
   0   4   3-79.9586 163.643   2
   0   4  -3-1.48913 110.561   2
   0   4   4 182.668 196.123   2
   0   4   5 388.007 236.712   2
   0   4   6 521.666 327.274   2
   0   4   7 615.275 306.231   2
   0   4   8 2957.79 653.139   2
   0   4   9 404.109 297.539   2
   0   4  10 2701.89 738.056   2
   0   4  11 1933.57 638.424   2
   0   4  12 771.626 600.181   2
   0   4  13-173.355 503.292   2
  -1   0  16-133.356 374.817   2
  -1   0  15-130.586 225.528   3
  -1   0  15 716.443 510.031   2
  -1   0  14 3631.03 550.860   3
  -1   0  14 2989.76 732.837   2
  -1   0  13-282.337 274.108   3
  -1   0  13-164.838 265.308   2
  -1   0  12 47987.3 1905.89   3
  -1   0  12 48524.8 2401.98   2
  -1   0  11 205.103 272.243   2
  -1   0  11-396.180 296.982   3
  -1   0  10 98.0299 235.690   3
  -1   0  10 278.197 227.373   2
  -1   0   9-267.956 232.650   2
  -1   0   8 18483.8 1190.43   2
  -1   0   7 392.783 390.281   2
   1   0  -6 94481.4 2203.71   2
  -1   0   6 96700.8 2243.45   2
   1   0  -5-206.377 196.431   2
  -1   0   5-158.643 185.510   2
   1   0  -4 84163.4 1683.17   2
  -1   0   4 83084.4 1667.86   2
   1   0  -3 159.908 78.4895   2
  -1   0   3-30.6380 76.6728   2
  -1   0   2 271499. 2173.23   2
  -1   0  -1 94.5606 66.3935   1
   1   0   2 10468.2 551.209   1
  -1   0  -2 11015.6 554.067   1
  -1   0  -3-15.0566 91.0152   1
  -1   0  -3 1326.89 320.479   2
  -1   0  -4 31372.4 1199.05   2
  -1   0  -4 29379.6 1174.92   1
  -1   0  -5 124.760 182.802   2
  -1   0  -5-69.3670 136.702   1
   1   0   6 302268. 1914.27   3
   1   0   7-32.9205 60.0615   3
   1   0   8 206949. 1929.06   3
   1   0   9 32.0086 57.4000   3
   1   0  10 12721.6 544.742   3
   1   0  11 55.9507 49.8241   3
   1   0  12 6411.72 409.249   3
  -1   0 -13 129.261 309.782   1
  -1   0 -14 4567.41 917.704   1
  -1   0 -15-31.1734 235.402   1
  -1   0 -16 13121.1 1715.73   1
  -1   0 -17 66.2106 332.051   1
  -1   0 -18 934.130 674.315   1
  -1   1  19 4985.17 1119.98   2
  -1   1  18 154.156 434.881   2
  -1   1  17 40.2291 363.464   2
  -1  -1  16 814.426 344.003   3
  -1   1  16 1818.16 636.532   2
  -1  -1  15 42913.7 2079.28   3
  -1   1  15 45762.1 2809.53   2
  -1  -1  14 33247.9 1776.69   3
  -1   1  14 39608.9 2484.52   2
  -1  -1  13 3461.34 587.698   3
  -1   1  13 3559.78 739.270   2
  -1  -1  12 3638.53 590.180   3
  -1   1  12 3466.45 710.832   2
  -1  -1  11 7347.04 796.576   3
  -1   1  11 7511.66 952.605   2
  -1   1  10 1819.21 517.687   2
  -1  -1  10 951.200 302.322   3
  -1  -1   9 4250.57 588.943   3
  -1   1   9 5190.25 716.638   2
  -1  -1   8 8346.32 782.956   3
  -1   1   8 9133.14 902.596   2
  -1   1   7 3372.21 538.073   2
  -1  -1   7 2361.20 426.150   3
   1   1  -7 2847.22 406.496   2
   1   1  -6 19265.6 977.538   2
  -1   1   6 19629.8 1141.08   2
  -1  -1   6 19754.4 1102.07   3
   1   1  -5 114.583 160.847   3
   1   1  -5 284.840 145.288   2
  -1  -1   5 150.326 167.126   3
  -1   1   5 140.904 177.095   2
  -1   1   4 5877.87 592.517   2
  -1  -1   4 6404.45 573.960   3
   1   1  -4 5125.06 417.813   2
   1   1  -4 5988.06 576.347   3
   1  -1  -4 6325.58 583.217   2
   1   1  -3 82586.5 1920.05   3
  -1  -1   3 81108.8 1915.40   3
  -1   1   3 78715.7 1963.09   2
   1  -1  -3 81655.9 1953.33   2
  -1  -1   2 709.579 219.284   3
   1  -1  -2 620.235 142.432   1
  -1   1   2 359.757 180.044   2
   1   1  -2 538.019 184.833   3
  -1   1   1 1055.62 177.225   1
  -1  -1   1 1131.36 235.929   3
   1   1  -1 701.567 109.416   2
   1  -1  -1 1166.36 172.051   1
   1   1  -1 1215.53 250.588   3
  -1  -1   0 446288. 2701.17   2
  -1   1   0 444401. 3469.04   1
   1   1   0 447758. 2410.97   1
   1  -1   0 451874. 3378.79   1
   1   1   0 448859. 3807.96   3
   1   1   0 447599. 2646.92   2
  -1  -1   0 447585. 3912.25   3
   1  -1   1 999999. 5459.89   1
  -1  -1  -1 997183. 5537.66   3
   1   1   1 993564. 3610.43   1
  -1  -1  -1 995177. 4698.18   2
   1   1   1 994720. 5442.07   3
   1   1   1 994318. 4804.69   2
  -1   1  -1 997775. 5527.25   1
  -1  -1  -1 993675. 3803.62   1
   1  -1   2 99185.9 1978.17   1
  -1  -1  -2 97921.2 1717.05   2
   1   1   2 98384.7 1647.60   3
   1   1   2 95539.9 1768.40   2
  -1   1  -2 96271.4 1885.04   1
  -1   1  -2 95758.7 1863.15   3
  -1  -1  -2 100286. 1707.03   3
  -1  -1  -2 96751.0 1348.10   1
  -1   1  -3 24094.4 1027.46   1
  -1  -1  -3 25096.4 822.421   1
  -1   1  -3 27057.4 1020.90   3
  -1  -1  -3 26362.6 996.037   2
   1   1   3 25945.6 817.765   3
   1   1   3 25232.8 1038.23   2
  -1  -1  -4 1122.52 212.653   2
   1   1   4 1119.70 264.722   2
   1   1   4 1383.42 194.272   3
  -1   1  -4 1258.10 270.706   1
  -1  -1  -4 1444.68 227.037   1
  -1   1  -4 1390.17 246.423   3
  -1  -1  -5 132569. 2434.13   1
   1   1   5 128845. 1746.40   3
  -1   1  -5 128854. 2345.53   3
  -1   1  -5 130371. 2901.35   1
   1   1   5 127686. 2831.03   2
   1   1   6 30313.5 831.414   3
   1   1   6 31860.5 1528.30   2
  -1   1  -6 31991.1 1548.25   1
  -1   1  -6 29740.0 1164.64   3
  -1  -1  -6 28591.8 1253.51   1
  -1   1  -7 19913.9 1306.62   1
   1   1   7 19930.2 1285.36   2
  -1   1  -7 19086.5 979.694   3
   1   1   7 20013.5 674.908   3
   1  -1   8 26870.1 1184.22   3
   1   1   8 25774.2 760.152   3
   1   1   8 26785.5 1573.23   2
  -1   1  -8 25485.3 1207.06   3
  -1   1  -8 27622.0 1641.30   1
   1  -1   9 4309.52 503.438   3
   1   1   9 4232.81 684.776   2
  -1   1  -9 4268.12 656.737   1
   1   1  10 26808.4 1809.43   2
  -1   1 -10 27800.8 1832.61   1
   1  -1  10 26265.0 1246.97   3
   1   1  11 33.9681 240.814   2
   1   1  11 104.045 101.228   3
   1   1  11 46.4049 40.3073   3
  -1   1 -11 140.803 213.494   1
  -1  -1 -12 1264.77 455.602   1
   1   1  12 1764.00 589.647   2
  -1   1 -12 1131.76 435.585   1
   1   1  13 5398.64 961.804   2
  -1   1 -13 6137.80 975.123   1
  -1  -1 -13 6566.33 986.723   1
  -1   1 -14 5428.81 945.814   1
   1   1  14 5424.19 1008.01   2
  -1  -1 -14 5168.99 935.803   1
   1   1  15 5172.11 1026.19   2
  -1  -1 -15 5730.85 1071.98   1
  -1   1 -15 4891.56 933.307   1
  -1   1 -16-1.76547 343.568   1
  -1  -1 -16-422.610 487.434   1
  -1   1 -17 533.610 452.290   1
  -1  -1 -17 1497.42 668.711   1
  -1  -1 -18 606.791 536.427   1
  -1   1 -18-101.675 347.655   1
  -1  -1 -19-51.9116 380.526   1
  -1   2  17 18115.0 2058.80   2
  -1   2  16 19510.7 2041.95   2
  -1  -2  16 14475.7 1440.16   3
  -1   2  15 5612.62 1097.15   2
  -1  -2  15 3331.10 679.260   3
  -1  -2  14 230.134 287.125   3
  -1   2  14 334.476 362.758   2
  -1   2  13 1943.70 561.013   2
  -1  -2  13 1552.69 477.813   3
  -1   2  12 1593.25 589.629   2
  -1  -2  12 1060.94 390.787   3
  -1  -2  11 1747.93 484.575   3
  -1   2  11 2834.28 635.736   2
  -1   2  10 3100.39 694.496   2
  -1  -2  10 2633.86 565.188   3
  -1  -2   9 1907.67 489.554   3
  -1   2   9 1337.67 434.515   2
  -1  -2   8 6384.24 812.139   3
  -1   2   8 7460.06 919.986   2
  -1   2   7 2936.00 732.044   2
  -1  -2   7 2697.59 526.691   3
  -1   2   6 19559.3 1373.52   2
  -1  -2   6 16491.5 1229.14   3
  -1   2   5 4600.03 624.912   2
   1  -2  -5 4054.10 413.001   1
  -1  -2   5 4083.89 614.826   3
  -1  -2   4 23363.2 1376.97   3
   1  -2  -4 24425.9 954.726   1
  -1   2   4 24005.2 1394.02   2
   1  -2  -3 2536.66 276.296   1
  -1   2   3 2318.15 421.083   2
  -1  -2   3 1724.34 420.957   3
  -1   2   2 6283.04 654.050   2
  -1  -2   2 6299.15 704.233   3
   1  -2  -2 6509.20 405.806   1
   1   2  -1 17365.9 800.939   2
   1  -2  -1 20036.3 751.550   1
  -1  -2   1 18640.4 1195.44   3
  -1   2   1 18638.8 712.838   1
   1   2   0 304.190 150.555   2
  -1   2   0 76.2874 82.1999   1
  -1  -2   0 263.402 170.222   3
   1  -2   0 246.984 116.472   1
   1   2   1 7962.82 616.984   2
  -1   2  -1 8301.66 577.923   1
  -1   2  -2 194901. 3016.05   1
   1   2   2 194044. 3180.77   2
  -1  -2  -3 220131. 3624.53   2
   1   2   3 223259. 3621.08   2
  -1   2  -3 223216. 3459.65   1
   1   2   4 94221.1 2528.67   2
  -1   2  -4 91862.7 2371.63   1
  -1   2  -5 5237.51 611.432   1
  -1  -2  -5 5285.49 429.209   1
   1   2   5 5074.02 646.293   2
   1   2   6 10401.2 957.370   2
  -1  -2  -6 9402.01 658.725   1
  -1   2  -6 9018.94 841.917   1
  -1   2  -7 1645.38 380.512   1
  -1  -2  -7 2002.38 336.805   1
   1   2   7 2304.24 514.779   2
   1   2   8 137.834 213.373   2
  -1  -2  -8 117.558 102.029   1
  -1   2  -8 131.710 199.951   1
   1   2   9 1053.73 450.140   2
   1   2   9 543.916 148.538   3
  -1   2  -9 930.261 350.360   1
  -1  -2  -9 1235.62 314.669   1
  -1   2 -10 504.796 259.765   1
   1   2  10 1033.83 433.873   2
  -1  -2 -10 693.546 227.477   1
  -1   2 -11 378.571 291.312   1
  -1  -2 -11 374.193 217.307   1
   1   2  11 273.104 277.989   2
  -1  -2 -12 7300.73 931.788   1
  -1   2 -12 7276.37 1027.91   1
   1   2  12 7873.87 1146.06   2
  -1   2 -13 740.505 347.396   1
  -1  -2 -13 1011.71 424.111   1
   1   2  13 1187.86 571.834   2
   1   2  14-255.527 479.401   2
  -1  -2 -14-19.9925 180.242   1
  -1   2 -14 238.915 188.697   1
   1   2  15 69.1923 359.407   2
  -1   2 -15-128.040 361.118   1
  -1  -2 -15-12.3462 266.126   1
  -1  -2 -16 724.675 287.104   1
  -1   2 -16 1541.25 584.420   1
   1   2  16 1586.71 699.287   2
  -1  -2 -17 112.589 232.460   1
   1   2  17 515.975 510.552   2
  -1   2 -17-216.522 189.150   1
  -1  -3  16 198.521 353.580   3
   1   3 -16 1170.76 509.886   1
  -1   3  15 163.107 316.595   2
  -1  -3  15 560.517 405.726   3
   1   3 -15-18.6054 178.394   1
  -1   3  14-51.7288 309.949   2
  -1  -3  14 181.507 213.475   3
   1   3 -14 414.754 380.365   1
   1   3 -13-357.223 308.602   1
  -1  -3  13-264.231 404.396   3
  -1   3  13-110.793 278.223   2
   1   3 -12 282.725 241.223   1
  -1  -3  12-175.260 374.900   3
  -1   3  12-287.924 437.932   2
  -1   3  11 8284.40 1195.67   2
  -1  -3  11 8458.87 1206.02   3
  -1   3  10 6873.29 1055.42   2
  -1  -3  10 3921.55 831.494   3
  -1   3   9 3661.81 796.671   2
  -1  -3   9 2939.88 713.884   3
  -1   3   8 1212.66 406.910   2
   1   3  -8 1172.98 343.244   1
  -1  -3   8 1062.42 467.889   3
   1   3  -7 3415.95 538.833   1
  -1   3   7 3267.52 646.294   2
  -1  -3   7 2191.02 535.005   3
  -1   3   6-245.088 295.609   2
  -1  -3   6 522.149 335.842   3
   1   3  -6 180.217 145.537   1
  -1  -3   5 1708.79 502.760   3
  -1   3   5 1494.48 454.275   2
   1   3  -5 1310.59 274.381   1
  -1   3   4 13745.3 1197.66   2
   1   3  -4 12677.4 781.130   1
  -1  -3   4 13156.8 1305.34   3
  -1   3   3 35793.5 1864.53   2
   1   3  -3 32169.2 1093.34   1
   1   3  -2 270.496 156.253   2
   1   3  -2 213.131 73.0354   1
   1   3  -1 4816.42 563.820   2
  -1   3   1 5054.98 672.142   2
  -1   3   0 169.893 205.429   2
  -1   3   0 85.0847 63.8669   1
   1   3   0-5.75381 91.1547   2
  -1   3  -1 1774.00 307.257   1
   1   3   1 1810.64 376.762   2
   1   3   2 10647.4 899.844   2
  -1   3  -2 10033.2 767.117   1
   1   3   3 2491.13 455.675   2
  -1   3  -3 1908.25 366.561   1
   1   3   4 17121.2 1231.56   2
  -1   3  -4 18165.0 1160.20   1
  -1   3  -5 12782.9 1030.26   1
   1   3   5 10997.3 1025.84   2
  -1   3  -6 22175.1 1408.43   1
   1   3   6 21937.6 1541.82   2
  -1   3  -7 230.130 195.392   1
   1   3   7 69.5865 302.443   2
   1   3   8 559.861 397.095   2
  -1   3  -8-150.528 279.183   1
   1   3   9 972.081 393.555   2
  -1   3  -9 1100.89 362.821   1
  -1   3 -10 2209.87 536.365   1
   1   3  10 2197.64 657.062   2
   1   3  11 25.5956 366.305   2
  -1   3 -11 1119.19 401.914   1
  -1   3 -12 587.047 357.682   1
   1   3  12 228.743 279.481   2
   1   3  13 420.778 442.777   2
  -1   3 -13-34.7782 187.693   1
  -1   3 -14 513.659 329.801   1
   1   3  14 1311.84 705.328   2
  -1   3 -15 478.160 216.573   1
   1   3  15 843.102 554.156   2
  -1   4  12 2179.30 744.818   2
  -1   4  11 3.83877 239.150   2
  -1   4  10 2523.09 723.279   2
  -1   4   9 3599.42 739.879   2
  -1   4   8-23.3141 238.727   2
  -1   4   7 319.232 301.548   2
  -1   4   6 755.253 340.463   2
  -1   4   5 4748.76 819.133   2
  -1   4   4 5704.29 879.345   2
  -1   4   3 1787.40 468.616   2
  -1   4   2 9479.08 1072.04   2
  -1   4   1 7683.89 978.249   2
  -1   4   0 397.613 200.838   2
  -1   4  -1-124.153 145.780   2
  -1   4  -2 349.883 299.380   2
   1   4   5 3677.75 645.065   2
   1   4   6 164.805 290.755   2
   1   4   7 1425.11 476.101   2
   1   4   8-962.917 423.618   2
   1   4   9 177.217 231.568   2
   1   4  10-444.429 363.310   2
   1   4  11-589.788 415.189   2
   1   4  12-159.517 339.948   2
  -2   0  19 26.7584 409.768   2
  -2   0  18 5343.88 1076.04   2
  -2   0  17 414.422 390.264   2
  -2   0  16-145.440 411.543   2
  -2   0  16 104.816 351.002   3
  -2   0  15 259.336 263.168   3
  -2   0  15-522.317 455.125   2
  -2   0  14 230426. 5698.34   2
  -2   0  14 230114. 5027.77   3
  -2   0  13-303.370 339.952   2
  -2   0  13 183.933 412.677   3
  -2   0  12 80763.7 3034.97   2
  -2   0  11-107.303 228.491   2
  -2   0  10 35228.5 1798.50   2
  -2   0   9 149.788 239.895   2
  -2   0   8 1080.13 346.429   2
  -2   0   7 29.5723 157.462   2
  -2   0   6 4409.62 471.471   2
   2   0  -6 4311.18 461.159   2
   2   0  -5 58.4657 102.101   2
  -2   0   5-8.84822 125.993   2
   2   0  -4 79439.1 1697.39   2
  -2   0   4 76434.8 1644.71   2
  -2   0   3 44.5904 84.9267   2
   2   0  -2 116902. 2156.94   1
   2   0  -1-71.8425 129.294   1
  -2   0   1 260.702 159.058   1
  -2   0   0 163256. 2535.71   1
   2   0   0 162431. 2510.14   1
  -2   0  -1 117.479 133.097   1
   2   0   1-23.1478 82.8834   1
  -2   0  -2 77211.4 1866.12   1
   2   0   2 82924.4 1946.29   1
   2   0   3 41.5734 110.268   1
  -2   0  -3-57.2023 128.296   1
  -2   0  -4 31904.4 1333.21   1
   2   0   4 31959.2 1394.75   1
  -2   0  -5 86.1247 112.467   1
  -2   0  -6 21854.1 1246.79   1
  -2   0  -7 10.7233 136.754   1
  -2   0  -8 5248.82 696.428   1
  -2   0  -9-0.29009 132.269   1
  -2   0 -10 989.862 337.206   1
  -2   0 -11 99.9951 216.477   1
  -2   0 -12 129.953 266.206   1
  -2   0 -13 156.860 309.232   1
  -2   0 -14 19046.1 1822.67   1
  -2   0 -15-399.550 463.104   1
  -2   0 -16 3620.00 907.737   1
  -2   0 -17-93.6021 282.937   1
  -2   0 -18 263.119 416.761   1
  -2   1  19 10986.2 1682.81   2
  -2   1  18 370.818 404.648   2
  -2  -1  17 554.364 313.260   3
  -2   1  17 840.255 509.606   2
  -2  -1  16 15789.2 1394.52   3
  -2   1  16 18839.2 1878.25   2
  -2   1  15 9169.74 1265.90   2
  -2  -1  15 9906.40 1081.52   3
  -2  -1  14 3809.40 722.118   3
  -2   1  14 5029.93 921.561   2
  -2  -1  13 10518.6 1104.53   3
  -2   1  13 13176.8 1373.82   2
  -2  -1  12 42019.4 2113.86   3
  -2   1  12 46771.1 2468.03   2
  -2   1  11 33886.2 2011.26   2
  -2  -1  11 32248.7 1809.08   3
  -2   1  10 10622.9 1070.32   2
  -2  -1  10 10648.0 1012.66   3
  -2  -1   9 13248.9 1010.42   2
  -2   1   9 12646.2 1118.04   2
  -2  -1   9 11905.2 1027.80   3
  -2  -1   8 10391.4 924.952   3
  -2  -1   8 11107.2 843.509   2
  -2   1   8 9746.62 926.651   2
   2   1  -8 10075.8 746.772   2
  -2  -1   7 34679.0 1341.00   2
  -2  -1   7 31581.7 1586.75   3
   2   1  -7 33092.1 1239.14   2
  -2   1   6 56002.5 2034.24   2
   2   1  -6 52657.0 1401.72   2
  -2  -1   6 50751.4 1452.74   2
  -2  -1   6 53506.2 1970.21   3
  -2   1   5 27818.6 1363.37   2
  -2  -1   5 26423.4 1335.56   3
   2   1  -5 27716.9 889.267   2
  -2  -1   4 405.274 227.993   3
  -2   1   4 597.171 232.598   2
   2  -1  -4 587.775 191.152   1
   2   1  -4 573.418 107.887   2
  -2   1   3 4413.55 506.554   2
   2   1  -3 6240.44 631.859   3
   2  -1  -3 4842.20 509.789   1
  -2  -1   3 5140.72 562.781   3
  -2   1   2 3247.68 384.708   1
  -2  -1   2 3925.83 473.844   3
   2   1  -2 4057.37 488.748   3
   2  -1  -2 4383.21 460.198   1
   2   1  -2 3659.40 375.210   1
  -2  -1   1 8332.62 632.532   3
   2  -1  -1 8590.70 620.779   1
   2   1  -1 8697.49 649.754   3
  -2   1   1 8361.14 615.502   1
   2   1  -1 8016.15 514.579   1
   2   1   0 6553.76 546.323   3
   2  -1   0 5579.60 498.499   1
  -2   1   0 5188.47 504.702   1
  -2  -1   0 5776.46 438.819   1
  -2  -1   0 5907.01 509.659   3
   2   1   0 4971.48 390.882   1
  -2  -1   0 5863.75 303.184   2
  -2  -1  -1 45638.6 1296.80   3
  -2  -1  -1 46235.9 1079.46   2
  -2   1  -1 42400.1 1449.66   1
  -2  -1  -1 44614.0 1221.45   1
   2   1   1 44726.8 1205.85   1
   2  -1   1 44415.8 1459.20   1
   2  -1   2 6565.75 590.582   1
  -2   1  -2 6564.23 596.522   1
   2   1   2 6771.47 519.134   2
   2   1   2 6344.18 484.802   1
  -2  -1  -2 7458.24 496.014   2
  -2  -1  -2 6669.66 480.341   1
  -2  -1  -2 7211.21 490.989   3
   2   1   2 7324.43 525.396   3
  -2  -1  -3 9737.56 658.756   2
   2   1   3 8697.88 620.976   1
   2   1   3 8373.53 537.911   3
  -2  -1  -3 9324.08 526.110   3
  -2   1  -3 8447.56 716.647   1
  -2  -1  -3 8247.99 586.897   1
   2   1   3 9058.26 662.991   2
   2   1   4 1290.83 318.417   3
  -2   1  -4-0.55403 154.919   1
  -2  -1  -4-9.73450 72.6288   3
  -2  -1  -4 232.120 159.042   1
  -2   1  -4 163.473 125.329   3
   2   1   4 884.636 384.736   2
  -2  -1  -4 385.129 212.324   2
  -2  -1  -5 44998.9 1603.06   1
  -2   1  -5 48111.0 1893.27   1
   2   1   5 45641.7 1787.81   2
   2   1   5 46118.7 1088.12   3
  -2   1  -5 46700.9 1442.80   3
  -2   1  -6 1262.31 394.454   1
  -2  -1  -6 1129.10 291.114   1
   2   1   6 1254.33 366.276   2
  -2   1  -6 933.059 197.411   3
  -2   1  -7 38685.2 1353.67   3
  -2  -1  -7 40900.9 1743.79   1
  -2   1  -7 41434.8 1935.37   1
   2   1   7 44136.6 2013.78   2
  -2  -1  -8 13797.1 1066.57   1
   2   1   8 14338.2 1277.69   2
  -2   1  -8 13924.0 1204.72   1
  -2   1  -8 13547.5 839.101   3
  -2  -1  -9 38519.8 1887.49   1
  -2   1  -9 39715.3 2155.21   1
   2   1   9 41525.9 2252.04   2
  -2   1  -9 36522.4 1448.05   3
   2   1  10-1.12000 269.084   2
  -2   1 -10-45.5710 209.263   1
  -2  -1 -10-95.9859 221.942   1
  -2   1 -11 320.488 274.856   1
  -2  -1 -11 140.721 199.630   1
  -2   1 -12 8401.51 1144.98   1
  -2  -1 -12 8514.01 1033.86   1
  -2   1 -13-26.2406 219.910   1
  -2  -1 -13-64.6554 214.084   1
  -2  -1 -14-242.392 292.974   1
  -2   1 -14 39.6519 237.900   1
  -2  -1 -15-202.727 304.313   1
  -2   1 -15 208.438 217.924   1
  -2   1 -16 3552.85 890.647   1
  -2  -1 -16 3213.36 815.503   1
  -2  -1 -17 5091.79 1130.85   1
  -2   1 -17 4490.72 1023.30   1
  -2  -1 -18 16.6972 320.480   1
  -2  -2  17 5957.18 955.804   3
  -2   2  17 8486.38 1426.29   2
  -2   2  16 342.185 387.930   2
  -2  -2  16 334.208 207.632   3
  -2  -2  15 260.248 298.228   3
  -2   2  15-186.984 504.876   2
  -2  -2  14 540.757 318.719   3
  -2   2  14 1596.18 567.880   2
  -2  -2  13 515.770 258.269   3
  -2   2  13 1433.50 648.918   2
  -2  -2  12 54.1036 224.496   3
  -2   2  12 460.251 355.194   2
  -2  -2  11 1224.84 417.307   3
  -2   2  11 1994.35 524.073   2
  -2  -2  10 5040.88 800.505   3
  -2   2  10 5035.11 843.219   2
  -2   2   9 43603.0 2320.40   2
  -2  -2   9 41439.5 2167.87   3
  -2  -2   8 1566.92 459.584   3
   2   2  -8 1526.20 318.063   2
  -2   2   8 1856.98 484.756   2
   2   2  -7 84.0667 94.7907   2
  -2  -2   7 227.687 215.532   3
  -2   2   7 176.421 239.101   2
   2  -2  -6 10397.7 812.846   1
  -2   2   6 11645.9 1133.07   2
   2   2  -6 7947.35 544.750   2
  -2  -2   6 9393.02 955.786   3
  -2  -2   5 880.637 327.898   3
   2   2  -5 966.610 178.936   2
  -2   2   5 937.814 318.097   2
   2  -2  -5 1207.87 271.579   1
   2  -2  -4 28783.3 1271.84   1
  -2   2   4 26593.2 1508.32   2
  -2  -2   4 23749.4 1463.19   3
  -2   2   3 5039.90 647.955   2
   2  -2  -3 5774.90 531.776   1
  -2  -2   3 4259.14 603.678   3
   2   2  -3 4119.78 293.483   2
   2   2  -2 39070.8 860.934   2
   2  -2  -2 42628.5 1380.23   1
  -2   2   2 38549.3 1321.18   1
  -2  -2   2 36883.7 1735.04   3
   2   2  -2 41117.5 1149.11   1
   2   2  -1 27052.2 773.357   2
   2  -2  -1 27240.8 1135.91   1
  -2  -2   1 23989.9 1367.43   3
   2   2  -1 26552.1 832.079   1
  -2   2   1 26885.1 1161.65   1
  -2  -2   0 14827.0 1045.98   3
   2  -2   0 16275.3 905.994   1
   2   2   0 17705.6 719.462   2
  -2   2   0 17958.3 1018.11   1
   2   2   0 14901.8 574.981   1
   2   2   1 62979.6 1543.52   2
  -2  -2  -1 58135.5 1537.30   2
   2   2   1 57099.0 1066.65   1
   2  -2   1 60546.5 1826.50   1
  -2   2  -1 66722.8 2003.85   1
  -2  -2  -1 62274.3 2146.18   3
   2   2   2 114116. 2332.00   2
  -2   2  -2 114638. 2676.78   1
  -2  -2  -2 108287. 2320.81   2
  -2  -2  -2 111100. 1628.83   1
  -2  -2  -2 108013. 2836.59   3
  -2  -2  -3 958.736 160.998   1
  -2   2  -3 992.858 303.105   1
  -2  -2  -3 690.705 185.855   2
   2   2   3 798.552 252.390   2
  -2   2  -4 1404.24 350.765   1
   2   2   4 1472.67 350.337   2
  -2  -2  -4 1780.38 248.727   1
   2   2   5 261.163 189.378   2
  -2   2  -5 72.5965 144.387   1
  -2  -2  -5 235.524 131.201   1
   2   2   6 1192.47 319.196   2
  -2   2  -6 1484.15 362.450   1
   2   2   6 840.435 208.975   3
  -2  -2  -6 1012.45 257.129   1
   2   2   7 341.217 178.394   3
  -2   2  -7 718.554 305.014   1
  -2  -2  -7 775.778 254.206   1
   2   2   7 682.322 340.184   2
   2   2   8 1511.30 283.269   3
  -2  -2  -8 2674.77 475.548   1
   2   2   8 2182.27 520.058   2
  -2   2  -8 1928.83 466.763   1
  -2   2  -9 7944.88 1006.68   1
  -2  -2  -9 8322.94 872.921   1
   2   2   9 7455.46 1008.26   2
  -2  -2 -10 26175.8 1636.78   1
  -2   2 -10 27658.8 1936.20   1
   2   2  10 28207.1 2011.11   2
  -2   2 -11 5333.34 888.239   1
  -2  -2 -11 5968.93 833.689   1
   2   2  11 5880.65 969.211   2
  -2  -2 -12 42.6952 173.562   1
  -2   2 -12-34.2858 207.931   1
   2   2  12 127.780 396.063   2
   2   2  13 1543.77 576.871   2
  -2   2 -13 1022.80 415.261   1
  -2  -2 -13 1025.58 368.352   1
  -2  -2 -14 1362.60 480.081   1
   2   2  14 676.691 318.708   2
  -2   2 -14 950.859 410.558   1
  -2  -2 -15-283.010 374.700   1
   2   2  15 357.506 370.443   2
  -2   2 -15 848.974 477.474   1
  -2   2 -16 66.5615 279.842   1
  -2  -2 -16 226.310 278.018   1
  -2  -3  17 1220.78 640.698   3
  -2  -3  16 362.910 316.118   3
  -2  -3  15 291.308 374.374   3
  -2   3  15-407.747 470.613   2
  -2  -3  14 641.991 373.927   3
  -2   3  14-395.270 514.703   2
  -2   3  13 29.4215 508.134   2
  -2  -3  13-66.2891 383.671   3
  -2   3  12 4436.71 916.149   2
  -2  -3  12 2221.51 640.474   3
  -2  -3  11 2099.86 585.644   3
  -2   3  11 2059.42 622.943   2
  -2  -3  10 353.813 224.633   3
  -2   3  10 1272.85 514.283   2
  -2  -3   9 295.973 216.314   3
  -2   3   9 1303.43 516.205   2
  -2  -3   8 1124.52 483.107   3
  -2   3   8 1415.61 473.947   2
  -2   3   7 1225.97 439.215   2
  -2  -3   7 1279.26 423.920   3
  -2   3   6 509.255 230.275   2
  -2  -3   6 736.291 354.373   3
  -2   3   5 1890.47 511.501   2
  -2  -3   5 2040.15 554.745   3
   2   3  -4 3161.93 342.066   2
  -2   3   4 4389.88 687.860   2
  -2  -3   4 2952.36 656.457   3
  -2  -3   3 17554.7 1544.94   3
  -2   3   3 18329.0 1370.97   2
   2   3  -3 17786.2 819.700   2
   2  -3  -3 19173.5 923.080   1
   2  -3  -2 21355.9 1009.94   1
  -2  -3   2 18445.7 1560.42   3
  -2   3   2 19644.0 1411.95   2
   2   3  -2 19867.8 874.957   2
  -2   3   1 4807.30 516.916   1
   2  -3  -1 5520.65 559.035   1
  -2   3   1 5194.17 757.187   2
   2   3  -1 5241.80 478.862   2
  -2  -3   1 3650.74 716.695   3
   2   3   0 3440.03 419.906   2
  -2   3   0 3061.68 448.211   1
  -2   3  -1 62.9393 155.250   1
   2   3   1 22.7779 110.692   2
   2   3   2 9427.32 776.581   2
  -2   3  -2 10925.6 938.538   1
   2   3   3 55239.9 2027.60   2
  -2   3  -3 59361.4 2249.51   1
   2   3   4 37488.7 1793.44   2
  -2   3  -4 38374.1 1849.51   1
  -2   3  -5 78434.1 2770.98   1
   2   3   5 75237.7 2680.92   2
   2   3   6 6331.82 796.851   2
  -2   3  -6 8173.17 933.074   1
   2   3   7-721.164 382.325   2
  -2   3  -7 111.067 166.107   1
  -2   3  -8 100.152 145.051   1
   2   3   8-304.356 352.588   2
   2   3   9 1308.81 548.832   2
  -2   3  -9 670.429 322.694   1
  -2   3 -10-415.860 399.338   1
   2   3  10-182.727 324.767   2
   2   3  11-60.3429 312.244   2
  -2   3 -11 118.764 208.638   1
   2   3  12 4895.39 1003.18   2
  -2   3 -12 4073.97 833.383   1
   2   3  13 50.8381 402.140   2
  -2   3 -13 1219.06 452.785   1
   2   3  14-547.453 643.588   2
  -2   3 -14 229.022 270.852   1
   2   3  15-1835.68 731.573   2
  -2   4  12-234.250 283.158   2
  -2  -4  11-15.1153 295.838   3
  -2   4  11 899.733 474.382   2
  -2  -4  10-9.11900 378.185   3
  -2   4  10 7.19982 410.483   2
  -2   4   9-338.440 404.005   2
  -2   4   8-182.252 344.272   2
  -2   4   7 106.350 276.389   2
  -2   4   6 1165.12 386.002   2
  -2   4   5 1901.17 531.752   2
  -2   4   4 6257.56 916.647   2
  -2   4   3 2772.68 651.752   2
  -2   4   2 3286.21 722.200   2
  -2   4   1 509.133 281.245   2
  -2   4   0 978.526 457.284   2
  -2   4  -1 279.892 286.280   2
  -3   0  20 4351.24 996.428   2
  -3   0  19 295.332 532.237   2
  -3   0  18 5436.29 911.786   3
  -3   0  18 4145.00 942.096   2
  -3   0  17-148.138 291.817   2
  -3   0  17-131.439 386.303   3
  -3   0  16 337.690 349.881   2
  -3   0  16 164.099 346.155   3
  -3   0  15 378.197 355.677   2
  -3   0  15 743.689 560.627   3
  -3   0  14 16909.2 1543.33   2
  -3   0  13-133.219 273.140   2
  -3   0  12 1349.40 409.440   2
  -3   0  11 620.492 394.135   2
  -3   0  10 7815.55 849.808   2
  -3   0   9-177.423 253.162   2
  -3   0   8 79206.4 2340.41   2
  -3   0   7-142.857 168.622   2
   3   0  -6 297550. 4052.61   2
  -3   0   6 292415. 4001.94   2
  -3   0   5 151.909 174.957   2
  -3   0   4 31604.4 1213.77   2
   3   0  -3-133.895 110.768   1
   3   0  -2 97221.3 2441.41   1
  -3   0   2 93881.1 2356.75   1
   3   0  -1-5.96682 133.296   1
  -3   0   1-80.0013 150.117   1
   3   0   0 26822.5 1241.46   1
  -3   0   0 26803.3 1266.32   1
  -3   0  -1-217.909 164.029   1
   3   0   1-142.069 145.313   1
  -3   0  -2 299482. 4320.54   1
  -3   0  -3-128.729 193.212   1
  -3   0  -4 3157.73 501.263   1
  -3   0  -5 17.8929 117.300   1
  -3   0  -6 51402.0 2142.75   1
  -3   0  -6 50087.0 892.595   3
  -3   0  -7 106.168 169.646   1
  -3   0  -8 6486.32 818.286   1
  -3   0  -9 38.4270 160.443   1
  -3   0 -10 5272.82 845.942   1
  -3   0 -11 18.2651 245.042   1
  -3   0 -12 2279.65 575.935   1
  -3   0 -13 264.935 288.962   1
  -3   0 -14 555.095 310.240   1
  -3   0 -15 241.864 383.105   1
  -3   0 -16 4246.33 972.274   1
  -3   0 -17-110.694 354.907   1
  -3   1  19 536.641 462.392   2
  -3   1  18 408.735 360.314   2
  -3  -1  18 1256.82 508.245   3
  -3   1  17 3585.27 866.832   2
  -3  -1  17 1907.99 552.125   3
  -3   1  16 1258.36 517.627   2
  -3  -1  16 885.625 492.881   3
  -3   1  15 1678.39 564.589   2
  -3  -1  15 2445.80 631.204   3
  -3   1  14 13821.3 1543.07   2
  -3  -1  14 14252.7 1386.32   2
  -3  -1  14 12484.2 1314.43   3
  -3   1  13 54672.9 2812.20   2
  -3  -1  13 50996.0 2569.80   3
  -3  -1  13 55544.9 2674.94   2
  -3  -1  12 19653.4 1475.36   2
  -3   1  12 19734.1 1631.90   2
  -3  -1  12 18247.2 1529.20   3
  -3   1  11 28893.0 1869.88   2
  -3  -1  11 29068.8 1639.88   2
  -3  -1  11 26573.4 1796.79   3
  -3  -1  10 1450.59 525.118   3
  -3  -1  10 2179.44 457.602   2
  -3   1  10 1589.19 440.517   2
  -3   1   9 37112.2 1952.79   2
  -3  -1   9 33080.4 1492.04   2
  -3  -1   9 36192.1 1981.52   3
   3   1  -8 13966.0 836.880   2
  -3   1   8 14850.0 1186.94   2
  -3  -1   8 14116.7 884.663   2
  -3  -1   8 13111.3 1183.56   3
   3   1  -7 12931.4 725.454   2
  -3   1   7 12004.0 1048.99   2
  -3  -1   7 12290.9 749.942   2
  -3  -1   7 12531.5 1144.80   3
   3   1  -6 9387.91 553.859   2
  -3   1   6 10530.6 931.513   2
  -3  -1   6 8069.62 532.295   2
  -3  -1   6 8404.67 904.953   3
  -3  -1   5 2027.57 449.329   3
  -3   1   5 2863.56 468.996   2
  -3  -1   5 2613.95 261.559   2
  -3   1   4 87334.6 2443.87   2
  -3  -1   4 81889.8 1173.53   2
  -3  -1   4 85283.2 2557.01   3
  -3  -1   3-164.110 416.284   3
   3   1  -3-53.7459 144.275   1
  -3   1   3-54.8742 144.108   1
   3   1  -2 120.450 110.501   1
  -3  -1   2 127.101 227.336   3
  -3   1   2 31.3223 115.982   1
  -3  -1   1 66716.8 1116.99   2
  -3  -1   1 67115.4 1986.77   3
   3   1  -1 69339.4 1864.64   1
  -3  -1   1 68201.8 1900.29   1
  -3   1   1 68206.4 2115.73   1
  -3  -1   0 102019. 1626.57   2
   3   1   0 101063. 2235.15   1
  -3   1   0 100499. 2617.12   1
  -3  -1   0 98332.4 2277.04   1
  -3  -1   0 102332. 2335.80   3
  -3  -1  -1 133569. 2142.35   2
   3   1   1 132874. 2607.35   1
  -3   1  -1 131152. 3038.03   1
  -3  -1  -1 129853. 2637.71   1
  -3  -1  -1 133435. 2545.10   3
   3   1   2 5142.70 537.688   1
  -3  -1  -2 5647.15 495.370   2
  -3   1  -2 5525.61 629.398   1
  -3  -1  -2 5063.26 530.429   1
  -3  -1  -2 6368.29 517.396   3
  -3  -1  -3 1094.81 249.728   2
  -3  -1  -3 1245.66 252.115   3
  -3   1  -3 1266.56 343.482   1
  -3  -1  -3 1427.70 304.036   1
  -3   1  -4 3676.97 571.084   1
  -3  -1  -4 3496.80 475.829   1
  -3  -1  -4 3557.31 345.786   3
  -3   1  -5 2221.08 464.215   1
  -3  -1  -5 1987.35 404.907   1
  -3  -1  -5 2154.34 249.291   3
  -3   1  -6-180.853 197.994   3
  -3   1  -6-87.1429 136.007   1
  -3  -1  -6 124.370 134.931   1
  -3   1  -7 8029.04 924.443   1
  -3  -1  -7 7401.80 811.850   1
  -3   1  -7 7603.13 618.122   3
  -3   1  -8 3520.08 418.244   3
  -3   1  -8 3987.94 649.579   1
  -3  -1  -8 3260.11 547.482   1
  -3   1  -9 4977.61 815.124   1
  -3  -1  -9 5093.58 755.316   1
  -3  -1 -10 1352.67 367.392   1
  -3   1 -10 1024.52 394.827   1
  -3  -1 -11 3552.52 663.102   1
  -3   1 -11 3917.71 793.155   1
  -3   1 -12 112.024 203.484   1
  -3  -1 -12-56.5938 166.497   1
  -3   1 -13-250.222 377.930   1
  -3  -1 -13 316.273 315.256   1
  -3   1 -14 8868.68 1291.00   1
  -3  -1 -14 6814.93 1065.82   1
  -3   1 -15 588.595 329.054   1
  -3  -1 -15 872.163 447.690   1
  -3   1 -16 541.701 453.106   1
  -3  -1 -16 553.393 357.193   1
  -3  -1 -17 203.898 462.122   1
  -3  -2  18 1112.94 378.198   3
  -3  -2  17-349.193 390.657   3
  -3   2  17 425.627 466.594   2
  -3  -2  16 1484.15 501.035   3
  -3   2  16 2006.77 707.774   2
  -3  -2  15-62.9895 341.462   3
  -3   2  15 763.007 500.931   2
  -3  -2  14 732.963 377.935   3
  -3   2  14 1196.86 550.386   2
  -3  -2  13 237.601 255.037   3
  -3   2  13 57.7110 252.925   2
  -3   2  12 15950.9 1590.91   2
  -3  -2  12 16427.9 1552.79   3
  -3   2  11 52668.9 2789.78   2
  -3  -2  11 47216.0 2550.03   3
  -3   2  10 44393.9 2508.60   2
  -3  -2  10 41321.1 2318.68   3
  -3   2   9 10300.3 1172.67   2
  -3  -2   9 11270.2 1216.29   3
  -3  -2   8 827.738 348.346   3
  -3   2   8 1190.67 424.599   2
   3   2  -8 1068.08 202.089   2
  -3   2   7 2126.27 502.800   2
   3   2  -7 1357.12 191.276   2
  -3  -2   7 2206.54 543.298   3
  -3  -2   6 645.668 303.374   3
   3   2  -6 746.748 109.899   2
  -3  -2   5 1323.50 402.930   3
  -3   2   5 605.865 230.047   2
  -3  -2   4 896.231 338.913   3
  -3   2   4 1073.69 322.050   2
  -3   2   3 4798.39 663.884   2
   3   2  -3 5190.30 509.011   1
  -3  -2   3 4792.13 695.582   3
   3   2  -2 52167.1 1528.83   1
  -3   2   2 51198.2 1874.01   1
  -3  -2   2 50913.2 2106.55   3
   3   2  -1 4754.91 445.025   1
  -3   2   1 5335.35 634.130   1
  -3  -2   1 4785.90 631.742   3
  -3  -2   0 11536.7 956.637   3
   3   2   0 13136.1 723.097   1
  -3   2   0 14267.3 1081.39   1
  -3  -2  -1 2163.95 446.636   3
  -3   2  -1 1892.57 429.677   1
   3   2   1 1801.13 274.458   1
  -3  -2  -1 1453.32 237.284   2
  -3  -2  -2 13009.7 794.223   2
   3   2   2 14232.4 793.896   1
   3   2   2 13032.7 806.560   2
  -3   2  -2 14225.8 1106.00   1
  -3  -2  -2 14809.0 809.698   1
  -3  -2  -2 12566.9 994.574   3
   3   2   3 829.381 293.420   2
   3   2   3 622.170 203.128   1
  -3  -2  -3 587.200 174.879   1
  -3  -2  -3 730.859 207.020   2
  -3  -2  -3 743.596 261.969   3
  -3   2  -3 1143.76 330.852   1
  -3  -2  -4 1830.75 419.559   3
   3   2   4 1783.40 359.785   2
  -3  -2  -4 2004.12 322.288   1
  -3   2  -4 1862.57 440.815   1
  -3   2  -5 8284.13 908.526   1
   3   2   5 8320.63 858.236   2
  -3  -2  -5 8126.63 698.974   1
  -3   2  -6 90966.4 3176.52   1
   3   2   6 96992.7 3011.95   2
  -3  -2  -6 91879.7 2525.50   1
  -3   2  -7 41440.6 2238.63   1
   3   2   7 43636.0 2203.22   2
  -3  -2  -7 43071.4 1880.01   1
   3   2   8 619.275 379.557   2
  -3   2  -8 748.003 317.961   1
  -3  -2  -8 916.057 343.282   1
   3   2   9 1306.99 536.506   2
  -3   2  -9 1198.14 417.148   1
  -3  -2  -9 932.846 317.510   1
  -3   2 -10 9784.19 1207.42   1
  -3  -2 -10 9919.98 1118.66   1
  -3   2 -11 422.135 283.500   1
  -3  -2 -11-49.7025 175.311   1
  -3   2 -12 751.491 298.955   1
  -3  -2 -12 1733.47 504.116   1
  -3   2 -13-391.978 368.158   1
  -3  -2 -13 149.038 265.997   1
  -3   2 -14-341.764 385.960   1
  -3  -2 -14-463.204 451.070   1
  -3   2 -15 88.0471 323.403   1
  -3  -2 -15-51.0349 239.976   1
  -3  -3  17 4041.35 907.745   3
  -3  -3  16 904.888 479.362   3
  -3  -3  15 2487.76 724.438   3
  -3   3  15 3832.06 929.302   2
  -3  -3  14 707.640 362.911   3
  -3   3  14-62.1087 378.930   2
  -3  -3  13 208.302 289.830   3
  -3   3  13-319.013 328.539   2
  -3  -3  12 2627.54 737.878   3
  -3   3  12 1337.98 406.901   2
  -3  -3  11 849.376 505.338   3
  -3   3  11 174.462 253.210   2
  -3  -3  10 2607.31 683.380   3
  -3   3  10 4382.36 927.880   2
  -3  -3   9 4831.95 914.729   3
  -3   3   9 5303.14 876.807   2
  -3   3   8 19072.3 1668.91   2
  -3  -3   8 16714.8 1639.99   3
  -3  -3   7 2380.00 631.797   3
  -3   3   7 2816.93 648.129   2
  -3  -3   6 373.945 231.282   3
  -3   3   6-120.751 264.340   2
  -3  -3   5 425.708 251.791   3
  -3   3   5 781.950 373.823   2
  -3  -3   4 2786.21 661.165   3
  -3   3   4 2538.90 564.507   2
  -3  -3   3 1650.54 486.556   3
  -3   3   3 1650.88 459.695   2
  -3   3   2 244.642 202.771   2
  -3  -3   2 399.069 301.051   3
  -3   3   1-97.3731 163.580   1
  -3  -3   1 288.738 442.039   3
  -3   3   0-39.4956 174.084   1
  -3  -3   0-259.159 277.575   3
   3   3   1 965.953 206.845   2
  -3   3  -1 1873.89 428.410   1
  -3  -3  -1 981.956 437.303   3
   3   3   2 1500.99 317.262   2
  -3   3  -2 1569.76 410.422   1
   3   3   3 30805.9 1450.35   2
  -3   3  -3 36223.0 1976.78   1
   3   3   4 45126.6 1903.40   2
  -3   3  -4 52485.1 2420.44   1
   3   3   5 26537.1 1556.49   2
  -3   3  -5 29179.0 1808.01   1
   3   3   6 8389.98 958.060   2
  -3   3  -6 8483.89 1025.20   1
   3   3   7-410.428 357.488   2
  -3   3  -7-191.423 284.915   1
   3   3   8 5260.68 838.127   2
  -3   3  -8 4120.44 770.986   1
   3   3   9 1817.86 550.760   2
  -3   3  -9 2430.02 633.066   1
   3   3  10 2538.80 655.901   2
  -3   3 -10 2609.27 659.329   1
   3   3  11 8367.36 1218.60   2
  -3   3 -11 8171.92 1230.23   1
   3   3  12 464.406 410.908   2
  -3   3 -12 8.50044 200.606   1
   3   3  13 1258.07 547.122   2
  -3   3 -13 2206.63 618.089   1
  -3   4  11-577.118 501.950   2
  -3  -4  11-554.815 437.125   3
  -3   4  10-260.145 421.483   2
  -3  -4  10-93.8812 331.522   3
  -3  -4   9 4266.11 965.029   3
  -3   4   9 4032.91 897.842   2
  -3   4   8 1498.56 532.414   2
  -3  -4   8 477.129 415.363   3
  -3   4   7 316.123 351.503   2
  -3  -4   7-114.229 351.680   3
  -3   4   6 437.528 377.355   2
  -3  -4   6 394.233 335.284   3
  -3  -4   5 224.037 311.100   3
  -3   4   5-65.6252 173.850   2
  -3   4   4-118.506 354.397   2
  -3  -4   4 1068.01 567.970   3
  -3   4   3 1213.45 444.364   2
  -3   4   2 426.302 417.216   2
  -3   4   1 1521.39 571.252   2
  -3   4   0-383.710 354.171   2
  -3   5   4 229.541 349.007   2
  -3   5   3-166.895 469.315   2
  -3   5   2-451.220 507.034   2
  -3   5   1 405.117 410.191   2
  -3   5   0 436.254 447.678   2
  -4   0  20-56.8469 354.585   2
  -4   0  19 461.854 340.849   2
  -4   0  19 139.010 358.337   3
  -4   0  18 4849.46 942.608   2
  -4   0  18 6093.37 1107.60   3
  -4   0  17-449.015 491.006   2
  -4   0  17-367.727 477.303   3
  -4   0  16 4811.09 953.148   2
  -4   0  16 6768.83 1121.08   3
  -4   0  15-17.2730 246.218   2
  -4   0  14 12027.3 1345.92   2
  -4   0  13 271.973 239.211   2
  -4   0  12 694.211 394.739   2
  -4   0  11 448.887 326.096   2
  -4   0  10 17330.7 1261.30   2
  -4   0   9 124.216 205.793   2
  -4   0   8 10166.8 879.382   2
  -4   0   7 110.534 121.753   2
  -4   0   6 10838.0 821.423   2
  -4   0   5 23.2665 124.499   2
  -4   0   4 170.930 125.542   2
  -4   0   3 31.8130 184.195   1
  -4   0   2 15284.8 1101.30   1
  -4   0   1 16.7511 175.171   1
  -4   0   0 127079. 3197.34   1
  -4   0  -1 620.601 232.130   1
  -4   0  -2 179020. 3895.87   1
  -4   0  -3-189.494 172.422   1
  -4   0  -4 241.527 132.567   1
  -4   0  -5 212.208 168.496   1
  -4   0  -6 168.552 211.605   1
  -4   0  -7-184.162 238.905   1
  -4   0  -7 20.2698 50.2674   3
  -4   0  -8 70072.7 2969.97   1
  -4   0  -9 27.6259 262.025   1
  -4   0 -10 80773.3 3403.96   1
  -4   0 -11 150.071 280.254   1
  -4   0 -12 2901.92 699.557   1
  -4   0 -13-127.516 369.431   1
  -4   0 -14 82.9171 247.581   1
  -4   0 -15-145.128 248.177   1
  -4   0 -16 865.564 513.347   1
  -4   1  19 1172.37 569.495   2
  -4  -1  19 566.556 387.611   3
  -4   1  18 516.345 384.751   2
  -4  -1  18-192.320 279.540   3
  -4   1  17 847.003 476.603   2
  -4  -1  17 707.525 396.477   3
  -4  -1  16 1487.21 509.047   3
  -4  -1  16 1218.34 556.641   2
  -4   1  16 48.2213 340.902   2
  -4  -1  15 3521.29 806.220   3
  -4  -1  15 5615.42 902.810   2
  -4   1  15 4475.88 875.102   2
  -4  -1  14-5.75724 261.507   2
  -4   1  14 262.569 257.122   2
  -4  -1  13 2763.30 568.623   2
  -4  -1  13 2099.90 696.749   3
  -4   1  13 2472.66 608.431   2
  -4  -1  12 177.251 244.662   2
  -4  -1  12 840.139 533.342   3
  -4   1  12 168.418 260.060   2
  -4  -1  11 499.309 411.722   3
  -4  -1  11 490.703 301.643   2
  -4   1  11-54.7274 322.589   2
  -4  -1  10 257.356 297.469   2
  -4  -1  10 344.131 457.018   3
  -4   1  10 210.230 193.151   2
  -4   1   9 22737.4 1582.56   2
  -4  -1   9 20624.6 1180.71   2
  -4  -1   9 22701.3 1737.45   3
  -4  -1   8-82.0617 181.978   2
   4   1  -8 121.372 141.071   2
  -4   1   8 32.6496 164.553   2
  -4  -1   7 16152.0 1414.11   3
  -4   1   7 16430.7 1247.91   2
  -4  -1   7 16138.4 852.670   2
  -4   1   6 11618.1 1030.87   2
  -4  -1   6 10925.5 622.041   2
  -4  -1   6 9700.79 1054.57   3
  -4  -1   5 68247.6 2636.22   3
  -4   1   5 67361.8 2386.36   2
  -4  -1   5 67744.3 1379.91   2
  -4  -1   4 3802.44 628.958   3
  -4   1   4 3700.49 546.138   2
  -4  -1   4 3216.12 287.635   2
  -4  -1   3 2517.19 560.661   3
  -4  -1   3 2499.16 259.153   2
  -4   1   3 3319.85 560.549   1
  -4   1   2 27075.8 1536.53   1
  -4  -1   2 27523.1 1528.54   3
  -4  -1   1 1036.43 268.379   3
  -4  -1   1 1122.36 301.817   1
  -4   1   1 1201.23 336.673   1
  -4   1   0 13937.2 1137.07   1
  -4  -1   0 11843.3 924.247   1
  -4  -1   0 11488.9 885.939   3
  -4  -1  -1 2787.13 431.692   3
  -4  -1  -1 2634.24 370.960   2
  -4   1  -1 2570.93 492.144   1
  -4  -1  -1 2302.80 412.306   1
  -4  -1  -2 31503.1 1324.37   2
  -4   1  -2 32212.4 1727.26   1
  -4  -1  -2 30965.6 1541.32   1
  -4  -1  -2 29387.1 1297.46   3
  -4   1  -3 87337.0 2947.02   1
  -4  -1  -3 92137.4 2676.52   1
  -4  -1  -3 91215.4 2151.14   3
  -4   1  -4 6588.46 817.289   1
  -4  -1  -4 7187.77 788.993   1
  -4  -1  -4 8745.49 626.369   3
  -4  -1  -5 178.643 123.395   3
  -4   1  -5 641.388 309.185   1
  -4  -1  -5 280.748 161.294   1
  -4   1  -6 21517.9 1589.65   1
  -4  -1  -6 22154.1 1477.75   1
  -4  -1  -6 23051.1 802.069   3
  -4   1  -7 118015. 3832.48   1
  -4  -1  -7 124023. 3674.96   1
  -4   1  -8 54207.9 2696.69   1
  -4  -1  -8 55027.2 2566.36   1
  -4   1  -9 5462.88 898.004   1
  -4  -1  -9 4227.87 748.346   1
  -4   1 -10 2471.91 623.566   1
  -4  -1 -10 1951.70 514.110   1
  -4   1 -11 1354.76 522.136   1
  -4  -1 -11 899.926 398.517   1
  -4   1 -12 3084.14 742.627   1
  -4  -1 -12 3439.64 749.697   1
  -4   1 -13-175.133 327.879   1
  -4  -1 -13 21.4250 207.260   1
  -4   1 -14 26.5825 265.674   1
  -4  -1 -14-282.052 322.639   1
  -4   1 -15 1885.53 765.496   1
  -4  -1 -15 1573.71 560.856   1
  -4  -1 -16 1323.46 597.399   1
  -4  -2  19 422.781 475.333   3
  -4  -2  18 2371.72 685.165   3
  -4  -2  17 42.0075 407.614   3
  -4   2  17 361.117 388.755   2
  -4  -2  16 2310.99 660.846   3
  -4   2  16 3348.67 861.203   2
  -4  -2  15 980.444 521.027   3
  -4   2  15 1467.58 630.849   2
  -4   2  14 9516.72 1427.01   2
  -4  -2  14 10197.8 1352.90   3
  -4  -2  13 5290.01 963.077   3
  -4   2  13 5709.63 1055.53   2
  -4  -2  12 12590.3 1413.08   3
  -4   2  12 11763.0 1357.95   2
  -4  -2  11 2732.73 708.090   3
  -4   2  11 2512.72 721.845   2
  -4   2  10 7828.52 1090.45   2
  -4  -2  10 7824.91 1131.59   3
  -4   2   9-38.0997 276.609   2
  -4  -2   9 716.985 406.520   3
  -4  -2   8 628.148 355.754   3
  -4   2   8 404.811 244.436   2
  -4  -2   7 149.877 344.766   3
  -4   2   7 147.581 232.624   2
  -4  -2   6 142.659 378.291   3
  -4   2   6-110.708 255.393   2
  -4  -2   5 12840.9 1206.56   3
  -4   2   5 13011.1 1214.04   2
  -4   2   4 19125.0 1424.79   2
  -4  -2   4 18896.8 1440.01   3
  -4   2   3 19687.4 1318.76   1
  -4  -2   3 17371.4 1335.95   3
  -4   2   2 375.578 211.021   1
  -4  -2   2 520.181 286.218   3
  -4  -2   1 3888.82 625.634   3
  -4   2   1 4272.33 639.460   1
  -4  -2   0 6927.80 440.180   2
  -4   2   0 9213.43 973.739   1
  -4  -2   0 7983.08 838.609   3
  -4  -2  -1 2711.73 516.595   3
  -4   2  -1 3242.18 605.979   1
  -4  -2  -1 2740.89 330.758   2
  -4  -2  -1 3040.62 455.694   1
  -4   2  -2 3044.77 576.514   1
  -4  -2  -2 2143.97 402.377   3
  -4  -2  -2 2854.69 397.722   2
  -4  -2  -2 3087.23 452.267   1
  -4  -2  -3 402.448 256.336   3
  -4   2  -3 1035.74 386.906   1
  -4  -2  -3 577.073 198.083   1
  -4  -2  -4 4204.34 577.382   1
  -4   2  -4 3978.41 696.881   1
  -4  -2  -4 3659.67 542.465   3
  -4   2  -5 71522.3 2915.22   1
  -4  -2  -5 74838.7 2426.49   1
  -4  -2  -5 71089.6 2338.77   3
  -4   2  -6 14797.0 1382.88   1
  -4  -2  -6 15362.0 1164.27   1
  -4   2  -7 1839.03 527.965   1
  -4  -2  -7 2396.46 480.994   1
  -4   2  -8 366.557 267.178   1
  -4  -2  -8-190.537 230.006   1
  -4   2  -9 6003.55 976.467   1
  -4  -2  -9 7714.71 969.649   1
  -4   2 -10-558.303 414.180   1
  -4  -2 -10 306.610 155.949   1
  -4   2 -11-233.455 365.654   1
  -4  -2 -11 369.421 275.449   1
  -4   2 -12 3804.08 897.193   1
  -4  -2 -12 3845.73 795.664   1
  -4   2 -13 2445.82 785.768   1
  -4  -2 -13 3180.99 785.366   1
  -4   2 -14 4500.85 982.806   1
  -4  -3  16 2461.59 828.098   3
  -4  -3  15 1552.29 584.607   3
  -4  -3  14 471.174 385.750   3
  -4   3  14 272.657 298.913   2
  -4   3  13 1179.32 599.349   2
  -4  -3  13 1073.43 470.200   3
  -4  -3  12 80.1821 306.963   3
  -4   3  12 898.219 450.695   2
  -4  -3  11 5553.68 989.707   3
  -4   3  11 6873.29 1168.16   2
  -4   3  10 16467.7 1686.64   2
  -4  -3  10 15368.7 1650.58   3
  -4   3   9 50687.2 2870.28   2
  -4  -3   9 46088.5 2817.99   3
  -4  -3   8 2419.33 668.005   3
  -4   3   8 2356.78 620.634   2
  -4  -3   7 6069.15 1022.43   3
  -4   3   7 7267.06 1043.09   2
  -4  -3   6 3477.58 743.249   3
  -4   3   6 2922.20 676.322   2
  -4  -3   5 544.054 364.624   3
  -4   3   5 561.237 313.397   2
  -4  -3   4-22.3202 189.185   3
  -4   3   4-318.819 378.698   2
  -4  -3   3 435.145 406.552   3
  -4   3   3 5.46795 235.325   2
  -4   3   2 11199.4 1075.85   1
  -4  -3   2 8905.76 1119.65   3
  -4  -3   1 3604.48 761.237   3
  -4   3   1 3354.38 613.979   1
  -4   3   0 1074.81 374.553   1
  -4  -3   0 974.630 435.538   3
  -4  -3  -1 1486.71 471.252   3
  -4   3  -1 1766.84 478.493   1
  -4   3  -2 3112.79 634.430   1
  -4  -3  -2 2048.06 575.455   3
  -4   3  -3 142.788 175.331   1
  -4   3  -4 1118.89 433.126   1
  -4   3  -5 8.69153 203.135   1
  -4   3  -6 2743.55 659.161   1
  -4   3  -7-30.7202 228.263   1
  -4   3  -8 1293.94 420.193   1
  -4   3  -9-239.283 355.571   1
  -4   3 -10 544.133 333.336   1
  -4   3 -11 2838.56 778.045   1
  -4   3 -12 4459.87 956.784   1
  -4   4  10 17229.7 1854.26   2
  -4   4   9 989.672 494.689   2
  -4  -4   9 917.130 467.909   3
  -4   4   8 15848.2 1759.64   2
  -4  -4   8 15769.1 1890.04   3
  -4   4   7 13312.8 1586.64   2
  -4  -4   7 10490.2 1462.39   3
  -4   4   6 1609.21 598.048   2
  -4  -4   6 372.425 394.599   3
  -4   4   5-67.7079 422.133   2
  -4  -4   5 428.562 224.753   3
  -4   4   4 469.822 442.272   2
  -4  -4   4 36.5711 277.445   3
  -4   4   3-9.64824 183.478   2
  -4  -4   3 431.328 232.264   3
  -4   4   2-455.297 419.961   2
  -4  -4   2-155.712 345.709   3
  -4   4   1 1398.31 507.088   2
  -5   0  20 8086.18 1353.52   2
  -5   0  20 5758.46 1183.47   3
  -5   0  19 42.9050 503.103   2
  -5   0  19-12.4455 505.702   3
  -5   0  18-763.937 490.525   2
  -5   0  18-84.4783 434.909   3
  -5   0  17-375.773 324.756   2
  -5   0  17 460.791 485.195   3
  -5   0  16 5098.65 971.069   2
  -5   0  15-631.712 497.391   2
  -5   0  14 3429.74 739.430   2
  -5   0  13 391.096 316.483   2
  -5   0  12 38916.4 2159.93   2
  -5   0  11 9.74693 243.072   2
  -5   0  10 405.863 221.605   2
  -5   0   9-37.4058 151.111   2
  -5   0   8 34859.7 1729.26   2
  -5   0   7 18.7723 154.456   2
  -5   0   6 2441.91 451.457   2
  -5   0   5-90.5438 152.273   2
  -5   0   3-113.305 130.807   1
  -5   0   2 548.941 246.205   1
  -5   0   1 136.587 186.601   1
  -5   0   0 10.9655 179.003   1
  -5   0  -1 321.571 201.285   1
  -5   0  -2 18603.9 1403.85   1
  -5   0  -3-15.6128 162.614   1
  -5   0  -4 10420.0 1092.49   1
  -5   0  -5-54.3676 168.126   1
  -5   0  -6 3407.87 674.380   1
  -5   0  -7-327.569 345.334   1
  -5   0  -8 191480. 5270.17   1
  -5   0  -9-61.1200 357.320   1
  -5   0 -10 8361.98 1177.58   1
  -5   0 -11-11.7501 364.265   1
  -5   0 -12 6779.14 1125.40   1
  -5   0 -13-181.911 330.947   1
  -5   0 -14 253.597 395.297   1
  -5  -1  20-155.163 391.500   3
  -5   1  19-597.169 573.738   2
  -5  -1  19-379.921 518.441   3
  -5   1  18 4493.26 1026.89   2
  -5  -1  18 4263.82 1010.01   3
  -5  -1  17-85.7878 438.716   3
  -5   1  17-578.665 519.719   2
  -5  -1  16 960.162 468.403   3
  -5  -1  16 470.458 325.586   2
  -5   1  16 150.082 346.034   2
  -5  -1  15 4123.15 1007.54   3
  -5  -1  15 4484.59 812.384   2
  -5   1  15 4882.16 889.185   2
  -5  -1  14 7303.38 919.834   2
  -5  -1  14 6453.02 1139.45   3
  -5   1  14 5760.00 1026.68   2
  -5   1  13 22757.8 1907.21   2
  -5  -1  13 21482.7 1583.48   2
  -5  -1  13 25656.0 2198.32   3
  -5  -1  12 1017.13 360.532   2
  -5  -1  12 1618.74 674.703   3
  -5   1  12 935.774 342.664   2
  -5  -1  11 1463.05 410.124   2
  -5  -1  11 934.177 566.182   3
  -5   1  11 1204.01 488.166   2
  -5  -1  10 168.988 175.015   2
  -5  -1  10 419.579 461.044   3
  -5   1  10 860.914 398.555   2
  -5  -1   9 3332.19 840.763   3
  -5   1   9 2406.04 536.846   2
  -5  -1   9 2003.14 418.744   2
  -5  -1   8-96.1160 457.990   3
  -5   1   8-35.7023 280.740   2
  -5  -1   8 550.075 248.165   2
  -5  -1   7 3840.47 800.102   3
  -5  -1   7 4031.37 457.612   2
  -5   1   7 3767.05 645.692   2
  -5  -1   6 3104.84 737.038   3
  -5   1   6 2889.49 576.027   2
  -5  -1   6 2609.25 324.520   2
  -5   1   5 12757.7 1106.35   2
  -5  -1   5 13298.3 707.880   2
  -5  -1   5 11765.8 1220.47   3
  -5  -1   4 12051.4 680.306   2
  -5  -1   4 12359.1 1209.36   3
  -5   1   3 2574.93 545.261   1
  -5  -1   3 2550.40 576.502   3
  -5  -1   2 1280.99 511.705   3
  -5   1   2 866.246 363.308   1
  -5   1   1 2274.19 520.298   1
  -5  -1   1 2252.05 507.435   3
  -5  -1   1 2309.07 495.891   1
  -5   1   0 13422.0 1238.77   1
  -5  -1   0 13824.1 1120.22   1
  -5  -1   0 13194.4 1060.91   3
  -5  -1  -1 100.099 192.737   1
  -5  -1  -1-52.6307 248.182   3
  -5   1  -1-62.0450 190.919   1
  -5   1  -2 10326.2 1092.79   1
  -5  -1  -2 8830.84 905.688   1
  -5  -1  -2 10478.6 857.569   3
  -5   1  -3 13070.5 1264.51   1
  -5  -1  -3 13257.6 1163.82   1
  -5  -1  -3 12073.8 874.632   3
  -5  -1  -4-87.7814 200.394   3
  -5  -1  -4 123.059 228.640   1
  -5   1  -4-107.923 291.361   1
  -5  -1  -5 3248.30 617.157   1
  -5  -1  -5 2500.86 352.137   3
  -5   1  -5 3341.36 684.603   1
  -5   1  -6 19280.0 1603.01   1
  -5  -1  -6 19056.2 1526.66   1
  -5   1  -7 1704.87 476.549   1
  -5  -1  -7 1993.11 526.764   1
  -5   1  -8 2179.25 605.688   1
  -5  -1  -8 2273.59 597.933   1
  -5   1  -9 8989.89 1228.29   1
  -5  -1  -9 11629.6 1295.49   1
  -5   1 -10 38788.1 2608.99   1
  -5  -1 -10 39893.4 2502.28   1
  -5   1 -11 24173.2 2126.75   1
  -5  -1 -11 22197.8 1917.54   1
  -5   1 -12 1951.62 599.448   1
  -5  -1 -12 2591.36 715.184   1
  -5   1 -13 4074.24 939.856   1
  -5  -1 -13 4446.63 960.087   1
  -5  -1 -14 1757.95 546.470   1
  -5  -1 -15 3872.25 940.509   1
  -5  -2  18 854.356 611.850   3
  -5  -2  17 24.7816 382.862   3
  -5   2  17 890.401 601.043   2
  -5  -2  16 4803.45 1054.22   3
  -5   2  16 3819.04 939.978   2
  -5  -2  15 593.261 427.925   3
  -5   2  15 296.580 395.902   2
  -5  -2  14 6581.12 1189.63   3
  -5   2  14 8021.22 1256.19   2
  -5  -2  13 183.806 319.253   3
  -5   2  13-279.251 294.356   2
  -5  -2  12 3517.81 869.971   3
  -5   2  12 3626.29 743.901   2
  -5  -2  11 233.578 290.593   3
  -5   2  11 301.696 285.672   2
  -5  -2  10 335.875 416.659   3
  -5   2  10 255.304 212.950   2
  -5  -2   9 2588.83 627.827   3
  -5   2   9 2454.38 653.049   2
  -5   2   8 50777.1 2681.88   2
  -5  -2   8 48272.9 2700.99   3
  -5   2   7 31809.6 2052.39   2
  -5  -2   7 27678.6 2009.62   3
  -5   2   6 13821.4 1330.09   2
  -5  -2   6 13403.2 1346.64   3
  -5  -2   5 7183.08 970.949   3
  -5   2   5 7887.08 966.698   2
  -5  -2   4 9626.35 1145.81   3
  -5  -2   3-149.127 275.255   3
  -5   2   3 33.5270 203.290   1
  -5   2   2 961.189 385.614   1
  -5  -2   2 1146.05 406.933   3
  -5  -2   1 200.708 225.332   3
  -5   2   1-53.6378 229.988   1
  -5  -2   0 2086.41 467.989   3
  -5   2   0 2360.50 593.307   1
  -5  -2  -1 1179.31 348.235   3
  -5  -2  -1 566.075 226.512   1
  -5   2  -1 891.689 349.110   1
  -5  -2  -2 4287.89 672.082   3
  -5   2  -2 4868.06 809.649   1
  -5  -2  -2 3737.12 580.964   1
  -5   2  -3 8554.71 1058.68   1
  -5  -2  -3 7879.72 826.017   1
  -5  -2  -3 7542.00 844.083   3
  -5   2  -4 20433.1 1696.37   1
  -5  -2  -4 22680.6 1440.41   1
  -5  -2  -4 20951.7 1374.55   3
  -5  -2  -5 2025.87 489.079   1
  -5   2  -5 1887.65 511.174   1
  -5   2  -6 6656.39 994.351   1
  -5  -2  -6 7803.06 949.563   1
  -5  -2  -7 2901.12 607.157   1
  -5   2  -7 2619.50 646.578   1
  -5  -2  -8 623.929 319.848   1
  -5   2  -8 139.373 188.460   1
  -5  -2  -9 2953.08 695.927   1
  -5   2  -9 3454.92 758.197   1
  -5   2 -10 1346.99 555.476   1
  -5  -2 -10 1169.89 460.753   1
  -5   2 -11 6512.46 1181.28   1
  -5  -2 -11 5906.07 1005.02   1
  -5   2 -12 553.384 330.311   1
  -5  -3  14 253.134 264.702   3
  -5  -3  13 2666.84 831.642   3
  -5   3  13 1704.58 616.858   2
  -5  -3  12 657.530 413.829   3
  -5   3  12 192.011 329.733   2
  -5  -3  11 5245.79 1057.98   3
  -5   3  11 4445.98 935.491   2
  -5   3  10 11681.0 1523.73   2
  -5  -3  10 10145.6 1460.73   3
  -5   3   9 25672.8 2119.81   2
  -5  -3   9 21383.8 1974.18   3
  -5   3   8 11170.9 1358.66   2
  -5  -3   8 10856.9 1409.13   3
  -5  -3   7 981.705 439.872   3
  -5   3   7 1548.22 499.788   2
  -5  -3   6 3077.82 774.734   3
  -5   3   6 2944.98 721.672   2
  -5  -3   5 844.017 456.116   3
  -5   3   5 527.256 295.463   2
  -5  -3   4 648.723 344.916   3
  -5   3   4 1059.14 442.116   2
  -5   3   3 8011.91 1151.75   2
  -5  -3   3 7383.36 1079.48   3
  -5  -3   2 1072.94 470.544   3
  -5   3   2 2734.71 613.125   1
  -5  -3   1 3833.05 784.746   3
  -5   3   1 5727.91 886.913   1
  -5  -3   0 2936.10 660.393   3
  -5   3   0 3146.69 707.010   1
  -5   3  -1 518.815 363.901   1
  -5  -3  -1-131.422 285.177   3
  -5   3  -2 4345.11 858.283   1
  -5  -3  -2 3043.38 720.597   3
  -5   3  -3 688.514 355.369   1
  -5  -3  -3 257.081 289.802   3
  -5   3  -4 476.695 219.759   1
  -5   3  -5 6639.66 1039.32   1
  -5   3  -6 4592.29 890.495   1
  -5   3  -7 242.690 236.486   1
  -5   3  -8 497.076 364.855   1
  -5   3  -9-281.538 392.220   1
  -5   3 -10 303.391 282.438   1
  -5   4   8 1765.04 577.589   2
  -5  -4   7 895.437 487.696   3
  -5   4   7 953.378 444.413   2
  -5   4   6-57.2580 230.776   2
  -5  -4   6 328.893 437.069   3
  -5   4   5 63.3283 307.837   2
  -5  -4   5-331.582 502.005   3
  -5   4   4 1828.49 607.272   2
  -5  -4   4 379.704 422.301   3
  -5   4   3 3513.16 955.579   2
  -5  -4   3 1116.17 556.328   3
  -5   4   2 4626.04 1083.01   2
  -5  -4   2 3123.60 888.825   3
  -5   4   1 1324.45 644.551   2
  -5  -4   1 566.487 416.148   3
  -5  -4   0 1345.64 645.311   3
  -6   0  20 1940.15 938.771   3
  -6   0  19-1055.80 688.349   2
  -6   0  19 433.748 693.296   3
  -6   0  18-79.8456 324.108   2
  -6   0  18-790.192 742.527   3
  -6   0  17 177.217 413.495   2
  -6   0  16 3687.82 791.230   2
  -6   0  15-63.8057 260.885   2
  -6   0  14 4312.17 810.065   2
  -6   0  13-456.815 442.086   2
  -6   0  12 45552.1 2377.73   2
  -6   0  11 34.6339 183.979   2
  -6   0  10 8566.53 969.223   2
  -6   0   9-69.3812 213.182   2
  -6   0   8 954.835 342.778   2
  -6   0   7-122.121 217.081   2
  -6   0   6 44932.1 2006.35   2
  -6   0   5-71.9048 223.538   2
  -6   0   3 245.504 267.137   1
  -6   0   2 243.358 222.177   1
  -6   0   1-92.7395 261.179   1
  -6   0   0-35.6281 153.603   1
  -6   0  -1-161.762 256.707   1
  -6   0  -2 10653.0 1188.43   1
  -6   0  -3 202.398 266.588   1
  -6   0  -4 3366.49 714.644   1
  -6   0  -5-203.779 276.449   1
  -6   0  -6 250.738 223.711   1
  -6   0  -7 249.027 279.993   1
  -6   0  -8 1322.42 467.785   1
  -6   0  -9-36.4726 339.374   1
  -6   0 -10 3624.09 845.584   1
  -6   0 -11 19.4143 292.212   1
  -6   0 -12 3425.27 822.226   1
  -6   0 -13 92.8918 232.096   1
  -6  -1  19 2320.56 850.789   3
  -6  -1  18 1717.59 738.880   3
  -6   1  18 392.730 358.364   2
  -6  -1  17-132.460 474.419   3
  -6   1  17 392.715 345.134   2
  -6  -1  16 1923.91 647.529   3
  -6   1  16 180.531 284.047   2
  -6  -1  15 1656.11 664.065   3
  -6   1  15 722.074 479.400   2
  -6  -1  14 4683.35 1097.11   3
  -6   1  14 4307.27 853.542   2
  -6  -1  13 571.559 471.714   3
  -6   1  13 1113.44 485.009   2
  -6  -1  12 1843.29 504.133   2
  -6  -1  12 2473.18 782.474   3
  -6   1  12 2179.14 594.796   2
  -6   1  11 26324.8 1944.08   2
  -6  -1  11 25870.2 1554.07   2
  -6  -1  11 25588.2 2246.97   3
  -6  -1  10 2907.38 937.103   3
  -6   1  10 2401.12 578.156   2
  -6  -1  10 2557.93 479.529   2
  -6  -1   9 3898.55 923.808   3
  -6   1   9 2964.26 661.697   2
  -6  -1   9 3649.10 503.126   2
  -6  -1   8 10216.8 1391.73   3
  -6   1   8 9824.96 1139.97   2
  -6  -1   8 9223.57 758.068   2
  -6   1   7 85644.4 3245.36   2
  -6  -1   7 81847.6 2102.41   2
  -6  -1   7 76056.4 3467.14   3
  -6   1   6 55763.5 2539.48   2
  -6  -1   6 57294.1 1704.72   2
  -6  -1   6 53297.8 2809.36   3
  -6   1   5 26446.6 1698.36   2
  -6  -1   5 25882.3 1133.38   2
  -6  -1   5 27583.8 2000.07   3
  -6  -1   4 1292.62 659.059   3
  -6  -1   4 544.683 168.209   2
  -6   1   3 786.869 383.435   1
  -6  -1   3 1277.17 601.664   3
  -6   1   2 15490.2 1416.90   1
  -6  -1   2 15966.5 1411.39   3
  -6  -1   1 822.669 383.136   3
  -6   1   1 684.678 337.824   1
  -6  -1   1 285.567 247.346   1
  -6  -1   0-74.6370 134.173   1
  -6  -1   0-677.609 421.733   3
  -6  -1  -1 199.789 361.517   3
  -6  -1  -1-8.36230 124.192   1
  -6   1  -1-114.206 308.815   1
  -6  -1  -2 4311.32 666.996   3
  -6   1  -2 4941.42 860.296   1
  -6  -1  -2 4373.07 708.947   1
  -6  -1  -3 384.833 254.233   3
  -6   1  -3 968.218 343.072   1
  -6  -1  -3 477.968 289.445   1
  -6  -1  -4 4124.77 579.175   3
  -6   1  -4 3658.97 741.579   1
  -6  -1  -4 3820.81 714.735   1
  -6   1  -5 3506.46 750.723   1
  -6  -1  -5 3021.69 649.518   1
  -6  -1  -6 970.568 373.166   1
  -6   1  -6 1178.74 379.048   1
  -6  -1  -7 971.687 416.174   1
  -6   1  -7 1010.81 469.511   1
  -6   1  -8 13406.1 1518.19   1
  -6  -1  -8 13789.5 1532.48   1
  -6   1  -9 17756.2 1814.12   1
  -6  -1  -9 16943.2 1720.46   1
  -6   1 -10 387.271 305.904   1
  -6  -1 -10 812.335 422.515   1
  -6   1 -11 156.150 312.748   1
  -6  -1 -11 119.032 217.902   1
  -6   1 -12 128.859 341.294   1
  -6  -1 -12 512.593 243.054   1
  -6  -1 -13 2465.28 717.629   1
  -6  -2  16 865.375 571.697   3
  -6   2  16-35.7856 435.736   2
  -6  -2  15-756.921 629.392   3
  -6   2  15 1110.05 601.230   2
  -6  -2  14 764.258 424.003   3
  -6   2  14 1964.97 676.516   2
  -6  -2  13 897.841 505.773   3
  -6   2  13 522.117 424.406   2
  -6  -2  12 1620.66 620.023   3
  -6   2  12 864.013 498.564   2
  -6  -2  11-506.648 511.352   3
  -6   2  11 111.233 290.360   2
  -6  -2  10 680.090 532.298   3
  -6   2  10 129.759 400.960   2
  -6   2   9 29216.0 2130.03   2
  -6  -2   9 25039.3 2110.05   3
  -6   2   8 10273.3 1254.44   2
  -6  -2   8 10894.2 1392.52   3
  -6  -2   7 7220.11 1107.80   3
  -6   2   7 7891.41 1073.15   2
  -6  -2   6 2010.41 640.940   3
  -6   2   6 2527.01 664.851   2
  -6  -2   5 4118.37 809.587   3
  -6   2   5 5579.10 893.446   2
  -6  -2   4-249.020 367.637   3
  -6  -2   3-75.1319 316.309   3
  -6   2   3 96.1139 155.939   1
  -6  -2   2 4539.60 773.719   3
  -6   2   2 5544.53 912.549   1
  -6  -2   1 1239.60 337.207   3
  -6   2   1 1186.60 447.812   1
  -6   2   0 5150.98 898.701   1
  -6  -2   0 4153.51 714.705   3
  -6  -2  -1 1572.22 402.592   3
  -6  -2  -1 1656.63 413.709   1
  -6   2  -1 1432.45 468.365   1
  -6  -2  -2 1808.13 419.190   3
  -6  -2  -2 1793.93 451.331   1
  -6   2  -2 1931.67 569.770   1
  -6  -2  -3 633.192 222.403   3
  -6   2  -3 849.679 456.821   1
  -6  -2  -3 776.829 269.233   1
  -6  -2  -4 74.6201 160.730   1
  -6   2  -4-166.250 226.425   1
  -6   2  -5 1083.58 475.660   1
  -6  -2  -5 630.723 290.913   1
  -6   2  -6 168.005 220.599   1
  -6  -2  -6 199.417 189.601   1
  -6  -2  -7 15.7767 207.408   1
  -6   2  -7-71.9644 358.275   1
  -6  -2  -8 411.714 269.611   1
  -6   2  -8 583.204 391.593   1
  -6  -2  -9 4301.89 881.783   1
  -6   2  -9 4401.51 970.527   1
  -6   2 -10 7334.82 1275.83   1
  -6  -3  12 427.273 437.100   3
  -6   3  12-104.766 383.691   2
  -6  -3  11-799.816 518.415   3
  -6   3  11-16.6930 348.009   2
  -6  -3  10 1810.16 529.973   3
  -6   3  10 1994.48 608.122   2
  -6  -3   9-601.627 492.674   3
  -6   3   9 491.985 323.252   2
  -6  -3   8 1155.82 555.553   3
  -6   3   8 100.842 254.245   2
  -6  -3   7-353.293 255.056   3
  -6   3   7-260.392 410.009   2
  -6  -3   6-168.027 339.689   3
  -6   3   6 13.6260 257.863   2
  -6  -3   5 345.751 337.768   3
  -6   3   5 233.377 198.800   2
  -6  -3   4-24.8221 274.576   3
  -6   3   4 376.165 353.609   2
  -6  -3   3 2064.96 493.804   3
  -6  -3   2 4517.42 894.787   3
  -6   3   2 5460.39 938.892   1
  -6  -3   1 1318.21 437.809   3
  -6   3   1 2616.29 659.246   1
  -6  -3   0 245.440 200.629   3
  -6   3   0-86.4541 189.793   1
  -6  -3  -1 463.286 252.417   3
  -6   3  -1 385.059 225.908   1
  -6   3  -2 2458.93 667.150   1
  -6  -3  -2 2681.16 670.948   3
  -6   3  -3-235.386 352.412   1
  -6   3  -4 2543.15 634.507   1
  -6   3  -5 9096.11 1349.53   1
  -6   3  -6 649.366 379.063   1
  -6   3  -7 1906.98 564.535   1
  -6   3  -8 349.669 322.542   1
  -6  -4   5 1950.99 664.931   3
  -6  -4   4 198.979 365.110   3
  -6  -4   3 285.646 452.562   3
  -6  -4   2 731.660 431.800   3
  -6  -4   1 646.393 387.061   3
  -6  -4   0 79.3303 406.908   3
  -7   0  16 3172.39 767.096   2
  -7   0  15 792.580 401.340   2
  -7   0  14 248.744 324.802   2
  -7   0  13 275.753 284.249   2
  -7   0  12 1076.94 385.831   2
  -7   0  11 170.808 242.814   2
  -7   0  10 4836.34 772.423   2
  -7   0   9-2.51532 183.385   2
  -7   0   8 1779.79 430.921   2
  -7   0   7-281.687 307.435   2
  -7   0   6 156720. 3936.66   2
  -7   0   5-191.391 182.974   2
  -7   0   3-2.43116 210.910   1
  -7   0   2 9558.67 1169.28   1
  -7   0   1-196.788 385.025   1
  -7   0   0 2563.75 650.913   1
  -7   0  -1-178.220 267.119   1
  -7   0  -2 9537.43 1217.28   1
  -7   0  -3 23.9879 181.626   1
  -7   0  -4 6960.75 1106.17   1
  -7   0  -5 32.4576 222.585   1
  -7   0  -6 1623.29 609.316   1
  -7   0  -7-159.102 222.905   1
  -7   0  -8 2548.18 689.299   1
  -7   0  -9-296.255 421.234   1
  -7   0 -10 180.852 375.416   1
  -7   0 -11-99.6623 306.085   1
  -7   1  18 1728.66 597.489   2
  -7   1  17-118.724 364.874   2
  -7  -1  16-696.169 696.119   3
  -7   1  16 550.471 389.706   2
  -7  -1  15 1997.52 762.438   3
  -7   1  15 592.937 289.435   2
  -7  -1  14 1270.38 649.614   3
  -7   1  14 843.232 524.513   2
  -7  -1  13 113.481 533.795   3
  -7   1  13 958.633 531.540   2
  -7  -1  12 3648.84 1052.74   3
  -7   1  12 2729.43 670.930   2
  -7  -1  11 7026.22 1280.69   3
  -7   1  11 5918.63 983.929   2
  -7  -1  10 1883.80 789.802   3
  -7   1  10 30.2350 236.655   2
  -7  -1   9 2964.34 1010.74   3
  -7   1   9 1801.28 538.176   2
  -7  -1   8 9424.90 1364.46   3
  -7   1   8 9103.50 1133.76   2
  -7  -1   7 858.065 580.883   3
  -7   1   7 639.407 283.926   2
  -7  -1   6 338.430 577.309   3
  -7   1   6-48.2979 210.653   2
  -7  -1   6 185.426 106.179   2
  -7  -1   5 11144.5 1381.68   3
  -7   1   5 11771.4 1240.62   2
  -7  -1   5 11297.1 831.138   2
  -7  -1   4 43060.2 1643.73   2
  -7  -1   4 44965.9 2715.02   3
  -7   1   3 49370.8 2819.87   1
  -7  -1   3 47409.9 2756.16   3
  -7   1   2 13539.5 1471.45   1
  -7  -1   2 15348.9 1517.97   3
  -7  -1   1 969.667 577.702   3
  -7  -1   1 462.486 292.582   1
  -7   1   1 1564.35 602.612   1
  -7  -1   0 1631.06 560.546   3
  -7   1   0 1724.02 537.648   1
  -7  -1   0 982.334 348.948   1
  -7   1  -1 13940.5 1520.21   1
  -7  -1  -1 12417.8 1287.04   1
  -7  -1  -1 12811.7 1271.96   3
  -7  -1  -2 3328.17 669.929   3
  -7  -1  -2 4371.77 812.011   1
  -7   1  -2 3672.09 778.914   1
  -7   1  -3-227.791 323.748   1
  -7  -1  -3 511.784 332.235   1
  -7   1  -4 2018.07 561.958   1
  -7  -1  -4 2148.91 566.526   1
  -7   1  -5 96.8116 331.339   1
  -7  -1  -5 29.8553 276.056   1
  -7   1  -6 1823.35 593.775   1
  -7  -1  -6 1922.59 596.481   1
  -7   1  -7 1186.92 600.091   1
  -7  -1  -7 14.3181 335.024   1
  -7   1  -8-121.576 213.173   1
  -7  -1  -8-300.474 335.468   1
  -7  -1  -9 6356.26 1115.39   1
  -7   1  -9 7511.11 1309.40   1
  -7  -1 -10-565.714 483.591   1
  -7  -1 -11 753.499 324.840   1
  -7   2  15-146.998 382.352   2
  -7  -2  14 2065.93 755.616   3
  -7   2  14 669.758 340.581   2
  -7  -2  13 1101.38 616.802   3
  -7   2  13 779.140 417.043   2
  -7  -2  12 702.103 484.145   3
  -7   2  12 726.135 386.546   2
  -7  -2  11-1008.40 782.525   3
  -7   2  11-202.348 279.942   2
  -7   2  10 12792.6 1495.01   2
  -7  -2  10 13491.1 1651.86   3
  -7  -2   9 1545.01 651.656   3
  -7   2   9 1706.98 490.472   2
  -7  -2   8 8717.13 1305.92   3
  -7   2   8 10242.8 1351.23   2
  -7  -2   7 89.4621 305.568   3
  -7   2   7 290.832 322.082   2
  -7  -2   6-438.342 391.356   3
  -7   2   6-45.2539 297.146   2
  -7  -2   5 2222.04 691.927   3
  -7   2   5 3217.52 732.757   2
  -7  -2   4 1732.18 570.656   3
  -7   2   3 1838.57 602.707   1
  -7  -2   3 1927.36 594.762   3
  -7  -2   2 2317.06 677.909   3
  -7   2   2 2128.37 625.308   1
  -7   2   1 31533.9 2340.92   1
  -7  -2   1 25231.5 1863.90   3
  -7  -2   0 999.781 367.264   3
  -7   2   0 1760.44 626.329   1
  -7   2  -1-238.018 401.529   1
  -7  -2  -1 26.6333 279.327   3
  -7  -2  -1-74.5672 253.584   1
  -7  -2  -2 1078.32 339.289   1
  -7   2  -2 898.421 388.496   1
  -7  -2  -3 1207.38 412.097   1
  -7   2  -3 813.022 265.628   1
  -7   2  -4 2550.25 736.056   1
  -7  -2  -4 3136.09 674.865   1
  -7  -2  -5 922.797 384.365   1
  -7   2  -5 825.799 391.951   1
  -7   2  -6 3332.68 825.491   1
  -7  -2  -6 4226.35 844.994   1
  -7   2  -7 5438.31 1112.46   1
  -7  -2  -7 4828.44 920.080   1
  -7   2  -8 3865.33 955.108   1
  -7  -3  10 162.250 325.987   3
  -7   3  10-406.501 253.339   2
  -7  -3   9 4682.31 1040.42   3
  -7   3   9 3584.34 874.279   2
  -7  -3   8 1767.59 627.294   3
  -7   3   8 1017.69 493.811   2
  -7  -3   7 2166.65 705.251   3
  -7   3   7 1942.50 751.681   2
  -7  -3   6 443.113 273.614   3
  -7   3   6 996.422 481.744   2
  -7  -3   5-343.660 455.453   3
  -7   3   5 260.037 249.478   2
  -7  -3   4 691.913 428.739   3
  -7   3   4 71.6834 304.396   2
  -7  -3   3 236.949 374.929   3
  -7  -3   2 518.389 273.536   3
  -7   3   2 283.676 290.778   1
  -7  -3   1 59.9338 310.150   3
  -7   3   1 125.899 223.502   1
  -7  -3   0 255.769 228.617   3
  -7   3   0 418.064 304.543   1
  -7   3  -1 289.774 265.890   1
  -7   3  -2-181.418 257.739   1
  -7   3  -3 710.000 341.583   1
  -7   3  -4 921.106 451.779   1
  -7   3  -5 1208.93 519.658   1
  -8   0  11-3.04883 254.255   2
  -8   0  10 1051.03 365.365   2
  -8   0   9-57.5256 189.113   2
  -8   0   8 4929.33 772.169   2
  -8   0   7 14.5968 261.510   2
  -8   0   6 1419.30 443.210   2
  -8   0   5-227.396 194.142   2
  -8   0   3-10.4959 301.962   1
  -8   0   2 5211.82 936.546   1
  -8   0   1-354.857 390.334   1
  -8   0   0 2040.59 579.035   1
  -8   0  -1 282.881 299.111   1
  -8   0  -2 17819.6 1808.59   1
  -8   0  -3 244.742 224.204   1
  -8   0  -4 397.567 236.764   1
  -8   0  -5-96.3779 213.330   1
  -8   0  -6 6054.84 1139.10   1
  -8   0  -7-242.279 392.281   1
  -8   0  -8 1316.32 610.904   1
  -8   1  16 1298.08 628.176   2
  -8   1  15 1030.95 448.080   2
  -8  -1  14 303.543 516.221   3
  -8   1  14 723.238 475.660   2
  -8  -1  13 617.423 497.575   3
  -8   1  13 103.111 337.476   2
  -8  -1  12 1814.67 784.262   3
  -8   1  12 1559.33 604.705   2
  -8  -1  11 283.212 487.348   3
  -8   1  11-799.563 555.204   2
  -8  -1  10 4789.39 1044.23   3
  -8   1  10 6123.36 981.007   2
  -8  -1   9 2880.36 990.278   3
  -8   1   9 2210.74 628.042   2
  -8  -1   8 173.556 602.793   3
  -8   1   8 137.579 218.849   2
  -8  -1   7 6762.58 1246.66   3
  -8   1   7 6224.33 961.860   2
  -8  -1   6 6286.20 1262.14   3
  -8   1   6 4862.88 825.204   2
  -8  -1   5 6542.93 1203.24   3
  -8   1   5 6852.25 1019.95   2
  -8  -1   4 3847.28 877.958   3
  -8  -1   3 4975.85 991.990   3
  -8   1   3 5396.04 997.515   1
  -8  -1   2 350.084 479.053   3
  -8   1   2 17.4714 288.377   1
  -8   1   1 1245.99 520.266   1
  -8  -1   1 1138.27 625.950   3
  -8  -1   1 1131.13 437.346   1
  -8  -1   0 326.098 417.753   3
  -8   1   0 895.573 438.090   1
  -8  -1   0-289.825 370.451   1
  -8  -1  -1 186.206 296.227   3
  -8  -1  -1 518.785 317.150   1
  -8   1  -1 73.7238 230.772   1
  -8   1  -2 2816.82 794.486   1
  -8  -1  -2 1843.49 540.948   1
  -8  -1  -3 2114.20 575.657   1
  -8   1  -3 1807.75 562.565   1
  -8  -1  -4 7048.30 1162.22   1
  -8   1  -4 6690.99 1200.55   1
  -8   1  -5 850.163 312.759   1
  -8  -1  -5 1065.57 495.073   1
  -8   1  -6-384.153 370.512   1
  -8  -1  -6 298.777 286.994   1
  -8   1  -7 1552.20 557.774   1
  -8  -1  -7 2230.99 658.438   1
  -8  -1  -8 5300.53 1142.42   1
  -8  -1  -9 3037.46 892.981   1
  -8   2  13 1110.96 611.711   2
  -8   2  12-403.042 523.043   2
  -8  -2  11-247.560 439.021   3
  -8   2  11 989.232 602.416   2
  -8  -2  10 48.3758 342.211   3
  -8   2  10 145.603 332.623   2
  -8  -2   9 807.409 425.319   3
  -8   2   9-551.491 419.399   2
  -8  -2   8 703.152 436.156   3
  -8   2   8 659.747 310.374   2
  -8  -2   7-325.764 337.525   3
  -8   2   7-477.433 487.499   2
  -8  -2   6 2685.64 798.119   3
  -8   2   6 2741.05 727.349   2
  -8  -2   5 642.907 362.257   3
  -8   2   5 512.353 348.201   2
  -8  -2   4 3142.10 877.904   3
  -8   2   3 17687.8 1854.18   1
  -8  -2   3 15134.8 1640.29   3
  -8   2   2 28430.3 2354.69   1
  -8  -2   2 20848.1 1860.94   3
  -8  -2   1 2487.71 679.734   3
  -8   2   1 2706.81 766.095   1
  -8  -2   0 251.451 226.743   3
  -8   2   0 364.256 226.551   1
  -8   2  -1 65.2545 251.168   1
  -8   2  -2 1944.80 700.081   1
  -8  -2  -2 850.304 367.100   1
  -8  -2  -3 238.848 180.483   1
  -8   2  -3 274.029 418.226   1
  -8  -2  -4 409.462 366.228   1
  -8   2  -4 30.9276 332.281   1
  -8   2  -5-393.255 407.540   1
  -8  -2  -5 611.981 304.371   1
  -8  -3   6 451.774 329.311   3
  -8  -3   5 616.965 484.437   3
  -8  -3   4 456.158 427.664   3
  -8  -3   3 134.896 249.642   3
  -8  -3   2 2458.50 805.569   3
  -8   3   2 2874.11 833.454   1
  -8   3   1 8249.90 1336.63   1
  -8   3   0 11019.9 1547.92   1
  -8   3  -1 4040.53 968.592   1
  -9   0   5-159.856 290.464   2
  -9   0   2 698.457 499.555   1
  -9   0   1-32.3089 352.033   1
  -9   0   0 508.970 464.306   1
  -9   0  -1-25.1342 205.555   1
  -9   0  -2 1043.71 432.698   1
  -9   0  -3-49.3746 225.036   1
  -9   0  -4 122.492 269.657   1
  -9   1  14 526.977 373.069   2
  -9   1  13 1865.71 563.351   2
  -9   1  12 1547.56 600.201   2
  -9  -1  11-566.891 971.559   3
  -9   1  11 371.774 271.131   2
  -9  -1  10 363.200 581.249   3
  -9   1  10 483.910 335.061   2
  -9  -1   9 1701.49 908.400   3
  -9   1   9 27.8629 302.844   2
  -9  -1   8 3123.92 991.480   3
  -9   1   8 2635.79 723.088   2
  -9  -1   7 2728.42 967.438   3
  -9   1   7 1288.76 364.089   2
  -9  -1   6 157.286 492.208   3
  -9   1   6 567.489 444.666   2
  -9  -1   5 11404.9 1700.41   3
  -9   1   5 10539.1 1316.06   2
  -9  -1   4 725.123 646.170   3
  -9   1   3 2798.76 762.491   1
  -9  -1   3 1783.98 847.140   3
  -9  -1   2 710.087 529.173   3
  -9   1   2 121.577 404.014   1
  -9  -1   1 2744.73 775.442   3
  -9   1   1 3729.50 788.404   1
  -9   1   0 355.484 277.806   1
  -9  -1   0 358.726 284.074   1
  -9   1  -1-188.188 281.098   1
  -9  -1  -1 135.322 220.478   1
  -9  -1  -2 590.113 433.835   1
  -9   1  -2 667.480 465.920   1
  -9  -1  -3 1968.98 558.666   1
  -9  -1  -4 75.2958 307.942   1
  -9  -1  -5-382.307 405.179   1
  -9   2   9 548.068 370.291   2
  -9  -2   8 507.532 477.348   3
  -9   2   8 977.734 511.362   2
  -9  -2   7 3680.42 1014.78   3
  -9   2   7 2174.43 668.246   2
  -9  -2   6 9053.73 1445.07   3
  -9   2   6 8406.99 1311.07   2
  -9  -2   5 3866.69 923.854   3
  -9   2   5 2621.41 782.361   2
  -9  -2   4 60.7579 630.003   3
  -9   2   4 175.781 303.078   2
  -9  -2   3 203.318 305.088   3
  -9  -2   2 603.102 504.768   3
  -9   2   2 157.973 376.958   1
  -9   2   1 810.984 471.354   1
 -10   1   8 339.467 243.119   2
 -10   1   7-162.799 282.337   2
 -10  -1   6 3592.31 893.924   3
 -10   1   6 5164.74 1000.45   2
 -10  -1   5 4643.49 1147.21   3
 -10   1   5 3963.14 898.172   2
 -10  -1   4 1426.47 761.250   3
 -10   1   4 1666.23 510.404   2
 -10  -1   3 1530.73 761.625   3
   0   0   0    0.00    0.00   0
TITL BKS-SS-DI-ANTH-178K-SS in P2(1)/c
REM P2(1)/c (#14 in standard setting)
CELL 0.71073   7.872911   3.919546  15.712578  90.0000 102.6037  90.0000
ZERR    2.00   0.000793   0.000471   0.001832   0.0000   0.0102   0.0000
LATT  1
SYMM -x, y+1/2,-z+1/2
SFAC C H O
UNIT 24.00 16.00 4.00
TREF
HKLF 4
END
;
_shelx_hkl_checksum              6945
_olex2_submission_special_instructions 'No special instructions were received'
loop_
_space_group_symop_operation_xyz
'x, y, z'
'-x, y+1/2, -z+1/2'
'-x, -y, -z'
'x, -y-1/2, z-1/2'
loop_
_atom_site_label
_atom_site_type_symbol
_atom_site_fract_x
_atom_site_fract_y
_atom_site_fract_z
_atom_site_U_iso_or_equiv
_atom_site_adp_type
_atom_site_occupancy
_atom_site_site_symmetry_order
_atom_site_calc_flag
_atom_site_refinement_flags_posn
_atom_site_refinement_flags_adp
_atom_site_refinement_flags_occupancy
_atom_site_disorder_assembly
_atom_site_disorder_group
C2 C 0.4350(2) 0.6541(4) 0.41473(11) 0.0281(5) Uani 1 1 d . . . . .
C7 C 0.3259(2) 0.6402(4) 0.47419(11) 0.0281(5) Uani 1 1 d . . . . .
C1 C 0.6144(2) 0.5130(4) 0.43789(12) 0.0307(5) Uani 1 1 d . . . . .
C5 C 0.0990(2) 0.9150(5) 0.36881(13) 0.0379(5) Uani 1 1 d . . . . .
H5 H -0.015806 1.004306 0.353124 0.045 Uiso 1 1 calc R U . . .
O1 O 0.70979(17) 0.5236(4) 0.38614(9) 0.0484(5) Uani 1 1 d . . . . .
C3 C 0.3736(2) 0.7983(4) 0.33299(12) 0.0345(5) Uani 1 1 d . . . . .
H3 H 0.447052 0.807388 0.292424 0.041 Uiso 1 1 calc R U . . .
C6 C 0.1578(2) 0.7714(5) 0.45041(12) 0.0341(5) Uani 1 1 d . . . . .
H6 H 0.083116 0.762163 0.490385 0.041 Uiso 1 1 calc R U . . .
C4 C 0.2061(3) 0.9292(5) 0.31012(13) 0.0384(5) Uani 1 1 d . . . . .
H4 H 0.165245 1.028300 0.254223 0.046 Uiso 1 1 calc R U . . .
loop_
_atom_site_aniso_label
_atom_site_aniso_U_11
_atom_site_aniso_U_22
_atom_site_aniso_U_33
_atom_site_aniso_U_23
_atom_site_aniso_U_13
_atom_site_aniso_U_12
C2 0.0278(10) 0.0290(10) 0.0267(9) -0.0034(7) 0.0042(7) -0.0017(7)
C7 0.0255(9) 0.0280(11) 0.0295(10) -0.0056(8) 0.0031(7) -0.0032(7)
C1 0.0263(9) 0.0365(12) 0.0301(10) -0.0028(8) 0.0079(8) -0.0032(7)
C5 0.0280(10) 0.0376(12) 0.0428(12) -0.0031(9) -0.0037(9) 0.0023(8)
O1 0.0366(8) 0.0756(12) 0.0372(9) 0.0098(7) 0.0169(7) 0.0084(7)
C3 0.0382(11) 0.0375(11) 0.0279(10) -0.0017(8) 0.0071(8) -0.0016(8)
C6 0.0264(10) 0.0357(11) 0.0402(11) -0.0030(8) 0.0076(8) -0.0015(7)
C4 0.0402(11) 0.0396(11) 0.0302(11) -0.0005(8) -0.0039(8) -0.0001(8)
loop_
_atom_type_symbol
_atom_type_description
_atom_type_scat_dispersion_real
_atom_type_scat_dispersion_imag
_atom_type_scat_source
C C 0.0033 0.0016 'International Tables Vol C Tables 4.2.6.8 and 6.1.1.4'
H H 0.0000 0.0000 'International Tables Vol C Tables 4.2.6.8 and 6.1.1.4'
O O 0.0106 0.0060 'International Tables Vol C Tables 4.2.6.8 and 6.1.1.4'
loop_
_geom_angle_atom_site_label_1
_geom_angle_atom_site_label_2
_geom_angle_atom_site_label_3
_geom_angle
_geom_angle_site_symmetry_1
_geom_angle_site_symmetry_3
_geom_angle_publ_flag
C7 C2 C1 120.67(15) . . ?
C3 C2 C7 119.48(16) . . ?
C3 C2 C1 119.84(16) . . ?
C2 C7 C1 121.34(15) . 3_666 ?
C6 C7 C2 119.44(17) . . ?
C6 C7 C1 119.21(16) . 3_666 ?
C7 C1 C2 117.98(15) 3_666 . ?
O1 C1 C2 120.91(17) . . ?
O1 C1 C7 121.11(16) . 3_666 ?
C6 C5 H5 119.8 . . ?
C4 C5 H5 119.8 . . ?
C4 C5 C6 120.37(17) . . ?
C2 C3 H3 119.7 . . ?
C4 C3 C2 120.57(18) . . ?
C4 C3 H3 119.7 . . ?
C7 C6 H6 119.8 . . ?
C5 C6 C7 120.32(18) . . ?
C5 C6 H6 119.8 . . ?
C5 C4 C3 119.81(18) . . ?
C5 C4 H4 120.1 . . ?
C3 C4 H4 120.1 . . ?
loop_
_geom_bond_atom_site_label_1
_geom_bond_atom_site_label_2
_geom_bond_distance
_geom_bond_site_symmetry_2
_geom_bond_publ_flag
C2 C7 1.401(2) . ?
C2 C1 1.486(2) . ?
C2 C3 1.390(2) . ?
C7 C1 1.486(2) 3_666 ?
C7 C6 1.393(2) . ?
C1 O1 1.222(2) . ?
C5 H5 0.9500 . ?
C5 C6 1.384(3) . ?
C5 C4 1.380(3) . ?
C3 H3 0.9500 . ?
C3 C4 1.388(3) . ?
C6 H6 0.9500 . ?
C4 H4 0.9500 . ?
loop_
_geom_torsion_atom_site_label_1
_geom_torsion_atom_site_label_2
_geom_torsion_atom_site_label_3
_geom_torsion_atom_site_label_4
_geom_torsion
_geom_torsion_site_symmetry_1
_geom_torsion_site_symmetry_2
_geom_torsion_site_symmetry_3
_geom_torsion_site_symmetry_4
_geom_torsion_publ_flag
C2 C7 C6 C5 -0.2(3) . . . . ?
C2 C3 C4 C5 -0.3(3) . . . . ?
C7 C2 C1 C7 -0.3(3) . . . 3_666 ?
C7 C2 C1 O1 179.79(17) . . . . ?
C7 C2 C3 C4 0.2(3) . . . . ?
C1 C2 C7 C1 0.4(3) . . . 3_666 ?
C1 C2 C7 C6 -179.36(14) . . . . ?
C1 C2 C3 C4 179.59(15) . . . . ?
C1 C7 C6 C5 -179.90(16) 3_666 . . . ?
C3 C2 C7 C1 179.71(15) . . . 3_666 ?
C3 C2 C7 C6 0.0(2) . . . . ?
C3 C2 C1 C7 -179.70(15) . . . 3_666 ?
C3 C2 C1 O1 0.4(3) . . . . ?
C6 C5 C4 C3 0.1(3) . . . . ?
C4 C5 C6 C7 0.1(3) . . . . ?
