#------------------------------------------------------------------------------
#$Date: 2021-09-06 13:32:23 +0300 (Mon, 06 Sep 2021) $
#$Revision: 268688 $
#$URL: file:///home/coder/svn-repositories/cod/cif/7/24/27/7242764.cif $
#------------------------------------------------------------------------------
#
# This file is available in the Crystallography Open Database (COD),
# http://www.crystallography.net/
#
# All data on this site have been placed in the public domain by the
# contributors.
#
data_7242764
loop_
_publ_author_name
'Rather, Sumair A.'
'Saha, Binoy K.'
_publ_section_title
;
 Understanding the elastic bending mechanism in a 9,10-anthraquinone
 crystal through thermal expansion study
;
_journal_issue                   34
_journal_name_full               CrystEngComm
_journal_page_first              5768
_journal_page_last               5773
_journal_paper_doi               10.1039/D1CE00467K
_journal_volume                  23
_journal_year                    2021
_chemical_formula_moiety         'C14 H8 O2'
_chemical_formula_sum            'C14 H8 O2'
_chemical_formula_weight         208.20
_chemical_name_common            Anthraquinone
_chemical_name_systematic        9,10-Anthracenedione
_space_group_crystal_system      monoclinic
_space_group_IT_number           14
_space_group_name_Hall           '-P 2ybc'
_space_group_name_H-M_alt        'P 1 21/c 1'
_atom_sites_solution_hydrogens   geom
_audit_creation_date             2021-03-31
_audit_creation_method
;
Olex2 1.3-alpha
(compiled 2019.09.11 svn.r3662 for OlexSys, GUI svn.r5938)
;
_audit_update_record
;
2021-04-06 deposited with the CCDC.	2021-05-03 downloaded from the CCDC.
;
_cell_angle_alpha                90
_cell_angle_beta                 102.624(11)
_cell_angle_gamma                90
_cell_formula_units_Z            2
_cell_length_a                   7.8876(7)
_cell_length_b                   3.9434(4)
_cell_length_c                   15.7578(19)
_cell_measurement_reflns_used    435
_cell_measurement_temperature    223
_cell_measurement_theta_max      29.2346
_cell_measurement_theta_min      3.3041
_cell_volume                     478.28(9)
_computing_cell_refinement
;
CrysAlisPro, Agilent Technologies,
Version 1.171.36.21 (release 14-08-2012 CrysAlis171 .NET)
(compiled Sep 14 2012,17:21:16)
;
_computing_data_collection
;
CrysAlisPro, Agilent Technologies,
Version 1.171.36.21 (release 14-08-2012 CrysAlis171 .NET)
(compiled Sep 14 2012,17:21:16)
;
_computing_data_reduction
;
CrysAlisPro, Agilent Technologies,
Version 1.171.36.21 (release 14-08-2012 CrysAlis171 .NET)
(compiled Sep 14 2012,17:21:16)
;
_computing_molecular_graphics    'Olex2 1.3-alpha (Dolomanov et al., 2009)'
_computing_publication_material  'Olex2 1.3-alpha (Dolomanov et al., 2009)'
_computing_structure_refinement  'ShelXL 2018/3 (Sheldrick, 2015)'
_computing_structure_solution    'ShelXS n/a (Sheldrick, 2008)'
_diffrn_ambient_temperature      223.00(2)
_diffrn_detector_area_resol_mean 15.9821
_diffrn_measured_fraction_theta_full 0.960
_diffrn_measured_fraction_theta_max 0.800
_diffrn_measurement_details
;
#__ type_ start__ end____ width___ exp.time_
  1 omega   -2.00   83.00   1.0000    3.0000
omega____ theta____ kappa____ phi______ frames
    -       19.6835   57.0000   60.0000 85

#__ type_ start__ end____ width___ exp.time_
  2 omega   35.00   96.00   1.0000    3.0000
omega____ theta____ kappa____ phi______ frames
    -       19.6835  178.0000  -60.0000 61

#__ type_ start__ end____ width___ exp.time_
  3 omega   -8.00   79.00   1.0000    3.0000
omega____ theta____ kappa____ phi______ frames
    -       19.6835   19.0000    0.0000 87
;
_diffrn_measurement_device_type  'Xcalibur, Eos'
_diffrn_measurement_method       '\w scans'
_diffrn_radiation_type           MoK\a
_diffrn_radiation_wavelength     0.71073
_diffrn_reflns_av_R_equivalents  0.0319
_diffrn_reflns_av_unetI/netI     0.0541
_diffrn_reflns_Laue_measured_fraction_full 0.960
_diffrn_reflns_Laue_measured_fraction_max 0.800
_diffrn_reflns_limit_h_max       5
_diffrn_reflns_limit_h_min       -10
_diffrn_reflns_limit_k_max       5
_diffrn_reflns_limit_k_min       -4
_diffrn_reflns_limit_l_max       20
_diffrn_reflns_limit_l_min       -20
_diffrn_reflns_number            2167
_diffrn_reflns_point_group_measured_fraction_full 0.960
_diffrn_reflns_point_group_measured_fraction_max 0.800
_diffrn_reflns_theta_full        25.000
_diffrn_reflns_theta_max         29.299
_diffrn_reflns_theta_min         3.311
_exptl_absorpt_coefficient_mu    0.097
_exptl_absorpt_correction_T_max  1.00000
_exptl_absorpt_correction_T_min  0.61280
_exptl_absorpt_correction_type   multi-scan
_exptl_absorpt_process_details
;
CrysAlisPro, Agilent Technologies,
Version 1.171.36.21 (release 14-08-2012 CrysAlis171 .NET)
(compiled Sep 14 2012,17:21:16)
Empirical absorption correction using spherical harmonics,
 implemented in SCALE3 ABSPACK scaling algorithm.
;
_exptl_crystal_colour            yellow
_exptl_crystal_colour_primary    yellow
_exptl_crystal_density_diffrn    1.446
_exptl_crystal_description       block
_exptl_crystal_F_000             216
_exptl_crystal_size_max          0.62
_exptl_crystal_size_mid          0.26
_exptl_crystal_size_min          0.16
_refine_diff_density_max         0.157
_refine_diff_density_min         -0.188
_refine_diff_density_rms         0.043
_refine_ls_extinction_method     none
_refine_ls_goodness_of_fit_ref   1.010
_refine_ls_hydrogen_treatment    constr
_refine_ls_matrix_type           full
_refine_ls_number_parameters     73
_refine_ls_number_reflns         1049
_refine_ls_number_restraints     0
_refine_ls_restrained_S_all      1.010
_refine_ls_R_factor_all          0.0904
_refine_ls_R_factor_gt           0.0533
_refine_ls_shift/su_max          0.000
_refine_ls_shift/su_mean         0.000
_refine_ls_structure_factor_coef Fsqd
_refine_ls_weighting_details
'w=1/[\s^2^(Fo^2^)+(0.0583P)^2^] where P=(Fo^2^+2Fc^2^)/3'
_refine_ls_weighting_scheme      calc
_refine_ls_wR_factor_gt          0.1138
_refine_ls_wR_factor_ref         0.1367
_reflns_Friedel_coverage         0.000
_reflns_number_gt                675
_reflns_number_total             1049
_reflns_threshold_expression     'I > 2\s(I)'
_cod_data_source_file            d1ce00467k2.cif
_cod_data_source_block           anthraquinone-223k
_cod_depositor_comments
'Adding full bibliography for 7242759--7242768.cif.'
_cod_database_code               7242764
_shelx_shelxl_version_number     2018/3
_shelx_space_group_comment
;
The symmetry employed for this shelxl refinement is uniquely defined
by the following loop, which should always be used as a source of
symmetry information in preference to the above space-group names.
They are only intended as comments.
;
_shelx_estimated_absorpt_t_max   0.985
_shelx_estimated_absorpt_t_min   0.943
_olex2_refinement_description
;
1. Fixed Uiso
 At 1.2 times of:
  All C(H) groups
2.a Aromatic/amide H refined with riding coordinates:
 C5(H5), C3(H3), C6(H6), C4(H4)
;
_shelx_res_file
;
TITL BKS-SS-DI-ANTH-223K-ss in P21/c #14
    anthraquinone-223k.res
    created by SHELXL-2018/3 at 17:36:27 on 31-Mar-2021
REM reset to P21/c #14
CELL 0.71073 7.887631 3.943396 15.757786 90 102.6236 90
ZERR 2 0.000696 0.000446 0.0019 0 0.0107 0
LATT 1
SYMM -X,0.5+Y,0.5-Z
SFAC C H O
UNIT 28 16 4

L.S. 4
PLAN  5
SIZE 0.62 0.26 0.16
TEMP -50.15(2)
CONF
BOND $H
HTAB
MORE -1
fmap 2
acta 50
REM <olex2.extras>
REM <HklSrc "%.\\Anthraquinone-223K.hkl">
REM </olex2.extras>

WGHT    0.058300
FVAR      13.26666
C2    1    0.435785    0.653463    0.415104    11.00000    0.03443    0.03251 =
         0.03259   -0.00409    0.00550   -0.00371
C7    1    0.326169    0.639498    0.474037    11.00000    0.03142    0.03062 =
         0.03736   -0.00425    0.00702   -0.00237
C1    1    0.614872    0.513081    0.438478    11.00000    0.03338    0.04299 =
         0.03687   -0.00393    0.01160   -0.00375
C5    1    0.100105    0.914606    0.368555    11.00000    0.03603    0.04207 =
         0.05332   -0.00243   -0.00098    0.00342
AFIX  43
H5    2   -0.013066    1.003271    0.352945    11.00000   -1.20000
AFIX   0
O1    3    0.710865    0.523314    0.386848    11.00000    0.04658    0.09219 =
         0.04696    0.01106    0.02398    0.01110
C3    1    0.375200    0.798712    0.333340    11.00000    0.04617    0.04513 =
         0.03593   -0.00075    0.00983   -0.00208
AFIX  43
H3    2    0.448283    0.809124    0.293613    11.00000   -1.20000
AFIX   0
C6    1    0.158059    0.771682    0.449582    11.00000    0.03307    0.04452 =
         0.04703   -0.00288    0.00914    0.00040
AFIX  43
H6    2    0.083800    0.763036    0.488767    11.00000   -1.20000
AFIX   0
C4    1    0.207624    0.927996    0.310272    11.00000    0.05282    0.04416 =
         0.03808    0.00228   -0.00122    0.00248
AFIX  43
H4    2    0.167433    1.024577    0.254994    11.00000   -1.20000
AFIX   0
HKLF 4




REM  BKS-SS-DI-ANTH-223K-ss in P21/c #14
REM wR2 = 0.1367, GooF = S = 1.010, Restrained GooF = 1.010 for all data
REM R1 = 0.0533 for 675 Fo > 4sig(Fo) and 0.0904 for all 1049 data
REM 73 parameters refined using 0 restraints

END

WGHT      0.0583      0.0000

REM No hydrogen bonds found for HTAB generation

REM Highest difference peak  0.157,  deepest hole -0.188,  1-sigma level  0.043
Q1    1   0.1846  1.1571  0.2205  11.00000  0.05    0.16
Q2    1   0.0389  1.3975  0.3765  11.00000  0.05    0.15
Q3    1   0.4959  0.8365  0.2790  11.00000  0.05    0.15
Q4    1   0.6941  0.6426  0.3168  11.00000  0.05    0.14
Q5    1   0.2774  1.2550  0.3631  11.00000  0.05    0.13
;
_shelx_res_checksum              65195
_shelx_hkl_file
;
   0   0  -3-75.2374 147.056   1
   0   0   3-37.0121 123.506   1
   0   0  -4 199655. 3543.10   1
   0   0   4 198459. 3484.20   1
   0   0   5-186.432 187.767   1
   0   0  -5-107.445 272.359   1
   0   0  -6-72.8582 208.338   1
   0   0   6 439.253 167.128   1
   0   0  -7 192.249 234.915   1
   0   0  -8 15713.3 1169.71   1
   0   0  -9 197.383 292.110   1
   0   0 -10 275.033 370.805   1
   0   0 -11-440.458 399.237   1
   0   0 -12 2249.90 716.087   1
   0   0 -13-69.9160 422.897   1
   0   0 -14 5828.55 971.146   1
   0   0 -15 85.1812 413.631   1
   0   0 -16 2438.75 822.456   1
   0   0 -17 444.016 499.855   1
   0   0 -18-593.257 701.589   1
   0   0 -19-666.920 639.297   1
   0   1   0 367.680 148.581   2
   0   1   1 160523. 2876.42   2
   0   1  -1 164895. 2886.46   1
   0  -1  -1 158137. 2913.00   2
   0  -1  -2 571174. 8200.41   2
   0   1   2 579964. 8132.40   2
   0   1  -2 572350. 8141.30   1
   0  -1   2 579721. 8120.86   1
   0  -1   3 181477. 3358.60   1
   0   1   3 186716. 3481.78   2
   0   1  -3 175252. 3427.92   1
   0  -1  -3 183369. 3443.07   2
   0  -1   4 26934.5 1110.13   1
   0  -1  -4 24240.8 1124.38   2
   0   1  -4 25229.6 1176.78   1
   0   1   4 25915.4 1150.36   2
   0   1  -5 143029. 3395.78   1
   0  -1  -5 147417. 3275.14   2
   0   1   5 147131. 3149.00   1
   0   1   6 45977.4 1696.37   1
   0  -1  -6 47344.9 1803.60   2
   0   1  -7 21908.6 1366.76   1
   0  -1  -7 22357.7 1343.37   2
   0  -1  -8 16719.7 1277.47   2
   0   1  -8 16256.9 1245.43   1
   0  -1  -9 6783.99 868.455   2
   0   1  -9 7274.60 879.656   1
   0   1 -10 2203.53 602.327   1
   0  -1 -10 1888.77 545.809   2
   0   1 -11 163.483 362.043   1
   0  -1 -11-203.940 536.628   2
   0   1 -12 2498.75 733.919   1
   0  -1 -12 2380.69 731.719   2
   0   1 -13 479.897 515.882   1
   0  -1 -13-359.243 525.063   2
   0  -1 -14 1644.38 724.232   2
   0   1 -14 631.801 499.496   1
   0   1 -15 1073.47 771.253   1
   0  -1 -15 2591.49 891.260   2
   0   1 -16 782.494 663.509   1
   0  -1 -16-904.893 779.783   2
   0  -1 -17 484.786 731.774   2
   0   1 -17-25.3327 551.775   1
   0   1 -18 272.292 608.654   1
   0  -1 -18-684.080 742.970   2
   0  -1 -19 319.659 689.146   2
   0   1 -19-96.2425 543.436   1
   0  -1 -20-234.929 740.144   2
   0   2   1 14674.1 562.143   3
   0   2  -1 17545.0 989.053   1
   0  -2  -2 3495.38 490.928   2
   0   2  -2 4259.43 517.506   1
   0   2   2 3608.37 304.421   3
   0  -2  -3 31828.7 1500.94   2
   0   2  -3 32665.5 1446.08   1
   0  -2   4 24106.9 759.072   3
   0  -2  -4 25806.3 1383.79   2
   0   2  -5 63417.5 2367.13   1
   0  -2  -5 62818.2 2299.08   2
   0   2  -6 8719.77 917.284   1
   0  -2  -6 8504.27 839.264   2
   0   2  -7 5831.52 802.353   1
   0  -2  -7 4778.72 706.331   2
   0   2  -8 6872.31 1000.70   1
   0  -2  -8 6232.13 834.004   2
   0   2  -9-431.360 359.787   1
   0  -2  -9 179.781 302.861   2
   0   2 -10 4408.07 853.560   1
   0  -2 -10 4252.02 765.337   2
   0   2 -11 1118.95 462.712   1
   0  -2 -11-15.5142 474.044   2
   0  -2 -12 3612.95 739.363   2
   0   2 -12 4935.39 1010.58   1
   0  -2 -13 6160.37 1060.50   2
   0   2 -13 4922.94 980.939   1
   0   2 -14 856.893 608.448   1
   0  -2 -14-378.236 617.007   2
   0   2 -15 7553.62 1397.26   1
   0  -2 -15 9765.04 1446.36   2
   0  -2 -16 12523.6 1661.79   2
   0   2 -16 8083.56 1427.09   1
   0   2 -17 82.5087 688.601   1
   0  -2 -17-319.756 666.811   2
   0  -2 -18 773.111 723.509   2
   0  -2 -19-310.257 598.237   2
   0   3   0 1.41441 128.949   1
   0   3   1 245.622 192.547   1
   0   3   1 127.794 38.0428   3
   0   3  -2 10336.4 987.962   1
   0   3   2 7261.48 460.386   3
   0   3   3 5802.85 469.102   3
   0   3  -3 7404.23 851.418   1
   0   3  -4 554.588 302.349   1
   0  -3  -4 765.129 293.487   2
   0   3   4 768.387 186.109   3
   0   3  -5 558.041 363.570   1
   0  -3  -5 574.592 302.904   2
   0   3   5 986.848 236.610   3
   0  -3  -6 2064.72 502.678   2
   0   3   6 1469.73 308.923   3
   0   3  -6 1949.82 559.976   1
   0   3  -7 525.998 296.186   1
   0  -3  -7 356.143 326.521   2
   0  -3  -8 1923.84 534.555   2
   0   3  -8 1828.63 562.215   1
   0   3  -9 3372.46 763.888   1
   0  -3  -9 3037.71 662.018   2
   0  -3 -10 1206.25 500.512   2
   0   3 -10 975.458 469.690   1
   0  -3 -11 2209.96 601.824   2
   0   3 -11 2630.34 836.316   1
   0   3 -12 2265.05 828.128   1
   0  -3 -12 1959.52 609.136   2
   0  -3 -13-387.813 406.657   2
   0   3 -13-251.522 437.291   1
   0   3 -14-129.896 505.295   1
   0  -3 -14 521.623 442.334   2
   0  -3 -15-761.279 571.078   2
   0   3 -15-259.115 677.328   1
   0  -3 -16 3241.67 897.608   2
   0   4   0 170.190 192.537   1
   0   4   1 633.356 317.820   1
   0   4  -1 455.404 262.291   1
   0   4  -2-100.845 182.538   1
   0   4  -3-269.670 296.869   1
   0   4  -4 98.9084 218.840   1
   0   4  -5 56.1942 324.033   1
   0   4  -6 308.663 342.526   1
   0   4  -7 714.847 510.767   1
   0  -4  -7 746.437 406.152   2
   0  -4  -8 1311.71 495.584   2
   0   4  -8 3515.52 868.870   1
   0   4  -9-39.2515 379.380   1
   0  -4  -9-38.7079 222.094   2
   0   4 -10 2594.47 931.574   1
   0  -4 -10 1760.78 576.561   2
   0  -4 -11 2248.73 600.554   2
   0   4 -11 1902.45 798.761   1
   0   4 -12-203.324 552.867   1
   0  -4 -12 148.595 280.833   2
   1   0 -16 1468.18 682.612   1
   1   0 -15 442.918 552.640   1
   1   0 -14 3054.15 805.951   1
   1   0 -13-595.942 501.380   1
   1   0 -12 39382.4 2330.19   1
   1   0 -11-214.480 436.084   1
   1   0 -10 636.859 347.442   1
   1   0  -9-20.7093 356.135   1
   1   0  -8 18490.8 1264.41   1
   1   0  -7-182.988 264.929   1
   1   0  -6 87532.8 2491.00   1
  -1   0   6 86956.6 2368.13   1
   1   0  -5 181.224 205.887   1
  -1   0   5 232.851 217.349   1
   1   0  -4 79956.8 2091.32   1
  -1   0   4 86505.6 2053.60   1
  -1   0   3-51.0247 145.988   1
  -1   0   3-21.7919 60.6308   3
   1   0  -2 260662. 3855.51   3
  -1   0  -2 11405.5 502.418   1
   1   0   2 11512.8 505.071   1
  -1   0  -3 273.149 190.497   1
   1   0   3 108.084 119.398   1
  -1   0  -4 30047.4 1139.42   1
   1   0   4 31689.1 1082.23   1
   1   0   5-27.8184 103.089   1
  -1   0  -5-96.6006 184.484   1
  -1   0  -6 304547. 5521.74   1
   1   0   6 302791. 5277.16   1
  -1   0  -7-98.3183 273.925   1
  -1   0  -8 190062. 4464.99   1
  -1   0  -9 10.5970 309.903   1
  -1   0 -10 10813.3 1079.30   1
  -1   0 -11 728.788 452.722   1
  -1   0 -12 7191.76 1041.37   1
  -1   0 -13-305.403 412.693   1
  -1   0 -14 1370.00 632.679   1
  -1   0 -15 960.317 536.533   1
  -1   0 -16 7739.88 1261.11   1
  -1   0 -17 661.097 582.449   1
  -1   0 -18 331.539 515.637   1
  -1   0 -19-1076.36 794.666   1
   1  -1 -20 456.447 699.677   2
   1   1 -19 1840.16 709.773   1
   1  -1 -19 5901.93 1276.87   2
   1  -1 -18 238.735 682.079   2
   1   1 -18 1080.06 711.131   1
   1   1 -17 268.429 593.675   1
   1  -1 -17-1563.85 790.379   2
   1  -1 -16 759.419 751.844   2
   1   1 -16 1634.98 731.122   1
   1  -1 -15 37449.3 2496.25   2
   1   1 -15 33900.4 2621.30   1
   1  -1 -14 30394.3 2123.49   2
   1   1 -14 27374.8 2217.83   1
   1  -1 -13 1936.38 652.432   2
   1   1 -13 2824.09 767.320   1
   1   1 -12 2862.25 804.863   1
   1  -1 -12 2070.26 630.954   2
   1  -1 -11 5500.48 886.910   2
   1   1 -11 4728.91 791.859   1
   1   1 -10 453.380 408.204   1
   1  -1 -10 687.523 424.309   2
   1  -1  -9 4377.50 655.079   2
   1   1  -9 3389.43 647.747   1
   1   1  -8 6418.85 793.922   1
   1  -1  -8 7755.21 768.122   2
   1  -1  -7 2282.75 400.439   2
   1   1  -7 1670.95 414.869   1
   1   1  -6 15543.1 1033.22   1
   1  -1  -6 16014.2 900.606   2
   1  -1  -5-27.6796 143.654   2
   1   1  -5-95.4181 172.835   1
  -1  -1   5 159.595 143.829   1
   1   1  -4 4930.29 505.124   1
   1  -1  -4 5117.85 436.483   2
  -1  -1   4 5801.46 482.670   1
  -1   1   4 5336.49 505.163   2
   1  -1  -3 74334.2 1715.99   2
   1   1  -3 73059.2 1842.27   1
  -1   1   3 72144.1 1717.33   2
  -1   1   3 73829.4 1778.88   3
  -1  -1   3 73143.7 1446.75   3
  -1  -1   3 73930.9 1740.23   1
   1   1  -2 846.556 276.331   2
   1  -1  -2 502.466 137.315   2
  -1   1   2 376.745 110.941   3
  -1  -1   2 382.042 87.2628   3
  -1   1   2 253.675 111.356   2
  -1  -1   2 217.768 93.5404   1
   1   1  -2 956.844 218.471   1
  -1   1   1 920.225 152.389   3
   1   1  -1 1228.55 218.018   2
  -1  -1   1 678.511 167.353   2
  -1  -1   1 942.997 117.537   3
   1   1  -1 1127.60 154.622   1
   1  -1  -1 1044.49 164.239   3
   1   1  -1 892.771 102.663   3
  -1  -1   1 1005.13 155.545   1
  -1   1   1 1048.96 215.833   2
  -1   1   0 425623. 5878.36   3
   1   1   0 409497. 5762.54   3
   1   1   0 422250. 5448.36   1
   1   1   0 423992. 6225.09   2
  -1  -1   0 426149. 6261.59   2
   1  -1   0 425241. 5827.33   3
  -1  -1  -1 992800. 13322.0   2
  -1   1  -1 999999. 12799.3   3
   1   1   1 992069. 13343.1   2
   1  -1   1 984932. 12777.1   3
   1   1   2 95808.4 1613.81   1
  -1   1  -2 95326.0 2348.53   1
   1   1   2 95515.5 2342.94   2
  -1  -1  -2 94567.3 2330.08   2
   1   1   3 27683.7 801.534   1
   1   1   3 29348.8 1250.50   2
  -1   1  -3 25018.4 1196.53   1
   1  -1   3 27665.9 1188.09   1
  -1  -1  -3 27455.8 1233.15   2
  -1   1  -4 1074.68 273.680   1
   1   1   4 985.450 184.894   1
  -1  -1  -4 1538.70 368.705   2
   1   1   5 115044. 2407.09   1
  -1   1  -5 108232. 2967.98   1
  -1  -1  -5 106741. 3005.03   2
  -1  -1  -6 26292.7 1470.28   2
   1   1   6 27085.9 1134.18   1
  -1   1  -6 25392.8 1418.16   1
  -1  -1  -6 26735.2 1221.69   1
  -1   1  -7 15187.3 1168.66   1
  -1  -1  -7 16170.0 1238.19   2
  -1  -1  -7 17106.1 1077.52   1
   1   1   7 18113.6 1002.02   1
  -1  -1  -8 21499.2 1496.26   2
  -1   1  -8 22052.4 1513.47   1
  -1  -1  -8 21477.9 1292.42   1
  -1  -1  -9 3890.41 641.193   1
  -1  -1  -9 6003.84 881.012   2
  -1   1  -9 4193.69 753.409   1
  -1   1 -10 23975.3 1741.30   1
  -1  -1 -10 19198.9 1594.49   2
  -1  -1 -10 20988.4 1536.16   1
  -1  -1 -11-10.0591 412.300   1
  -1  -1 -11 729.483 677.132   2
  -1   1 -11 336.597 397.912   1
  -1  -1 -12 488.591 463.877   1
  -1   1 -12 580.777 498.497   1
  -1  -1 -13 2740.92 870.995   2
  -1   1 -13 4088.42 940.322   1
  -1  -1 -13 3660.72 866.308   1
  -1  -1 -14 4239.25 1040.48   2
  -1   1 -14 4651.94 998.147   1
  -1  -1 -15 3590.28 1013.60   2
  -1   1 -15 2458.11 766.006   1
  -1   1 -16 1618.70 718.047   1
  -1  -1 -16 620.100 779.504   2
  -1  -1 -17-83.7324 685.185   2
  -1   1 -17 28.0112 749.372   1
  -1   1 -18-1495.47 1067.91   1
  -1  -1 -18 273.893 726.136   2
  -1  -1 -19-715.393 775.050   2
   1   2 -18 994.086 681.926   1
   1  -2 -18 3169.41 915.160   2
   1   2 -17 12098.8 1808.59   1
   1  -2 -17 12284.9 1551.92   2
   1  -2 -16 14133.2 1582.40   2
   1   2 -16 14108.2 1855.69   1
   1   2 -15 4293.59 982.347   1
   1  -2 -15 5071.88 935.679   2
   1  -2 -14 1438.53 596.114   2
   1   2 -14-438.328 630.887   1
   1   2 -13 1393.79 520.603   1
   1  -2 -13 1286.97 523.047   2
   1  -2 -12 977.865 419.286   2
   1   2 -12 838.097 502.597   1
   1   2 -11 1977.36 683.825   1
   1  -2 -11 2107.70 592.279   2
   1   2 -10 1594.14 522.887   1
   1  -2 -10 1644.74 480.707   2
   1   2  -9 2000.86 578.074   1
   1  -2  -9 1174.65 367.957   2
   1  -2  -8 5174.42 652.814   2
   1   2  -8 6224.03 863.294   1
   1   2  -7 1461.59 405.439   1
   1  -2  -7 2173.78 431.318   2
   1  -2  -6 15392.5 1069.37   2
  -1   2   6 14042.5 931.072   3
   1   2  -6 16197.0 1167.05   1
  -1   2   5 3625.19 434.788   3
   1  -2  -5 3636.13 527.744   2
   1   2  -5 4335.47 573.278   1
  -1  -2   5 4244.11 316.011   3
   1   2  -4 20327.6 1142.97   1
   1  -2  -4 20411.1 1171.95   2
  -1   2   4 20468.8 975.196   3
  -1  -2   3 1992.02 326.739   1
   1   2  -3 1976.95 343.127   1
   1  -2  -3 2052.22 364.488   2
  -1   2   3 2494.14 318.296   3
  -1   2   2 6186.64 475.018   3
   1   2  -2 5515.20 519.302   1
  -1   2   1 16936.5 722.198   3
   1   2  -1 18936.7 894.777   1
   1   2   0 76.0925 45.6508   3
   1   2   0 288.959 122.794   1
   1  -2   0 245.090 92.0081   3
  -1  -2   0 280.275 166.422   2
  -1   2   0 239.650 84.3910   3
  -1   2  -1 7133.57 696.781   1
  -1  -2  -1 6564.14 684.366   2
   1  -2   1 7844.85 443.028   3
   1   2   1 6795.86 501.080   1
  -1   2  -1 8114.49 467.260   3
  -1  -2  -2 166614. 4018.47   2
  -1   2  -2 170942. 4005.10   1
   1  -2   2 172216. 2868.03   3
  -1  -2  -3 201479. 4607.85   2
  -1   2  -3 205202. 4657.32   1
   1  -2   3 210536. 3475.80   3
  -1  -2  -4 86499.3 2850.40   2
  -1   2  -4 87803.8 2872.03   1
   1  -2   4 91100.3 2073.93   3
  -1   2  -5 4763.98 680.347   1
   1  -2   5 5145.55 462.203   3
  -1  -2  -5 4467.55 647.385   2
   1  -2   6 7640.61 650.002   3
  -1   2  -6 6973.29 884.594   1
  -1  -2  -6 7254.29 843.593   2
   1   2   6 8051.98 641.724   1
  -1  -2  -7 578.681 353.432   2
   1   2   7 847.083 257.505   1
  -1   2  -7 742.267 326.214   1
  -1  -2  -8 977.040 457.465   2
  -1   2  -8 390.536 259.794   1
  -1  -2  -9 513.039 457.536   2
  -1   2  -9 193.835 387.381   1
  -1  -2 -10 1123.48 521.462   2
  -1   2 -10 1252.95 527.705   1
  -1   2 -11 292.400 395.015   1
  -1  -2 -11-519.552 513.903   2
  -1   2 -12 5438.36 1064.00   1
  -1  -2 -12 5736.07 1073.06   2
  -1  -2 -13 795.260 525.375   2
  -1   2 -13 766.130 608.902   1
  -1  -2 -14 313.451 487.183   2
  -1   2 -14-160.973 418.758   1
  -1  -2 -15-365.707 512.729   2
  -1   2 -15 6.30606 593.082   1
  -1  -2 -16-513.918 709.503   2
  -1   2 -16 537.697 523.413   1
  -1  -2 -17 433.606 617.932   2
  -1   2 -17 550.144 658.781   1
  -1  -2 -18 640.305 544.130   2
   1  -3 -17 711.463 541.352   2
   1   3 -16 269.777 675.349   1
   1  -3 -16 554.702 451.086   2
  -1   3  16 639.975 337.691   3
   1   3 -15-120.196 646.724   1
  -1   3  15-43.6533 209.180   3
   1  -3 -15 214.787 247.242   2
   1  -3 -14-57.9827 341.580   2
  -1   3  14 569.078 358.397   3
   1   3 -14 641.667 595.665   1
  -1   3  13-351.895 286.056   3
   1   3 -13 252.152 442.549   1
   1  -3 -13 562.849 364.218   2
   1  -3 -12-313.656 330.133   2
   1   3 -12-91.0075 376.757   1
  -1   3  12 438.430 253.961   3
   1  -3 -11 5842.46 860.845   2
  -1   3  11 4586.86 719.391   3
   1   3 -11 6426.35 1135.82   1
  -1   3  10 3599.70 600.101   3
   1   3 -10 5338.34 970.444   1
   1  -3 -10 3406.40 651.207   2
  -1   3   9 2676.20 500.580   3
   1  -3  -9 2199.16 570.087   2
   1   3  -9 3045.49 735.176   1
   1   3  -8 1526.93 537.044   1
  -1   3   8 1277.95 322.748   3
   1  -3  -8 628.195 280.935   2
  -1   3   7 1827.02 374.316   3
   1   3  -7 2097.80 576.500   1
   1  -3  -7 1529.03 432.552   2
   1  -3  -6 236.433 257.082   2
  -1   3   6 366.399 177.426   3
   1   3  -6 46.6129 254.284   1
  -1   3   5 1519.11 307.522   3
   1   3  -5 1920.60 472.014   1
  -1   3   4 12435.8 827.780   3
   1   3  -4 12427.1 1066.71   1
  -1   3   3 30077.3 1214.96   3
   1   3  -3 31877.3 1657.84   1
   1   3  -2 71.7250 164.021   1
  -1   3   2 446.193 133.919   3
   1   3  -1 5257.65 607.724   1
  -1   3   1 3656.95 328.859   3
   1   3   0 548.674 214.372   1
  -1   3   0 634.666 256.097   1
   1   3   1 911.606 282.856   1
  -1   3  -1 771.474 282.617   1
   1   3   2 8571.06 752.688   1
  -1   3  -2 7266.20 870.592   1
  -1  -3  -2 6552.97 841.642   2
   1   3   2 5937.56 393.911   3
  -1   3  -3 1889.87 459.588   1
  -1  -3  -3 1184.04 416.695   2
   1  -3   3 1478.67 163.969   3
  -1  -3  -4 10992.0 1169.46   2
  -1   3  -4 13067.2 1283.99   1
  -1  -3  -5 11021.9 1204.23   2
  -1   3  -5 11414.2 1216.80   1
  -1   3  -6 17772.5 1538.52   1
  -1  -3  -6 15762.7 1419.70   2
  -1   3  -7-80.0143 275.018   1
  -1  -3  -7-378.238 336.439   2
  -1  -3  -8 275.191 239.151   2
  -1   3  -8 875.203 432.345   1
  -1  -3  -9 1183.31 436.155   2
  -1   3  -9 690.745 409.112   1
  -1   3 -10 1933.19 706.427   1
  -1  -3 -10 1612.12 583.114   2
  -1  -3 -11 713.130 299.203   2
  -1   3 -11 628.715 386.633   1
  -1   3 -12-160.381 535.266   1
  -1  -3 -12 711.768 456.047   2
  -1  -3 -13 405.639 405.194   2
  -1   3 -13-1290.52 787.683   1
  -1  -3 -14 246.807 343.277   2
  -1   3 -14 1300.54 717.064   1
  -1  -3 -15-497.834 721.240   2
   1  -4 -14 188.536 269.286   2
   1   4 -13 697.421 535.169   1
   1  -4 -13 2071.43 676.512   2
   1   4 -12 147.253 479.013   1
   1  -4 -12 1233.33 478.318   2
   1   4 -11-466.616 387.612   1
   1  -4 -11 22.3591 300.266   2
   1  -4 -10 912.459 378.615   2
   1   4 -10 1842.02 704.467   1
   1   4  -9 3285.11 905.023   1
   1   4  -8 198.614 446.543   1
   1   4  -7-414.007 402.935   1
   1   4  -6 241.821 370.577   1
   1   4  -5 5497.90 916.011   1
   1   4  -4 4282.37 788.566   1
  -1   4   2 6089.53 824.179   1
  -1   4   1 5780.22 827.174   1
  -1   4   0 139.333 135.319   1
  -1   4  -1-354.635 288.188   1
  -1   4  -2-40.1481 222.474   1
  -1   4  -3 27.8024 215.439   1
  -1   4  -4 320.101 316.046   1
  -1   4  -5 3472.33 774.806   1
  -1  -4  -5 3437.20 757.158   2
  -1  -4  -6-41.1955 205.356   2
  -1   4  -6 792.920 495.122   1
  -1  -4  -7 577.747 331.763   2
  -1   4  -7 980.945 457.602   1
  -1   4  -8 41.0657 393.814   1
  -1  -4  -8-365.505 420.777   2
  -1   4  -9 451.817 449.801   1
  -1  -4  -9 544.599 233.047   2
  -1  -4 -10-341.678 440.427   2
  -1   4 -10-486.433 571.663   1
  -1   4 -11 401.260 460.764   1
  -1  -4 -11-568.720 507.462   2
  -2   0   7-95.3138 123.993   3
  -2   0   6 3076.43 402.301   3
  -2   0   5 71.7796 82.0044   3
  -2   0   5-13.1510 215.159   1
  -2   0   4 73767.8 1968.77   3
   2   0  -4 73783.5 1916.81   3
  -2   0   3-3.86610 94.4052   3
   2   0  -3 54.6205 79.5243   3
   2   0  -2 108876. 2272.22   3
  -2   0   2 103118. 2221.87   3
   2   0  -1-32.8866 75.6915   3
  -2   0   1 45.9434 108.655   3
  -2   0   0 160337. 3102.69   3
   2   0   0 170208. 3100.97   3
  -2   0  -1-44.2131 111.664   3
   2   0   1 66.1805 85.0096   3
   2   0   2 83540.2 2108.87   3
  -2   0  -2 80093.5 1871.09   1
  -2   0  -3 100.876 110.010   1
  -2   0  -4 30370.0 1209.27   1
   2   0   4 31278.3 1203.08   1
  -2   0  -5-70.0146 141.850   1
   2   0   5-53.8838 116.285   1
  -2   0  -6 15162.3 1003.11   1
  -2   0  -7-18.5157 209.965   1
  -2   0  -8 3717.34 589.642   1
  -2   0  -9-430.865 317.305   1
  -2   0 -10 89.3056 298.989   1
  -2   0 -11 472.297 389.437   1
  -2   0 -12 106.446 395.065   1
  -2   0 -13-64.2844 400.087   1
  -2   0 -14 10963.8 1344.07   1
  -2   0 -15-637.293 503.038   1
  -2   0 -16 2308.69 751.449   1
  -2   0 -17 306.531 550.177   1
  -2   0 -18 502.634 511.546   1
  -2   0 -19-243.664 517.383   1
   2   1 -19 8485.16 1549.78   1
   2   1 -18 333.298 629.625   1
   2   1 -17-21.5740 588.363   1
   2  -1 -17 628.888 523.485   2
   2  -1 -16 13903.5 1502.90   2
   2   1 -16 13935.1 1682.50   1
   2   1 -15 9849.45 1420.71   1
   2  -1 -15 12710.2 1390.55   2
   2   1 -14 4275.28 979.013   1
   2  -1 -14 5553.93 908.267   2
   2   1 -13 10615.4 1322.11   1
   2  -1 -13 11892.7 1176.91   2
   2   1 -12 36420.8 2336.50   1
   2  -1 -12 35177.8 1893.56   2
   2   1 -11 27555.3 1926.68   1
   2  -1 -11 23897.4 1416.35   2
   2  -1 -10 9464.25 843.977   2
   2   1 -10 10079.6 1142.60   1
   2  -1  -9 8946.94 773.301   2
   2   1  -9 9510.78 1015.73   1
   2   1  -8 8809.16 976.781   1
  -2  -1   8 8787.60 728.816   3
   2  -1  -8 9554.65 713.435   2
  -2   1   8 8998.40 828.050   3
  -2   1   7 28052.7 1404.92   3
  -2  -1   7 29626.4 1257.73   3
   2  -1  -7 27163.8 1103.41   2
   2   1  -7 26413.0 1506.45   1
   2  -1  -6 51096.2 1445.23   2
   2   1  -6 48311.5 1914.54   1
  -2  -1   6 49618.8 1589.75   3
  -2   1   6 45495.7 1752.31   3
  -2  -1   5 25499.9 1044.26   3
  -2  -1   5 23072.4 1107.74   1
   2   1  -5 23364.3 1192.26   1
   2  -1  -5 23680.4 887.925   2
  -2   1   5 23564.4 946.983   2
  -2   1   5 25451.5 1193.40   3
  -2   1   4 250.677 140.957   2
   2   1  -4 626.890 234.297   1
   2   1  -4 320.251 158.931   2
  -2  -1   4 357.925 121.793   3
  -2   1   4 388.520 160.769   3
  -2  -1   4 227.301 149.178   1
   2  -1  -4 411.200 121.793   2
   2  -1  -4 78.8406 90.4123   3
   2   1  -3 5570.39 476.639   1
  -2  -1   3 4797.49 385.532   3
   2   1  -3 5663.40 486.673   2
  -2   1   3 4955.06 348.945   2
  -2  -1   3 5325.09 427.511   1
   2  -1  -3 4417.66 456.557   3
   2   1  -3 4724.73 389.713   3
  -2   1   3 4705.13 462.281   3
  -2   1   2 3636.96 390.697   3
  -2  -1   2 3572.57 308.063   1
  -2  -1   2 3269.49 333.080   2
   2   1  -2 3109.86 344.608   2
   2   1  -2 3587.20 339.451   1
  -2   1   2 3953.35 342.800   2
  -2  -1   2 3285.98 317.444   3
   2   1  -2 3648.57 329.205   3
   2  -1  -2 3593.94 384.223   3
   2   1  -1 7153.32 452.228   3
  -2  -1   1 7768.95 503.825   3
  -2   1   1 6906.46 520.588   3
  -2  -1   1 7078.98 525.044   2
   2   1  -1 7493.91 547.928   2
   2  -1  -1 7631.81 541.948   3
  -2  -1   1 7527.75 345.595   1
  -2  -1   0 5543.20 491.905   2
   2   1   0 5906.36 515.623   2
  -2   1   0 5620.16 481.884   3
   2   1   0 5366.68 421.231   3
   2  -1   0 5429.20 448.138   3
   2  -1   1 42730.0 1400.83   3
  -2  -1  -1 43864.0 1543.06   2
   2   1   1 43292.4 1532.24   2
   2   1   1 47936.1 1445.08   3
  -2   1  -1 43061.3 1461.13   3
  -2  -1  -2 5512.76 597.704   2
  -2   1  -2 5476.92 559.320   1
   2  -1   2 5991.35 525.529   3
   2   1   2 5947.10 589.239   2
  -2  -1  -3 6579.10 360.493   1
  -2  -1  -3 5868.32 645.946   2
  -2   1  -3 6746.55 658.245   1
   2   1   3 7126.08 353.493   1
   2  -1   3 8107.74 636.560   3
  -2  -1  -4 153.370 330.297   2
  -2  -1  -4 118.995 141.795   1
  -2   1  -4 28.8064 146.496   1
   2  -1   4-77.7756 139.253   3
   2   1   4 26.8101 70.1532   1
  -2  -1  -5 41856.2 1364.97   1
   2   1   5 40485.5 1205.30   1
  -2   1  -5 40432.8 1827.77   1
  -2  -1  -5 40044.7 1902.07   2
   2   1   6 575.787 143.927   1
  -2   1  -6 669.158 301.713   1
  -2  -1  -6 1052.05 457.626   2
  -2  -1  -6 922.847 244.856   1
  -2   1  -7 32128.1 1766.15   1
   2   1   7 30131.1 1232.45   1
  -2  -1  -7 26191.2 1747.74   2
  -2  -1  -7 29223.6 1419.97   1
  -2  -1  -8 7872.84 1065.99   2
  -2  -1  -8 9122.20 851.045   1
  -2   1  -9 34069.0 2046.13   1
  -2  -1  -9 28015.9 1885.16   2
  -2  -1  -9 30539.6 1712.87   1
  -2  -1 -10-457.734 561.606   2
  -2   1 -10-380.936 390.572   1
  -2  -1 -10 250.111 374.439   1
  -2   1 -11 632.785 492.303   1
  -2  -1 -11 297.034 333.340   1
  -2   1 -12 6683.49 1057.21   1
  -2  -1 -12 5915.56 956.518   1
  -2  -1 -12 5131.67 1031.73   2
  -2  -1 -13 99.9956 411.507   1
  -2  -1 -13 179.981 661.909   2
  -2   1 -13-874.599 591.020   1
  -2  -1 -14-219.313 587.178   2
  -2  -1 -14 503.570 484.535   1
  -2   1 -14-313.437 481.450   1
  -2   1 -15-398.436 649.388   1
  -2  -1 -15-115.099 564.931   1
  -2  -1 -15-726.228 827.114   2
  -2   1 -16 2663.24 749.951   1
  -2  -1 -16 2401.92 726.544   1
  -2  -1 -16 2954.65 1107.19   2
  -2   1 -17 3394.97 947.981   1
  -2  -1 -17 1523.70 827.488   2
  -2  -1 -18-842.778 889.614   2
  -2   1 -18 161.276 618.254   1
  -2  -2  19-258.988 476.278   3
  -2   2  18 1297.87 447.580   3
  -2  -2  18 942.898 421.362   3
   2   2 -18 803.405 572.436   1
  -2  -2  17 3681.83 728.654   3
  -2   2  17 4571.40 984.868   3
   2  -2 -16 34.7886 321.247   2
   2   2 -16 1126.96 748.165   1
  -2   2  16 774.879 406.855   3
  -2  -2  16-9.14449 195.106   3
  -2  -2  15 275.097 243.472   3
  -2   2  15 58.4720 214.685   3
   2  -2 -15-71.4745 277.351   2
   2  -2 -14 1117.13 428.731   2
  -2  -2  14 665.897 277.670   3
  -2   2  14 897.283 397.772   3
   2  -2 -13 777.994 262.034   2
  -2  -2  13 1020.44 311.870   3
  -2   2  13 1130.28 406.089   3
   2   2 -13 907.827 552.312   1
  -2  -2  12 109.783 130.877   3
  -2   2  12 163.532 144.000   3
   2  -2 -12 5.73232 232.328   2
   2   2 -12-89.5084 384.124   1
  -2  -2  11 1236.05 328.493   3
  -2   2  11 1117.52 349.824   3
   2  -2 -11 986.156 358.927   2
   2   2 -11 1755.93 571.975   1
   2   2 -10 3557.31 752.485   1
  -2   2  10 3976.71 645.079   3
  -2  -2  10 3560.34 491.101   3
   2  -2 -10 4532.67 632.857   2
   2   2  -9 33616.2 1973.38   1
   2  -2  -9 32906.3 1644.78   2
  -2  -2   9 33183.7 1467.25   3
  -2   2   9 32021.6 1735.73   3
   2   2  -8 1867.79 533.804   1
  -2  -2   8 1510.22 272.703   3
  -2   2   8 1703.50 386.329   3
   2  -2  -8 2046.07 426.019   2
  -2  -2   7 178.866 111.785   3
   2   2  -7 346.729 323.995   1
  -2   2   7 141.992 136.834   3
   2  -2  -7 275.488 190.299   2
   2   2  -6 6559.31 728.524   1
   2  -2  -6 7176.87 713.476   2
  -2   2   6 6707.78 678.050   3
  -2  -2   6 8329.17 565.020   3
   2   2  -5 723.699 285.449   1
  -2  -2   5 863.245 156.472   3
  -2   2   5 1011.70 259.465   3
   2  -2  -5 677.213 210.399   2
  -2   2   4 23238.0 1176.55   3
  -2  -2   4 20420.2 1043.36   1
  -2  -2   4 19546.3 704.360   3
   2   2  -4 22641.5 1147.67   1
   2   2  -3 4842.11 481.658   1
  -2   2   3 4662.47 496.057   3
  -2  -2   3 3889.92 277.075   3
  -2  -2   3 3985.13 424.994   1
   2   2  -2 35993.1 929.158   3
   2   2  -2 34325.3 1163.22   1
   2  -2  -2 35287.7 1351.95   3
  -2   2   2 36109.5 1369.99   3
   2   2  -1 25471.0 851.075   1
  -2  -2   1 22548.1 1260.10   2
   2   2  -1 23696.1 773.926   3
  -2   2   1 26042.2 1116.83   3
   2  -2  -1 24903.7 1090.02   3
   2   2   0 15192.3 671.367   3
   2   2   0 14135.6 531.191   1
  -2   2   0 16252.6 866.677   3
   2  -2   0 16224.9 841.990   3
  -2  -2   0 15076.6 1063.34   2
  -2   2  -1 60342.2 1771.92   3
   2  -2   1 59469.6 1697.54   3
  -2  -2  -1 60001.9 2268.26   2
   2   2   1 62233.1 1704.80   3
   2  -2   2 92334.5 2197.59   3
  -2  -2  -2 99574.6 3017.44   2
  -2   2  -2 94973.0 2957.06   1
   2  -2   3 780.165 212.271   3
  -2   2  -3 482.566 226.391   1
  -2  -2  -3 1121.00 388.395   2
  -2   2  -4 1116.58 362.202   1
   2  -2   4 1518.72 297.234   3
   2   2   4 1308.86 155.751   1
  -2  -2  -4 1859.33 447.227   2
  -2  -2  -5 340.078 260.278   2
   2   2   5 314.272 110.568   1
  -2   2  -5 408.762 276.177   1
  -2   2  -6 1319.33 380.680   1
   2   2   6 923.712 184.565   1
  -2  -2  -6 629.143 378.954   2
  -2   2  -7 140.358 240.729   1
  -2  -2  -7 146.312 354.876   2
   2   2   7 209.812 112.515   1
  -2  -2  -8 2017.73 662.632   2
  -2   2  -8 1373.06 512.558   1
  -2  -2  -9 5715.98 955.704   2
  -2   2  -9 5806.40 933.434   1
  -2   2 -10 20260.0 1838.44   1
  -2  -2 -10 18741.8 1758.00   2
  -2  -2 -11 5407.89 1000.17   2
  -2   2 -11 4395.73 907.682   1
  -2  -2 -12 653.618 532.924   2
  -2   2 -12-718.134 397.150   1
  -2  -2 -13 730.227 475.205   2
  -2   2 -13 435.928 476.379   1
  -2  -2 -14 1093.93 649.155   2
  -2   2 -14 1324.47 631.419   1
  -2  -2 -15-407.995 730.733   2
  -2   2 -15-151.077 500.000   1
  -2  -2 -16-19.1978 605.127   2
  -2   2 -16-97.9163 582.477   1
  -2   3  16 328.753 259.566   3
   2   3 -16 1344.92 623.857   1
  -2   3  15-81.4942 277.743   3
   2   3 -15 316.737 620.906   1
  -2   3  14-9.41891 184.227   3
   2  -3 -14 54.0384 285.830   2
   2   3 -14-483.701 564.597   1
   2   3 -13 568.903 643.672   1
  -2   3  13 109.264 147.975   3
   2  -3 -13 703.298 362.880   2
  -2   3  12 2407.26 563.678   3
   2  -3 -12 2332.02 556.514   2
   2   3 -12 1786.90 651.267   1
  -2   3  11 1811.86 493.031   3
   2  -3 -11 1465.00 433.800   2
   2   3 -11 1500.62 546.334   1
  -2   3  10-152.530 266.923   3
   2  -3 -10 288.698 210.361   2
   2   3 -10 372.336 326.915   1
  -2   3   9 577.702 245.469   3
   2  -3  -9 255.282 195.431   2
   2   3  -8 125.731 282.703   1
   2  -3  -8 628.311 306.329   2
  -2   3   8 839.972 283.038   3
   2   3  -7 1108.93 415.098   1
  -2   3   7 821.709 260.524   3
  -2   3   6 656.257 271.385   3
   2   3  -6 645.978 370.795   1
  -2   3   5 2036.90 390.268   3
   2   3  -5 2524.13 451.766   1
   2   3  -4 2755.89 456.039   1
  -2   3   4 2011.32 357.907   3
  -2   3   3 16263.4 966.530   3
   2   3  -3 15932.4 1029.54   1
  -2   3   2 17623.2 982.087   3
   2   3  -2 19156.8 1053.05   1
  -2   3   1 4066.79 447.437   3
   2   3  -1 4395.95 455.055   1
   2   3   0 2596.39 333.228   1
  -2   3   0 2268.54 310.789   3
   2   3   1-22.6765 89.6130   1
  -2   3  -1 13.3765 137.358   1
  -2  -3  -1-247.644 200.061   2
   2  -3   1-24.9786 96.3974   3
  -2   3  -2 6040.33 858.657   1
  -2  -3  -2 7030.93 965.287   2
  -2  -3  -3 39877.5 2270.11   2
  -2   3  -3 41911.4 2247.91   1
  -2  -3  -4 26876.7 1887.99   2
  -2   3  -4 28502.1 1899.08   1
  -2  -3  -5 53001.6 2692.81   2
  -2   3  -5 60680.4 2884.58   1
  -2   3  -6 5966.85 956.466   1
  -2  -3  -6 5028.31 877.359   2
  -2   3  -7 378.372 267.231   1
  -2  -3  -7-665.304 509.338   2
  -2   3  -8 328.006 330.464   1
  -2  -3  -8 109.260 316.195   2
  -2   3  -9 1309.07 527.739   1
  -2  -3  -9 51.7747 288.786   2
  -2  -3 -10 115.753 441.008   2
  -2   3 -10-357.380 455.280   1
  -2  -3 -11 291.170 361.185   2
  -2   3 -11-319.488 448.635   1
  -2  -3 -12 4863.61 1063.02   2
  -2   3 -12 2584.84 905.698   1
  -2   3 -13 2213.26 934.875   1
  -2  -3 -13 875.058 442.618   2
  -2  -3 -14-34.4799 373.083   2
   2   4 -14-66.2157 595.696   1
   2   4 -13-678.540 761.079   1
   2   4 -12-1114.46 779.147   1
   2   4 -11 449.279 468.956   1
   2   4 -10-125.775 381.426   1
   2   4  -9-1329.86 572.815   1
  -2   4   1 134.274 131.696   1
  -2   4   0 228.026 170.482   1
  -2   4  -1-83.6790 297.716   1
  -2   4  -2 2443.05 594.253   1
  -2   4  -3 18109.0 1717.28   1
  -2   4  -4 22989.2 1954.75   1
  -2  -4  -4 22983.0 1952.39   2
  -2   4  -5 236.100 281.491   1
  -2  -4  -5 700.613 400.469   2
  -2  -4  -6 10315.3 1369.13   2
  -2   4  -6 12855.8 1501.57   1
  -2   4  -7 11243.0 1478.26   1
  -2  -4  -7 10331.6 1403.68   2
  -2   4  -8-592.718 421.444   1
  -2  -4  -8 61.3424 298.355   2
  -2   4  -9 283.858 374.113   1
  -2  -4  -9 690.861 391.653   2
  -2  -4 -10-167.624 340.214   2
  -2   4 -10 80.2687 408.020   1
  -2   5  -3 1319.50 537.329   1
  -2   5  -4-144.338 398.750   1
  -2   5  -5-1268.58 574.685   1
  -3   0  19-881.889 452.907   3
  -3   0  18 2580.65 720.247   3
  -3   0  17-64.7422 253.725   3
  -3   0  16 103.541 141.938   3
  -3   0  15-135.153 249.759   3
  -3   0  14 18758.0 1612.45   3
  -3   0  13 152.018 144.788   3
  -3   0  12 1496.65 424.191   3
  -3   0  11 7.54935 100.401   3
  -3   0  10 5876.09 720.957   3
  -3   0   9 74.9669 129.826   3
  -3   0   8 67105.9 2401.77   3
  -3   0   7 2.30224 109.605   3
  -3   0   6 268184. 5221.42   3
  -3   0   5-6.33783 88.8016   3
  -3   0   4 25216.3 1199.38   3
  -3   0   3 106.209 136.749   3
   3   0  -3 144.794 96.0299   3
  -3   0   2 84908.4 2287.74   3
  -3   0   2 91359.1 1650.40   2
   3   0  -2 88867.8 2316.50   3
  -3   0   1 51.9578 91.2443   3
   3   0  -1-20.3043 88.9097   3
  -3   0   0 23321.1 1173.17   3
   3   0   0 22969.7 1115.14   3
  -3   0  -1-115.393 151.938   3
  -3   0  -2 302595. 5179.31   1
  -3   0  -3-66.7690 126.756   1
  -3   0  -4 1842.10 336.080   1
  -3   0  -5-40.9422 165.398   1
  -3   0  -6 42502.8 1778.03   1
  -3   0  -7-207.011 248.399   1
  -3   0  -8 4511.79 664.391   1
  -3   0  -9-329.428 375.808   1
  -3   0 -10 2572.61 600.401   1
  -3   0 -11-572.724 523.171   1
  -3   0 -12 912.298 429.234   1
  -3   0 -13-865.405 544.640   1
  -3   0 -14 212.008 424.646   1
  -3   0 -15 346.159 409.126   1
  -3   0 -16 2276.90 785.544   1
  -3   0 -17-179.396 565.061   1
  -3   0 -18 1270.57 674.671   1
  -3  -1  20-109.758 331.584   3
  -3  -1  19 699.351 385.123   3
  -3   1  19 587.052 346.499   3
  -3  -1  18-39.3457 267.248   3
  -3   1  18 485.262 263.091   3
  -3  -1  17 2240.06 581.171   3
  -3   1  17 1530.02 596.086   3
  -3  -1  16 764.407 313.510   3
  -3   1  16 1631.30 578.313   3
   3  -1 -15 1027.46 339.614   2
  -3  -1  15 941.356 335.239   3
  -3   1  15 1885.21 576.050   3
   3   1 -14 9237.60 1376.26   1
   3  -1 -14 10235.9 993.674   2
  -3  -1  14 9967.11 1097.61   3
  -3   1  14 10692.1 1262.14   3
   3   1 -13 43496.1 2690.24   1
   3  -1 -13 43774.3 1903.42   2
  -3  -1  13 42319.3 2222.29   3
  -3   1  13 44403.7 2522.90   3
   3   1 -12 15276.5 1588.15   1
   3  -1 -12 16580.5 1093.76   2
  -3  -1  12 16093.4 1277.62   3
  -3   1  12 17645.4 1496.50   3
   3   1 -11 22474.9 1815.13   1
   3  -1 -11 24409.7 1220.15   2
  -3  -1  11 24734.2 1511.25   3
  -3   1  11 26640.1 1735.24   3
   3   1 -10 2344.69 614.856   1
  -3  -1  10 1307.82 304.384   3
  -3   1  10 2264.08 490.304   3
   3  -1 -10 1484.92 317.573   2
   3  -1  -9 33599.8 1212.25   2
   3   1  -9 31437.9 1915.84   1
  -3   1   9 28771.8 1663.76   3
  -3  -1   9 29315.3 1503.83   3
   3  -1  -8 13835.1 698.087   2
   3   1  -8 10847.3 1107.72   1
  -3  -1   8 11702.9 904.924   3
  -3   1   8 12078.6 1028.52   3
   3  -1  -7 13250.6 632.023   2
  -3  -1   7 12062.0 878.826   3
  -3   1   7 12133.4 974.330   3
   3   1  -6 7542.23 644.268   2
  -3  -1   6 7912.19 675.195   3
  -3   1   6 7253.34 729.297   3
  -3   1   5 2143.61 251.009   2
  -3  -1   5 2272.72 371.596   1
  -3  -1   5 1878.60 325.716   3
  -3   1   5 1803.16 351.705   3
   3   1  -5 1561.75 284.100   3
   3   1  -5 1926.40 304.105   2
   3   1  -4 77667.6 2124.60   3
  -3   1   4 77754.9 1555.50   2
   3   1  -4 76536.2 1967.76   2
  -3   1   4 75646.3 2337.21   3
  -3  -1   4 78168.8 2074.75   1
  -3  -1   4 77212.4 2097.81   3
  -3  -1   3-10.1708 89.3275   3
  -3   1   3 127.504 108.582   3
  -3  -1   3-141.289 151.687   2
   3   1  -3 67.1377 100.197   3
  -3   1   3 134.017 101.535   2
  -3  -1   3-50.0498 151.900   1
   3   1  -3-61.8905 125.738   2
  -3  -1   2-9.85367 78.4253   3
   3   1  -2 146.434 211.613   2
  -3   1   2 118.580 131.175   3
   3   1  -2 86.8315 96.5916   3
  -3  -1   2 41.0696 135.155   2
  -3  -1   2-195.465 164.285   1
  -3  -1   1 64297.9 1935.60   3
  -3  -1   1 61490.0 1418.27   1
  -3  -1   1 60274.2 1821.56   2
   3   1  -1 59315.0 1834.57   2
  -3   1   1 57899.2 1927.20   3
   3   1  -1 59252.9 1758.79   3
  -3  -1   0 96040.4 2497.71   2
   3   1   0 93882.5 2510.70   2
  -3  -1   0 96549.6 2553.42   3
  -3   1   0 93884.0 2606.94   3
   3   1   0 96184.3 2425.76   3
  -3  -1  -1 126620. 3120.42   2
  -3  -1  -1 120612. 2023.64   1
  -3   1  -1 125331. 3170.29   3
  -3  -1  -2 5989.03 690.489   2
  -3  -1  -2 6017.34 322.214   1
  -3   1  -2 6342.09 678.367   3
  -3  -1  -3 839.345 375.537   2
  -3   1  -3 766.517 251.612   1
  -3  -1  -3 756.648 134.776   1
  -3  -1  -4 3353.38 332.048   1
  -3   1  -4 3174.75 524.471   1
  -3  -1  -4 3945.70 640.737   2
  -3   1  -5 1257.25 361.087   1
  -3  -1  -5 1207.74 478.277   2
  -3  -1  -5 771.704 209.725   1
  -3  -1  -6 149.828 231.888   1
  -3  -1  -6-147.480 504.922   2
   3   1   6 79.1320 93.3599   1
  -3   1  -6 188.674 251.198   1
  -3  -1  -7 7425.51 1025.06   2
  -3  -1  -7 6477.58 667.566   1
  -3   1  -7 6128.56 819.034   1
  -3  -1  -8 2751.69 517.236   1
  -3   1  -8 3245.90 639.329   1
  -3  -1  -8 2952.66 750.203   2
  -3  -1  -9 5885.12 1042.30   2
  -3   1  -9 6901.70 969.687   1
  -3  -1  -9 5250.42 686.765   1
  -3  -1 -10 787.542 598.883   2
  -3   1 -10 1412.77 559.482   1
  -3  -1 -10 706.634 389.460   1
  -3  -1 -11 2401.16 738.800   2
  -3   1 -11 2881.40 705.731   1
  -3  -1 -11 2309.50 594.228   1
  -3  -1 -12 27.3487 649.288   2
  -3   1 -12 159.388 548.301   1
  -3  -1 -12-539.743 495.649   1
  -3  -1 -13 263.599 606.254   2
  -3   1 -13-79.1055 465.627   1
  -3  -1 -13-320.068 369.156   1
  -3  -1 -14 4333.30 1123.24   2
  -3   1 -14 4454.59 974.445   1
  -3  -1 -14 4781.12 916.073   1
  -3  -1 -15-21.0751 587.725   2
  -3   1 -15 309.798 463.035   1
  -3  -1 -15 902.376 592.916   1
  -3  -1 -16 39.7051 669.211   2
  -3  -1 -16-187.262 472.122   1
  -3   1 -16 1201.71 553.407   1
  -3   1 -17 49.2970 600.787   1
  -3  -2  19 505.219 230.695   3
  -3  -2  18 915.711 380.275   3
   3   2 -18 1203.52 713.232   1
  -3   2  18 1829.49 615.467   3
  -3  -2  17 162.874 182.070   3
  -3   2  17-513.877 403.686   3
   3   2 -17-544.390 748.360   1
  -3  -2  16 1107.84 378.105   3
  -3   2  16 1129.10 443.236   3
  -3  -2  15 262.697 164.602   3
  -3   2  15 1182.83 483.037   3
   3   2 -15 265.516 621.004   1
  -3  -2  14 840.073 308.699   3
  -3   2  14 238.546 192.754   3
   3   2 -14-55.1274 499.859   1
   3  -2 -13-191.964 171.844   2
  -3   2  13 278.962 196.844   3
  -3  -2  13 145.150 211.253   3
   3   2 -13-153.098 566.684   1
   3   2 -12 12967.2 1418.16   1
   3  -2 -12 11574.5 975.364   2
  -3  -2  12 11784.1 1054.31   3
  -3   2  12 13554.7 1304.32   3
   3   2 -11 37366.1 2367.35   1
   3  -2 -11 38305.7 1767.57   2
  -3  -2  11 35871.4 1805.04   3
  -3   2  11 35794.7 2088.09   3
   3   2 -10 34036.5 2128.68   1
   3  -2 -10 31817.8 1590.95   2
  -3  -2  10 31516.2 1601.04   3
  -3   2  10 32571.2 1896.84   3
  -3  -2   9 8351.17 768.764   3
   3  -2  -9 8847.38 809.264   2
   3   2  -9 7304.84 946.855   1
  -3   2   9 9192.99 960.239   3
  -3  -2   8 887.959 252.758   3
  -3   2   8 621.664 254.909   3
   3  -2  -8 564.801 228.226   2
   3   2  -8 930.579 360.156   1
  -3  -2   7 1391.55 280.596   3
  -3   2   7 1246.04 344.198   3
   3   2  -7 1771.38 445.434   1
  -3  -2   6 755.902 193.145   3
  -3   2   6 598.899 253.069   3
   3   2  -6 724.232 309.403   1
  -3  -2   5 804.483 187.092   3
  -3   2   5 484.252 202.821   3
   3   2  -5 822.823 304.547   1
  -3  -2   4 879.028 196.557   3
  -3   2   4 482.203 201.536   3
   3   2  -4 817.539 183.480   3
  -3  -2   4 494.989 148.683   1
   3   2  -4 875.045 270.434   1
   3   2  -3 4910.11 470.866   1
  -3  -2   3 3591.41 380.401   1
  -3  -2   3 4686.04 429.483   3
  -3   2   3 4425.47 547.772   3
   3   2  -3 3056.71 342.830   3
  -3  -2   2 42391.0 1787.96   2
  -3  -2   2 39987.6 1114.91   1
  -3   2   1 3954.04 503.497   3
  -3  -2   1 4020.61 577.251   2
   3   2  -1 4078.15 391.878   3
  -3   2   0 10780.6 845.168   3
  -3  -2   0 12348.3 1025.59   2
   3   2   0 11438.0 718.578   3
  -3   2  -1 1336.77 312.284   3
   3   2   1 1205.43 257.714   3
  -3  -2  -1 1256.22 357.642   2
  -3  -2  -2 10590.2 1003.00   2
  -3   2  -2 9555.12 992.697   1
  -3   2  -3 545.673 277.505   1
  -3  -2  -3 93.4140 332.076   2
  -3   2  -4 1077.57 337.615   1
  -3  -2  -4 700.877 355.202   2
  -3   2  -5 6778.53 917.829   1
  -3  -2  -5 7386.80 973.241   2
  -3   2  -6 74479.2 3120.47   1
  -3  -2  -6 68058.0 3004.61   2
  -3   2  -7 35072.6 2155.10   1
  -3  -2  -7 36418.8 2265.53   2
  -3   2  -8 1026.89 452.968   1
  -3  -2  -8 892.283 486.349   2
  -3  -2  -9 1852.59 639.439   2
  -3   2  -9 683.075 280.742   1
  -3  -2 -10 8574.98 1278.67   2
  -3   2 -10 8475.36 1208.29   1
  -3  -2 -11 870.537 627.571   2
  -3   2 -11 455.826 347.299   1
  -3  -2 -12-224.888 652.515   2
  -3   2 -12 979.904 512.561   1
  -3  -2 -13 624.150 694.311   2
  -3   2 -13 344.699 431.814   1
  -3  -2 -14 414.629 739.523   2
  -3   2 -14-489.261 544.487   1
  -3  -2 -15-520.463 596.502   2
  -3   2 -15-1026.17 786.543   1
  -3   3  16 506.132 342.382   3
   3   3 -16-545.925 646.588   1
   3   3 -15 3404.63 995.782   1
  -3   3  15 2177.91 625.084   3
  -3   3  14 394.523 273.816   3
   3   3 -14 34.9985 532.549   1
   3   3 -13 125.605 403.235   1
  -3   3  13-428.172 312.490   3
  -3   3  12 1088.44 365.023   3
   3  -3 -12 1313.57 418.077   2
   3   3 -12 1217.48 588.271   1
  -3   3  11 268.107 199.227   3
   3  -3 -11-40.6858 210.973   2
  -3   3  10 1653.92 421.528   3
   3   3 -10 1771.27 629.136   1
  -3   3   9 4337.19 661.215   3
   3   3  -9 4406.11 758.720   1
   3   3  -8 11329.5 1132.47   1
  -3   3   8 12011.9 1089.65   3
  -3   3   7 2555.81 528.132   3
   3   3  -7 2705.22 516.068   1
  -3   3   6-179.503 197.471   3
   3   3  -6-236.574 270.717   1
  -3   3   5 952.577 295.254   3
   3   3  -5 599.807 302.371   1
  -3   3   4 3192.10 498.133   3
   3   3  -4 2651.37 412.351   1
  -3   3   3 1145.90 311.954   3
   3   3  -3 836.496 240.748   1
  -3   3   2-16.5804 109.226   3
  -3   3   1-161.066 116.838   3
  -3   3   0 46.1203 95.6970   3
  -3  -3   0-25.6627 164.172   2
  -3  -3  -1 636.345 338.082   2
  -3   3  -1 841.766 310.060   1
  -3  -3  -2 1079.97 409.087   2
  -3   3  -2 1022.57 369.830   1
  -3  -3  -3 24041.4 1834.78   2
  -3   3  -3 20128.7 1682.62   1
  -3  -3  -4 31090.2 2093.80   2
  -3   3  -4 31816.1 2162.53   1
  -3  -3  -5 16861.4 1560.98   2
  -3   3  -5 20525.2 1730.56   1
  -3  -3  -6 7556.81 1080.31   2
  -3   3  -6 5350.18 906.906   1
  -3   3  -7 469.092 430.685   1
  -3  -3  -7-771.223 539.810   2
  -3   3  -8 3596.45 849.409   1
  -3  -3  -8 3305.50 754.901   2
  -3   3  -9 913.336 536.080   1
  -3  -3  -9 1139.48 534.384   2
  -3   3 -10 1635.89 613.766   1
  -3  -3 -10 946.093 543.343   2
  -3   3 -11 4741.48 981.768   1
  -3  -3 -11 6006.41 1182.62   2
  -3   3 -12-1064.87 786.269   1
  -3  -3 -12-178.095 527.134   2
  -3  -3 -13 1704.11 709.274   2
  -3   4   1 931.190 370.985   1
  -3   4   0-289.055 296.431   1
  -3   4  -1 4199.88 791.085   1
  -3   4  -2 5640.81 964.968   1
  -3   4  -3 464.991 333.580   1
  -3  -4  -3 328.274 341.807   2
  -3   4  -4 10105.9 1298.94   1
  -3  -4  -4 8954.74 1264.34   2
  -3  -4  -5 11540.1 1467.87   2
  -3   4  -5 11491.8 1413.91   1
  -3   4  -6 125.104 279.702   1
  -3  -4  -6 1246.27 579.255   2
  -3   4  -7-221.310 282.050   1
  -3  -4  -7 318.847 271.441   2
  -3   4  -8 999.069 572.803   1
  -3  -4  -8 639.207 527.583   2
  -3   4  -9 257.752 406.474   1
  -3   5   1 1029.21 394.380   1
  -3   5   0 345.105 243.152   1
  -3   5  -1 112.070 289.186   1
  -3   5  -2-1417.23 527.741   1
  -4   0  19 314.909 175.469   3
  -4   0  18 4772.58 963.079   3
  -4   0  17-50.0045 255.717   3
  -4   0  16 4255.46 849.662   3
  -4   0  15-12.8880 229.854   3
  -4   0  14 11902.0 1296.42   3
  -4   0  13 24.8207 191.311   3
  -4   0  12 715.907 314.141   3
  -4   0  11 1.64241 124.539   3
  -4   0  10 14334.7 1222.08   3
  -4   0   9 80.4504 191.430   3
   4   0  -8 7428.35 298.382   2
  -4   0   8 10058.0 945.660   3
  -4   0   7 9.33022 108.295   3
  -4   0   6 10935.3 918.096   3
  -4   0   5-213.524 197.518   3
  -4   0   4 171.993 140.576   3
  -4   0   3-55.1225 118.106   3
  -4   0   3 27.6161 92.4774   2
  -4   0   2 13941.2 655.744   2
  -4   0   2 12890.0 962.690   3
  -4   0   1-16.1011 116.458   3
  -4   0   0 105605. 3141.31   3
  -4   0  -1 96.1594 149.345   3
  -4   0  -3-253.968 224.110   1
  -4   0  -4 743.415 235.975   1
  -4   0  -5 146.527 138.610   1
  -4   0  -6 730.016 294.540   1
  -4   0  -7 245.414 290.754   1
  -4   0  -8 50809.5 2312.58   1
  -4   0  -9 107.217 384.015   1
  -4   0 -10 68404.4 2989.32   1
  -4   0 -11 272.953 392.151   1
  -4   0 -12 1638.03 560.957   1
  -4   0 -13-117.820 343.411   1
  -4   0 -14-854.237 615.050   1
  -4   0 -15-214.297 556.582   1
  -4   0 -16 1403.19 771.281   1
  -4   0 -17 227.111 489.676   1
  -4  -1  20 1255.55 458.788   3
  -4  -1  19 344.762 238.261   3
  -4  -1  18-5.80974 157.962   3
  -4   1  18-509.850 466.588   3
  -4  -1  17 862.985 434.736   3
  -4   1  17 494.420 357.009   3
  -4  -1  16 622.164 338.930   3
  -4   1  16 1137.66 462.087   3
  -4  -1  15 2473.89 576.148   3
  -4   1  15 3235.46 752.015   3
  -4  -1  14 472.790 208.731   3
  -4   1  14 734.800 376.826   3
  -4  -1  13 1383.36 423.152   3
  -4   1  13 1130.75 421.503   3
  -4  -1  12-19.2920 181.647   3
  -4   1  12 28.8263 202.656   3
  -4  -1  11 486.972 258.373   3
  -4   1  11 426.468 209.404   3
   4  -1 -11 1079.27 238.332   2
  -4  -1  10-157.036 194.904   3
  -4   1  10-130.293 190.337   3
   4  -1 -10-102.445 102.585   2
  -4  -1   9 15956.6 1189.75   3
   4  -1  -9 15938.1 622.821   2
   4   1  -9 16340.1 957.535   2
  -4   1   9 16407.1 1311.26   3
  -4  -1   8-144.878 174.335   3
  -4   1   8-106.452 148.474   3
   4   1  -8 173.400 121.431   2
   4   1  -7 12330.1 727.319   2
  -4  -1   7 13167.3 1003.17   3
  -4   1   7 13480.2 1114.10   3
  -4   1   6 8645.41 875.688   3
   4   1  -6 9737.12 648.062   2
  -4  -1   6 9236.56 818.043   3
   4   1  -5 52720.9 1641.92   2
  -4   1   5 50856.2 1210.95   2
  -4  -1   5 58234.8 2052.78   3
  -4   1   5 59741.2 2284.63   3
  -4   1   4 3487.02 271.061   2
  -4  -1   4 3646.97 457.451   1
  -4  -1   4 2916.48 435.582   3
  -4   1   4 3741.73 523.460   3
   4   1  -4 2917.55 413.743   2
   4   1  -3 1840.76 315.016   2
  -4  -1   3 1379.73 296.145   3
  -4   1   3 2289.45 400.190   3
  -4  -1   3 1731.77 281.996   2
  -4  -1   3 2770.52 380.031   1
  -4  -1   2 23697.6 1098.38   2
   4   1  -2 20040.6 1116.22   2
  -4  -1   2 22890.3 1271.12   3
  -4   1   2 20953.0 1275.38   3
  -4  -1   1 998.342 272.967   3
  -4   1   1 1203.57 329.380   3
  -4  -1   1 1128.14 249.034   2
  -4   1   0 11670.9 965.859   3
  -4  -1   0 11031.6 826.412   2
  -4  -1   0 11146.4 917.233   3
  -4   1  -1 1813.53 395.183   3
  -4  -1  -1 2198.01 429.574   2
  -4  -1  -2 27562.1 936.644   1
  -4   1  -2 28027.5 1658.72   3
  -4  -1  -3 75147.8 1769.11   1
  -4  -1  -3 67881.3 2529.58   2
  -4   1  -3 72611.0 2691.69   1
  -4  -1  -4 5537.72 788.968   2
  -4  -1  -4 6689.77 510.121   1
  -4   1  -4 6923.48 806.552   1
  -4  -1  -5 0.32813 419.526   2
  -4   1  -5-52.3247 240.146   1
  -4  -1  -5 114.507 161.028   1
  -4  -1  -6 16599.7 995.038   1
  -4   1  -6 16694.8 1365.22   1
  -4  -1  -6 14719.0 1380.05   2
  -4  -1  -7 85265.1 2602.76   1
  -4   1  -7 91155.8 3425.16   1
  -4  -1  -7 93882.5 3663.08   2
  -4  -1  -8 38469.3 1804.23   1
  -4   1  -8 42573.3 2361.93   1
  -4  -1  -8 41119.4 2514.96   2
  -4   1  -9 5326.31 867.895   1
  -4  -1  -9 3898.86 649.755   1
  -4  -1  -9 5005.53 938.019   2
  -4  -1 -10 861.014 477.859   1
  -4  -1 -10 517.993 554.903   2
  -4   1 -10 1024.04 370.716   1
  -4  -1 -11-11.8283 618.606   2
  -4   1 -11-215.357 382.278   1
  -4  -1 -11 831.450 475.392   1
  -4  -1 -12 2940.14 912.425   2
  -4   1 -12 2303.49 736.363   1
  -4  -1 -12 3250.86 671.561   1
  -4  -1 -13-1053.50 506.187   1
  -4  -1 -13 697.955 873.000   2
  -4   1 -13-775.441 660.408   1
  -4  -1 -14-548.136 723.858   2
  -4   1 -14 775.363 562.243   1
  -4  -1 -15 726.514 786.594   2
  -4   1 -15 1012.75 629.704   1
  -4   1 -16 1141.35 571.549   1
  -4  -2  18 1028.99 397.104   3
  -4  -2  17 665.163 357.086   3
  -4   2  17-75.7012 398.463   3
  -4  -2  16 1566.30 478.905   3
  -4   2  16 2223.76 663.678   3
  -4  -2  15 774.648 338.085   3
  -4   2  15 509.782 352.591   3
  -4  -2  14 7668.06 965.398   3
  -4   2  14 6814.22 1069.36   3
  -4  -2  13 4934.63 737.210   3
  -4   2  13 4427.28 835.117   3
  -4  -2  12 9723.05 1005.64   3
  -4   2  12 9474.56 1148.00   3
  -4  -2  11 2938.27 534.980   3
  -4   2  11 2477.32 581.037   3
  -4  -2  10 6867.12 787.478   3
  -4   2  10 5656.34 822.721   3
  -4   2   9 655.095 328.625   3
  -4  -2   9 141.258 147.565   3
  -4  -2   8 960.070 261.328   3
  -4   2   8 106.259 123.074   3
  -4   2   7 349.717 292.458   2
  -4  -2   7 420.717 173.242   3
  -4   2   7 406.742 223.983   3
  -4  -2   6 40.8645 92.2231   3
  -4   2   6-87.8068 199.439   3
  -4   2   6 268.667 177.261   2
  -4   2   5 10007.0 947.738   3
  -4  -2   5 9959.55 767.214   3
  -4  -2   4 16550.6 899.965   1
  -4  -2   4 16377.6 985.755   3
  -4   2   4 15479.9 1170.14   3
  -4  -2   3 14409.8 714.426   1
  -4  -2   3 13985.5 917.698   3
  -4   2   3 14618.4 1115.62   3
  -4   2   2 189.912 158.741   3
  -4  -2   2 379.728 99.9789   1
  -4  -2   1 4571.71 677.796   2
  -4   2   1 3928.29 567.915   3
  -4   2   0 7872.38 836.233   3
  -4  -2   0 6443.29 773.360   2
  -4   2  -1 2178.52 445.788   3
  -4  -2  -1 2079.15 469.295   2
  -4  -2  -2 1430.96 423.129   2
  -4   2  -3 372.293 270.138   1
  -4  -2  -3 192.288 288.677   2
  -4   2  -4 3088.69 596.425   1
  -4  -2  -4 2595.78 590.858   2
  -4  -2  -5 60509.1 2866.29   2
  -4   2  -5 56848.6 2828.99   1
  -4   2  -6 11517.4 1271.68   1
  -4  -2  -6 10774.3 1270.18   2
  -4   2  -7 1996.37 566.967   1
  -4  -2  -7 2875.77 791.127   2
  -4   2  -8 13.9934 234.711   1
  -4  -2  -8-1339.29 651.396   2
  -4  -2  -9 4958.76 1044.26   2
  -4   2  -9 4138.99 879.955   1
  -4  -2 -10 699.405 576.913   2
  -4   2 -10 350.264 377.653   1
  -4  -2 -11-556.160 561.703   2
  -4   2 -11 408.754 393.067   1
  -4  -2 -12 664.098 516.732   2
  -4   2 -12 1698.56 730.002   1
  -4  -2 -13 2173.85 870.393   2
  -4   2 -13 2623.06 836.067   1
  -4  -2 -14 2887.83 1065.35   2
  -4   2 -14 3382.36 1031.23   1
   4   3 -16 820.135 483.800   1
  -4   3  16 1502.63 538.712   3
  -4   3  15 1119.86 474.935   3
   4   3 -15 682.098 715.059   1
  -4   3  14-183.651 219.862   3
   4   3 -14 459.187 569.124   1
  -4   3  13 734.580 337.349   3
   4   3 -13 951.447 649.961   1
  -4   3  12 128.923 143.458   3
   4   3 -12-191.524 463.835   1
   4   3 -11 3647.42 769.084   1
  -4   3  11 5536.86 850.281   3
   4   3 -10 11894.4 1248.31   1
  -4   3  10 10215.3 1160.72   3
   4   3  -9 32673.5 2001.69   1
  -4   3   9 34413.1 2069.13   3
  -4   3   8 1078.39 345.672   3
   4   3  -8 1340.00 455.335   1
   4   3  -7 5320.68 703.009   1
  -4   3   7 5542.89 781.891   3
  -4   3   6 2811.64 529.613   3
  -4   3   5 105.599 118.195   3
  -4   3   4 56.1959 105.728   3
  -4   3   3 252.007 166.467   3
  -4   3   2 9279.51 940.853   3
  -4   3   1 3145.64 559.355   3
  -4  -3   1 3206.31 646.832   2
  -4   3   0 486.302 266.807   3
  -4  -3   0 983.804 395.356   2
  -4  -3  -1 1387.76 474.987   2
  -4   3  -1 1340.71 472.674   1
  -4   3  -2 1364.33 468.619   1
  -4  -3  -2 2385.65 607.993   2
  -4   3  -3 955.414 406.589   1
  -4  -3  -3 382.567 352.016   2
  -4   3  -4 1381.41 473.360   1
  -4  -3  -4 835.630 461.708   2
  -4   3  -5 587.275 361.483   1
  -4  -3  -5 331.047 427.979   2
  -4   3  -6 2384.95 648.704   1
  -4  -3  -6 2117.37 672.561   2
  -4  -3  -7 185.847 324.538   2
  -4   3  -7-156.783 341.074   1
  -4   3  -8 1209.84 556.770   1
  -4  -3  -8 1595.53 660.878   2
  -4   3  -9 128.909 374.992   1
  -4  -3  -9-424.431 641.854   2
  -4   3 -10 301.337 333.103   1
  -4  -3 -10 962.960 572.447   2
  -4  -3 -11 2202.16 765.505   2
  -4   3 -11 2924.58 956.386   1
  -4   4   1 722.240 317.103   1
  -4   4   0 652.767 422.852   1
  -4   4  -1-185.208 303.037   1
  -4  -4  -2 692.063 342.218   2
  -4   4  -2 673.749 414.922   1
  -4   4  -3 995.984 364.404   1
  -4  -4  -3 1265.86 475.831   2
  -4   4  -4 449.768 311.538   1
  -4  -4  -4 399.162 267.398   2
  -4  -4  -5 447.426 357.835   2
  -4   4  -5 49.2482 212.232   1
  -4  -4  -6 469.455 440.560   2
  -4   4  -6-402.823 456.435   1
  -4   4  -7 108.874 435.092   1
  -5   0  19-417.550 418.222   3
  -5   0  18 372.062 300.627   3
  -5   0  17-275.454 275.929   3
  -5   0  16 3559.47 774.002   3
  -5   0  15 1.46045 191.870   3
  -5   0  14 2449.46 580.788   3
  -5   0  13-249.246 267.256   3
  -5   0  12 30390.7 1998.74   3
  -5   0  11-244.002 239.374   3
  -5   0  10 104.050 176.527   3
  -5   0   9-86.2149 249.388   3
  -5   0   8 29020.8 1751.10   3
  -5   0   7 46.5744 116.882   3
  -5   0   6 1452.56 384.373   3
  -5   0   5-53.0447 101.931   3
  -5   0   4 14246.7 534.575   2
  -5   0   4 12986.4 1082.32   3
  -5   0   3-39.7228 103.955   3
  -5   0   3 67.7279 133.987   2
  -5   0   2 600.067 192.699   3
  -5   0   2 370.583 191.479   2
  -5   0   1-59.3302 148.658   3
  -5   0   1-85.7429 250.605   2
  -5   0   0 227.885 204.389   3
  -5   0  -1-10.5907 148.061   3
  -5   0  -3 0.93666 136.924   1
  -5   0  -4 6246.12 716.624   1
  -5   0  -5-210.718 166.001   1
  -5   0  -6 2490.50 532.852   1
  -5   0  -7-274.550 280.681   1
  -5   0  -8 136363. 4197.54   1
  -5   0  -9 435.426 385.967   1
  -5   0 -10 6914.81 1023.09   1
  -5   0 -11 354.055 395.051   1
  -5   0 -12 3653.31 819.135   1
  -5   0 -13 84.5255 361.880   1
  -5   0 -14 543.935 427.959   1
  -5   0 -15-274.268 463.878   1
  -5  -1  19 31.1060 259.058   3
  -5  -1  18 2406.59 671.592   3
  -5   1  18 3792.43 891.799   3
  -5  -1  17-105.609 320.871   3
  -5   1  17 257.995 263.834   3
  -5  -1  16 379.221 267.687   3
  -5   1  16 13.3703 200.844   3
  -5  -1  15 2474.87 609.256   3
  -5   1  15 4264.72 908.864   3
  -5  -1  14 3942.61 737.637   3
  -5   1  14 4574.54 874.362   3
  -5  -1  13 17359.0 1503.82   3
  -5   1  13 18854.8 1716.57   3
  -5  -1  12 797.005 335.746   3
  -5   1  12 832.689 301.494   3
  -5  -1  11 1581.80 446.884   3
  -5   1  11 1540.52 440.926   3
  -5  -1  10 594.737 238.705   3
  -5   1  10 667.077 281.423   3
  -5  -1   9 2375.38 472.101   3
  -5   1   9 2446.93 549.767   3
  -5  -1   8 108.280 117.346   3
  -5   1   8 330.916 222.593   3
  -5  -1   7 2887.88 507.368   3
  -5   1   7 3348.05 588.768   3
   5   1  -7 2626.07 373.747   2
   5   1  -6 1685.04 329.876   2
  -5  -1   6 2246.08 447.826   3
  -5   1   6 2193.10 462.457   3
   5   1  -5 8765.35 695.684   2
  -5  -1   5 10160.7 929.048   3
  -5   1   5 9102.76 928.572   3
  -5  -1   4 10003.7 925.502   3
  -5  -1   4 9180.24 674.424   2
   5   1  -4 8693.09 740.967   2
  -5   1   4 9038.94 930.089   3
  -5  -1   3 1261.65 346.692   3
  -5   1   3 1938.42 412.120   3
  -5  -1   3 1401.62 289.022   2
  -5  -1   2 695.831 269.009   3
  -5   1   2 763.737 255.388   3
  -5  -1   2 845.080 253.073   2
  -5  -1   1 1643.43 366.279   3
  -5   1   1 1536.40 376.065   3
  -5  -1   1 1817.34 375.699   2
  -5  -1   0 12774.0 1131.18   3
  -5  -1   0 11775.2 932.070   2
  -5   1   0 11748.2 1120.41   3
  -5  -1  -1 122.579 294.829   2
  -5   1  -1 109.062 225.239   3
  -5  -1  -2 9701.54 927.936   2
  -5  -1  -2 9789.31 658.204   1
  -5   1  -2 10129.1 1105.50   3
  -5  -1  -3 10441.0 674.013   1
  -5  -1  -3 10875.2 1074.77   2
  -5   1  -3 9941.97 1025.97   1
  -5  -1  -4-26.5932 130.890   1
  -5   1  -4 50.3109 219.251   1
  -5  -1  -5 1005.28 563.891   2
  -5   1  -5 1562.39 455.585   1
  -5  -1  -5 1966.16 319.941   1
  -5  -1  -6 11028.0 847.647   1
  -5   1  -6 12778.0 1282.20   1
  -5  -1  -6 13445.7 1459.86   2
  -5  -1  -7 442.070 686.922   2
  -5  -1  -7 864.824 261.013   1
  -5   1  -7 835.408 402.669   1
  -5  -1  -8 2633.53 859.740   2
  -5  -1  -8 1757.01 421.246   1
  -5   1  -8 2152.44 622.471   1
  -5  -1  -9 5695.42 1075.52   2
  -5   1  -9 6936.97 1019.27   1
  -5  -1  -9 5071.88 692.015   1
  -5  -1 -10 23145.3 1572.71   1
  -5   1 -10 28916.9 2228.32   1
  -5  -1 -10 28066.0 2333.85   2
  -5   1 -11 17086.5 1807.57   1
  -5  -1 -11 17441.2 1946.33   2
  -5  -1 -12 1625.40 773.158   2
  -5   1 -12 1743.82 765.695   1
  -5  -1 -13 1781.31 882.278   2
  -5   1 -13 873.584 415.970   1
  -5   1 -14 1122.78 682.772   1
  -5   1 -15 2983.97 819.048   1
  -5  -2  17 165.496 280.506   3
  -5   2  17-57.4813 433.028   3
  -5  -2  16 2666.21 599.958   3
  -5   2  16 3755.13 887.683   3
  -5  -2  15 260.781 190.038   3
  -5   2  15 519.251 314.582   3
  -5  -2  14 6115.54 913.922   3
  -5   2  14 5567.12 989.455   3
  -5  -2  13 139.641 194.523   3
  -5   2  13-837.268 382.146   3
  -5  -2  12 2974.41 587.790   3
  -5   2  12 3512.86 734.071   3
  -5  -2  11-95.6461 178.584   3
  -5   2  11-30.8276 142.935   3
  -5  -2  10 0.30090 160.410   3
  -5   2  10 118.235 139.673   3
  -5  -2   9 1470.53 372.570   3
  -5   2   9 1887.96 498.645   3
  -5  -2   8 39753.2 1911.65   3
  -5   2   8 40436.1 2226.32   3
  -5  -2   7 26835.0 1548.83   3
  -5   2   7 25271.6 1725.63   3
  -5  -2   6 11920.0 981.373   3
  -5   2   6 11255.9 1115.91   3
  -5  -2   5 7602.39 776.902   3
  -5   2   5 8092.38 932.350   3
  -5  -2   4 7883.14 646.966   1
  -5  -2   4 8340.22 819.227   3
  -5   2   4 7956.83 925.498   3
  -5   2   3-1.26832 147.135   3
  -5  -2   3 325.632 256.310   2
  -5  -2   3-207.933 178.687   1
  -5  -2   3-104.660 122.640   3
  -5   2   2 732.499 291.478   3
  -5  -2   2 1244.30 406.475   2
  -5  -2   2 562.956 143.888   1
  -5   2   1-9.10831 137.379   3
  -5  -2   1 162.931 181.087   2
  -5   2   0 1639.37 481.132   3
  -5  -2   0 1945.50 469.559   2
  -5  -2  -1 491.327 288.189   2
  -5   2  -1 859.248 364.832   3
  -5  -2  -2 2907.42 624.367   2
  -5   2  -3 7219.63 985.540   1
  -5  -2  -3 5808.67 838.910   2
  -5  -2  -4 14632.9 1395.13   2
  -5   2  -4 15708.3 1495.28   1
  -5   2  -5 1730.72 521.515   1
  -5  -2  -5 1371.55 499.866   2
  -5   2  -6 6162.20 964.372   1
  -5  -2  -6 5436.27 909.283   2
  -5   2  -7 1540.73 521.980   1
  -5  -2  -7 2385.97 690.870   2
  -5   2  -8-284.077 403.098   1
  -5  -2  -8 1399.95 666.706   2
  -5  -2  -9 2050.66 706.566   2
  -5   2  -9 1905.63 609.112   1
  -5  -2 -10 1125.24 627.120   2
  -5   2 -10 62.3469 350.291   1
  -5   2 -11 3267.97 884.818   1
  -5  -2 -11 3189.93 937.188   2
  -5  -2 -12 498.472 605.043   2
  -5   2 -12 50.7100 567.708   1
  -5   2 -13 7771.74 1543.36   1
  -5   3  15-584.604 353.230   3
  -5   3  14 2.63867 288.444   3
  -5   3  13 394.312 236.212   3
  -5   3  12 127.204 176.966   3
  -5   3  11 2904.33 660.313   3
  -5   3  10 6818.59 993.357   3
  -5   3   9 18597.5 1587.16   3
  -5   3   8 7803.51 1005.47   3
  -5   3   7 2439.49 560.782   3
  -5   3   6 1776.82 459.393   3
  -5   3   5 1068.63 364.829   3
  -5   3   4 408.741 203.625   3
  -5   3   3 6206.14 887.637   3
  -5   3   2 1799.39 476.167   3
  -5  -3   1 4697.51 777.284   2
  -5   3   1 4806.47 794.129   3
  -5  -3   0 1378.62 494.647   2
  -5   3   0 1887.58 448.513   3
  -5   3  -1-184.163 266.502   1
  -5  -3  -1 233.171 312.411   2
  -5   3  -2 2516.27 659.323   1
  -5  -3  -2 2337.91 583.276   2
  -5   3  -3 74.1677 223.201   1
  -5  -3  -3 266.101 347.600   2
  -5  -3  -4-435.725 355.530   2
  -5   3  -4 747.233 352.990   1
  -5   3  -5 3208.02 797.442   1
  -5  -3  -5 3183.23 742.022   2
  -5   3  -6 3681.56 820.545   1
  -5  -3  -6 3300.55 843.857   2
  -5   3  -7 235.855 250.031   1
  -5  -3  -7-230.405 402.736   2
  -5   3  -8-138.688 322.861   1
  -5  -3  -8 396.015 334.446   2
  -5   3  -9 288.693 303.233   1
  -5  -3  -9 350.504 537.609   2
  -5   4   1 225.154 183.183   1
  -5   4   0 1494.30 563.977   1
  -5   4  -1 1486.58 525.253   1
  -5   4  -2-171.858 251.822   1
  -5  -4  -2-173.220 339.157   2
  -5   4  -3-67.3717 282.127   1
  -5  -4  -3-280.040 251.230   2
  -5   4  -4-224.284 463.933   1
  -5  -4  -4-6.81367 274.916   2
  -6   0  18 213.593 328.989   3
  -6   0  17 229.678 321.968   3
  -6   0  16 2678.57 703.896   3
  -6   0  15-81.0718 239.811   3
  -6   0  14 3540.72 738.657   3
  -6   0  13 0.95072 156.434   3
  -6   0  12 37060.4 2367.22   3
  -6   0  11 355.213 282.908   3
  -6   0  10 7315.23 967.100   3
  -6   0   9 184.296 210.375   3
  -6   0   8 393.245 223.946   3
  -6   0   7-15.1976 126.278   3
  -6   0   6 32467.9 1943.20   3
  -6   0   5 62.8778 174.457   3
  -6   0   4 143586. 2628.64   2
  -6   0   4 140716. 4283.16   3
  -6   0   3-15.4412 194.088   3
  -6   0   3 6.29374 162.721   2
  -6   0   2 822.107 289.120   3
  -6   0   2 1172.34 313.366   2
  -6   0   1-22.0879 130.141   3
  -6   0   1-22.7695 277.220   2
  -6   0   0 38.4363 136.541   3
  -6   0   0 1.32485 347.154   2
  -6   0  -1-245.907 209.778   3
  -6   0  -2 8632.78 889.818   1
  -6   0  -3 76.4524 191.026   1
  -6   0  -4 1556.34 384.101   1
  -6   0  -5-145.248 263.430   1
  -6   0  -6 162.123 195.368   1
  -6   0  -7-231.359 331.219   1
  -6   0  -8 307.265 236.035   1
  -6   0  -9-347.712 380.481   1
  -6   0 -10 2240.69 669.182   1
  -6   0 -11 174.326 323.497   1
  -6   0 -12 702.562 518.839   1
  -6  -1  18 515.853 297.523   3
  -6  -1  17 92.8482 185.920   3
  -6   1  17 372.587 240.352   3
  -6  -1  16 442.336 309.163   3
  -6   1  16 623.206 468.238   3
  -6  -1  15 404.908 327.486   3
  -6   1  15 364.042 307.635   3
  -6  -1  14 2770.39 680.591   3
  -6   1  14 3144.35 750.657   3
  -6  -1  13 704.989 309.202   3
  -6   1  13 1514.66 480.959   3
  -6  -1  12 1169.22 461.780   3
  -6   1  12 1339.04 457.989   3
  -6  -1  11 20002.9 1595.95   3
  -6   1  11 19347.2 1679.49   3
  -6  -1  10 1606.77 416.927   3
  -6   1  10 1910.24 536.701   3
  -6  -1   9 2208.29 468.713   3
  -6   1   9 2751.26 613.594   3
  -6  -1   8 6998.94 882.343   3
  -6   1   8 6140.64 888.478   3
  -6  -1   7 66167.6 2805.09   3
  -6   1   7 60097.0 2769.52   3
  -6  -1   6 46368.9 2319.16   3
  -6   1   6 44994.0 2390.01   3
  -6  -1   5 23744.9 1630.51   3
  -6   1   5 24307.5 1709.36   3
  -6  -1   4 771.522 265.722   3
  -6   1   4 615.841 248.393   3
  -6  -1   4 668.653 170.322   2
  -6  -1   3 901.973 332.965   3
  -6   1   3 676.998 343.548   3
  -6  -1   3 276.811 161.599   2
  -6  -1   2 12050.5 939.870   2
  -6  -1   2 11018.9 1100.24   3
  -6   1   2 11092.4 1162.56   3
  -6   1   1 334.407 163.334   3
  -6  -1   1 347.792 212.314   3
  -6   1   0 54.7782 206.313   3
  -6  -1   0 215.153 242.743   2
  -6  -1  -1-8.45608 110.282   1
  -6  -1  -1-127.126 301.849   2
  -6   1  -1-77.7515 139.465   3
  -6  -1  -2 3287.33 632.083   2
  -6  -1  -2 3043.12 414.849   1
  -6  -1  -3-142.459 442.659   2
  -6   1  -3 59.7676 189.128   1
  -6  -1  -3 301.920 158.224   1
  -6   1  -4 2147.54 527.320   1
  -6  -1  -4 3020.41 745.666   2
  -6  -1  -4 3019.64 424.591   1
  -6  -1  -5 2146.00 678.204   2
  -6   1  -5 1656.76 467.009   1
  -6  -1  -5 2409.04 408.257   1
  -6  -1  -6 805.142 576.028   2
  -6  -1  -6 854.754 304.213   1
  -6   1  -6 611.103 321.936   1
  -6  -1  -7 694.972 551.402   2
  -6   1  -7 473.998 275.840   1
  -6  -1  -8 7944.32 1211.57   2
  -6   1  -8 7833.21 1117.46   1
  -6  -1  -9 11839.7 1581.19   2
  -6   1  -9 9864.92 1300.14   1
  -6   1 -10 307.498 332.447   1
  -6  -1 -10 1165.40 676.472   2
  -6  -1 -11 932.915 637.064   2
  -6   1 -11 810.032 399.498   1
  -6  -1 -12 530.491 768.347   2
  -6   1 -12-675.858 408.541   1
  -6   1 -13 1415.50 766.357   1
  -6   1 -14 890.252 429.025   1
  -6  -2  16-43.4165 292.373   3
  -6   2  16 432.276 220.909   3
  -6  -2  15 533.973 278.802   3
  -6   2  15 538.635 373.605   3
  -6  -2  14 633.739 258.598   3
  -6   2  14 644.898 366.954   3
  -6  -2  13-137.984 174.482   3
  -6   2  13 99.4080 220.558   3
  -6  -2  12 637.008 257.215   3
  -6   2  12 681.758 349.652   3
  -6  -2  11 11.2949 127.222   3
  -6   2  11-608.135 320.335   3
  -6  -2  10 167.306 199.572   3
  -6   2  10-317.933 290.385   3
  -6  -2   9 22686.7 1617.26   3
  -6   2   9 21427.8 1748.89   3
  -6  -2   8 9524.42 1020.66   3
  -6   2   8 9419.76 1141.21   3
  -6  -2   7 7133.40 850.713   3
  -6   2   7 7598.88 1003.09   3
  -6  -2   6 1682.05 421.795   3
  -6   2   6 1814.50 472.364   3
  -6  -2   5 3503.66 608.405   3
  -6   2   5 4106.27 727.178   3
  -6  -2   4 82.1205 109.467   3
  -6   2   4 529.790 353.174   3
  -6   2   3 22.4703 217.260   3
  -6  -2   3 31.3742 159.283   2
  -6  -2   3 154.445 125.888   3
  -6   2   2 4020.42 714.981   3
  -6  -2   2 3172.66 616.968   2
  -6   2   1 790.090 314.094   3
  -6  -2   1 902.095 411.074   2
  -6   2   0 3586.26 683.777   3
  -6  -2   0 3841.03 681.157   2
  -6  -2  -1 1164.42 383.327   2
  -6   2  -1 1652.57 487.211   3
  -6   2  -2 2105.05 561.246   1
  -6  -2  -2 1420.81 418.975   2
  -6  -2  -3 900.927 399.256   2
  -6   2  -3 684.083 338.966   1
  -6   2  -4 156.649 231.541   1
  -6  -2  -4 392.677 411.259   2
  -6   2  -5-51.2932 242.382   1
  -6  -2  -5-463.268 496.482   2
  -6   2  -6-488.310 414.417   1
  -6  -2  -6 212.109 420.139   2
  -6   2  -7-410.266 375.614   1
  -6  -2  -7-317.840 539.585   2
  -6   2  -8 84.8517 275.171   1
  -6  -2  -8-403.126 436.928   2
  -6   2  -9 2967.66 774.249   1
  -6  -2  -9 3471.59 934.580   2
  -6   2 -10 4799.19 1028.89   1
  -6  -2 -10 4953.93 1121.83   2
  -6   2 -11 6560.98 1123.14   1
  -6   3  14-155.476 243.350   3
  -6   3  13 974.008 404.070   3
  -6   3  12 278.671 309.552   3
  -6   3  11 200.354 158.834   3
  -6   3  10 1008.97 440.770   3
  -6   3   9 116.235 222.015   3
  -6   3   8-205.588 307.385   3
  -6   3   7-132.048 199.779   3
  -6   3   6-160.376 208.902   3
  -6   3   5-128.817 190.935   3
  -6   3   4 70.5533 135.060   3
  -6   3   3 1649.00 558.656   3
  -6   3   2 4584.85 850.312   3
  -6   3   1 873.865 270.905   3
  -6  -3   1 2274.72 573.872   2
  -6  -3   0 139.762 257.717   2
  -6   3   0-24.7171 137.011   3
  -6   3  -1 412.662 308.631   1
  -6  -3  -1 473.678 299.289   2
  -6   3  -2 1619.98 549.368   1
  -6  -3  -2 823.539 340.155   2
  -6   3  -3 205.894 236.692   1
  -6  -3  -3-463.479 488.392   2
  -6  -3  -4 2942.89 705.387   2
  -6   3  -4 3002.51 751.868   1
  -6   3  -5 7255.23 1231.29   1
  -6  -3  -5 5011.47 990.007   2
  -6   3  -6 375.638 370.050   1
  -6  -3  -6 205.007 326.878   2
  -6   3  -7 3202.86 799.879   1
  -6  -3  -7 1712.83 634.435   2
  -6  -4  -1-393.635 473.257   2
  -7   0  17-187.518 309.325   3
  -7   0  16 1304.32 541.189   3
  -7   0  15 15.8253 152.248   3
  -7   0  14 692.509 367.740   3
  -7   0  13-127.254 286.066   3
  -7   0  12 635.831 291.741   3
  -7   0  11 35.9010 135.368   3
  -7   0  10 3369.37 687.125   3
  -7   0   9-135.800 254.334   3
  -7   0   8 1369.12 473.745   3
  -7   0   7-8.30055 144.349   3
  -7   0   6 113030. 4126.93   3
  -7   0   5 67.3731 191.509   3
  -7   0   4 60525.9 1621.92   2
  -7   0   4 54295.8 2812.20   3
  -7   0   3 33.1761 173.732   3
  -7   0   3 45.1024 180.864   2
  -7   0   2 5013.77 546.501   2
  -7   0   2 5656.07 903.023   3
  -7   0   1 73.2141 207.286   3
  -7   0   1-166.435 331.962   2
  -7   0   0 1621.45 508.777   2
  -7   0   0 2355.11 604.643   3
  -7   0  -1 29.6841 371.885   2
  -7   0  -2 5252.33 871.714   2
  -7   0  -2 6511.68 821.126   1
  -7   0  -3-113.709 256.348   1
  -7   0  -4 6613.86 878.154   1
  -7   0  -5 225.347 267.398   1
  -7   0  -6 367.976 307.890   1
  -7   0  -7-202.660 289.025   1
  -7   0  -8 503.259 321.872   1
  -7   0  -9-104.141 330.085   1
  -7  -1  17-197.448 252.178   3
  -7  -1  16 383.441 173.612   3
  -7   1  16 198.481 408.121   3
  -7  -1  15 322.763 147.351   3
  -7   1  15 758.561 376.973   3
  -7  -1  14 572.067 283.343   3
  -7   1  14 117.070 278.491   3
  -7  -1  13 730.234 395.470   3
  -7   1  13 650.890 313.301   3
  -7  -1  12 2488.92 604.717   3
  -7   1  12 1963.62 591.098   3
  -7  -1  11 4768.75 811.059   3
  -7   1  11 5158.71 914.548   3
  -7  -1  10 67.8209 208.808   3
  -7   1  10 19.1199 152.698   3
  -7  -1   9 1520.31 435.382   3
  -7   1   9 1135.28 410.983   3
  -7   1   8 5334.69 877.188   3
  -7  -1   8 5969.46 897.057   3
  -7  -1   7 458.775 281.511   3
  -7   1   7 401.294 204.493   3
  -7  -1   6 343.603 201.967   3
  -7   1   6 257.812 268.655   3
  -7  -1   5 8822.76 1072.48   3
  -7   1   5 9730.48 1196.32   3
  -7  -1   4 35197.7 1585.42   2
  -7  -1   4 36482.6 2219.32   3
  -7   1   4 33439.2 2223.02   3
  -7  -1   3 35353.9 1637.16   2
  -7  -1   3 40277.0 2370.13   3
  -7   1   3 33944.2 2240.27   3
  -7  -1   2 11297.6 960.782   2
  -7  -1   2 10501.9 1173.64   3
  -7   1   2 12577.0 1370.98   3
  -7   1   1 642.304 347.126   3
  -7  -1   1 162.557 198.823   2
  -7  -1   1 257.689 256.000   3
  -7  -1   0 1739.98 440.957   2
  -7   1   0 1129.84 412.774   3
  -7  -1  -1 8594.40 996.031   2
  -7  -1  -1 9351.00 814.400   1
  -7   1  -1 10767.8 1342.53   3
  -7   1  -2 2338.33 569.332   1
  -7  -1  -2 2466.66 663.670   2
  -7  -1  -3-209.488 394.387   2
  -7   1  -3 132.984 235.734   1
  -7  -1  -4 1677.30 615.424   2
  -7   1  -4 1606.36 473.111   1
  -7  -1  -5-29.7866 446.994   2
  -7   1  -5-214.251 192.372   1
  -7  -1  -6 1320.65 624.371   2
  -7   1  -6 1213.33 444.834   1
  -7  -1  -7 1494.72 632.483   2
  -7   1  -7 516.764 305.270   1
  -7  -1  -8 1901.67 961.280   2
  -7   1  -8 402.513 382.129   1
  -7  -1  -9 4575.60 1098.21   2
  -7   1  -9 2900.64 824.059   1
  -7   1 -10 326.059 370.641   1
  -7  -1 -10-180.767 693.653   2
  -7   1 -11 1442.11 596.932   1
  -7   1 -12 15.1644 437.719   1
  -7  -2  15 109.345 161.061   3
  -7  -2  14 852.617 335.062   3
  -7   2  14 1375.30 539.300   3
  -7  -2  13-33.1144 322.577   3
  -7   2  13 609.584 384.074   3
  -7  -2  12 1285.10 466.697   3
  -7   2  12 726.717 329.228   3
  -7  -2  11 67.1806 199.911   3
  -7   2  11 3.61960 195.308   3
  -7  -2  10 8696.63 1102.69   3
  -7   2  10 9425.20 1253.12   3
  -7  -2   9 2280.34 559.357   3
  -7   2   9 1350.17 449.936   3
  -7  -2   8 7826.74 1000.38   3
  -7   2   8 6617.35 1040.21   3
  -7  -2   7 191.301 138.968   3
  -7   2   7 228.671 217.688   3
  -7  -2   6-136.304 221.189   3
  -7   2   6 189.919 249.798   3
  -7  -2   5 1475.80 422.708   3
  -7   2   5 1442.99 497.984   3
  -7   2   4 1004.24 485.070   3
  -7  -2   4 882.477 357.571   3
  -7   2   3 1690.83 522.981   3
  -7  -2   3 1452.26 435.606   2
  -7  -2   3 1662.41 464.450   3
  -7   2   2 1514.79 532.086   3
  -7  -2   2 1475.24 454.363   2
  -7  -2   1 19470.5 1559.99   2
  -7   2   1 24554.3 1999.13   3
  -7  -2   0 829.061 357.302   2
  -7   2   0 1052.66 446.602   3
  -7   2  -1 246.785 246.641   3
  -7  -2  -1 407.138 339.271   2
  -7   2  -2 822.928 419.416   1
  -7  -2  -2 484.518 326.983   2
  -7   2  -3 437.357 297.637   1
  -7  -2  -3 524.456 295.573   2
  -7  -2  -4 1687.03 617.180   2
  -7   2  -4 2577.15 687.931   1
  -7   2  -5 506.622 392.317   1
  -7  -2  -5 42.8486 326.766   2
  -7   2  -6 1777.01 633.894   1
  -7  -2  -6 1042.09 459.740   2
  -7   2  -7 2964.26 760.547   1
  -7  -2  -7 3070.52 770.117   2
  -7   2  -8 2012.89 659.185   1
  -7  -2  -8 2368.40 866.990   2
  -7   2  -9 1075.54 544.239   1
  -7  -2  -9 2350.56 830.404   2
  -7   3  12 998.606 461.399   3
  -7   3  11 682.357 363.876   3
  -7   3  10-145.789 291.234   3
  -7   3   9 3585.54 786.409   3
  -7   3   8 1504.45 537.680   3
  -7   3   7 1013.66 363.386   3
  -7   3   6 493.635 293.493   3
  -7   3   5 162.868 191.264   3
  -7   3   4-207.189 312.430   3
  -7   3   3-264.736 413.587   3
  -7   3   2 87.1841 206.989   3
  -7  -3   2-177.024 218.055   2
  -7  -3   1-111.177 257.842   2
  -7   3   1-758.139 385.075   3
  -7  -3   0-76.2765 252.504   2
  -7   3   0 220.200 300.934   3
  -7   3  -1 1065.69 483.302   1
  -7  -3  -1 10.0539 258.160   2
  -7  -3  -2 220.994 303.715   2
  -7   3  -2 403.865 376.073   1
  -7   3  -3-622.276 413.000   1
  -7  -3  -3 143.230 297.458   2
  -7   3  -4 848.097 490.327   1
  -7  -3  -4 1067.67 514.672   2
  -7  -3  -5 1422.39 542.152   2
  -8   0  15 31.0647 177.212   3
  -8   0  14-42.2619 395.204   3
  -8   0  13 88.2163 153.545   3
  -8   0  12 5916.61 1001.58   3
  -8   0  11-206.877 266.771   3
  -8   0  10 935.576 420.542   3
  -8   0   9-177.071 241.415   3
  -8   0   8 3289.57 736.709   3
  -8   0   7 45.7743 212.641   3
  -8   0   6 1137.61 426.945   3
  -8   0   5-64.2820 189.078   3
  -8   0   4 1756.73 544.992   3
  -8   0   3 136.244 160.234   3
  -8   0   2 3626.11 750.927   3
  -8   0   1-346.494 318.022   3
  -8   0   0 635.184 361.739   2
  -8   0   0 1427.48 470.848   3
  -8   0  -1 376.597 459.686   2
  -8   0  -1 37.0992 146.999   1
  -8   0  -2 13428.0 1479.84   2
  -8   0  -2 12912.0 1226.93   1
  -8   0  -3 182.403 537.567   2
  -8   0  -3-71.6400 166.622   1
  -8   0  -4 76.0084 198.395   1
  -8   0  -4 1203.23 706.125   2
  -8   0  -5-194.517 614.863   2
  -8   0  -5-484.803 309.544   1
  -8   0  -6 1399.86 762.526   2
  -8   0  -7 634.008 689.992   2
  -8  -1  16 634.226 349.601   3
  -8  -1  15 265.399 165.609   3
  -8  -1  14-173.822 173.059   3
  -8   1  14 142.405 273.375   3
  -8  -1  13 438.895 299.319   3
  -8   1  13 529.262 363.010   3
  -8  -1  12 799.430 290.684   3
  -8   1  12 544.359 346.012   3
  -8  -1  11 191.017 153.897   3
  -8   1  11-104.814 213.920   3
  -8  -1  10 3863.32 808.707   3
  -8   1  10 3894.58 848.112   3
  -8  -1   9 2084.55 566.509   3
  -8   1   9 1810.36 554.335   3
  -8  -1   8 363.133 284.416   3
  -8   1   8 490.439 308.873   3
  -8  -1   7 5179.32 917.495   3
  -8   1   7 5033.93 920.454   3
  -8  -1   6 4309.51 778.508   3
  -8   1   6 4006.77 823.826   3
  -8  -1   5 5687.42 951.750   3
  -8   1   5 6247.13 1037.63   3
  -8  -1   4 2680.02 657.727   3
  -8   1   4 2682.13 662.214   3
  -8  -1   3 4785.64 857.020   3
  -8   1   3 3761.29 796.334   3
  -8   1   2-123.694 280.345   3
  -8  -1   2 420.406 288.333   3
  -8   1   1 1601.87 545.325   3
  -8  -1   1 1068.01 341.861   2
  -8  -1   0 58.9947 298.594   2
  -8   1   0 372.166 330.003   3
  -8  -1  -1-40.6034 347.677   2
  -8   1  -2 766.630 288.564   1
  -8  -1  -2 227.925 354.060   2
  -8   1  -3 693.339 384.895   1
  -8  -1  -3 1039.72 441.348   2
  -8  -1  -4 5755.94 1028.02   2
  -8   1  -4 4526.51 829.989   1
  -8  -1  -5-254.797 705.350   2
  -8   1  -5 1169.45 468.903   1
  -8  -1  -6 1095.83 749.190   2
  -8   1  -6 123.995 412.558   1
  -8  -1  -7 420.058 562.542   2
  -8   1  -7 1696.26 628.406   1
  -8  -1  -8 1228.02 764.454   2
  -8   1  -8 2887.65 749.864   1
  -8   1  -9 867.937 665.008   1
  -8   1 -10 965.270 554.457   1
  -8  -2  13 1841.24 495.612   3
  -8  -2  12-234.832 386.882   3
  -8   2  12 491.435 288.183   3
  -8  -2  11 263.338 304.198   3
  -8   2  11-103.533 233.599   3
  -8  -2  10-220.144 305.142   3
  -8   2  10-79.8849 249.887   3
  -8  -2   9 467.045 346.734   3
  -8   2   9-220.716 367.822   3
  -8  -2   8 289.401 225.588   3
  -8   2   8 703.016 439.271   3
  -8  -2   7 189.931 324.911   3
  -8   2   7 153.889 301.856   3
  -8  -2   6 1397.86 417.094   3
  -8   2   6 1677.47 545.088   3
  -8   2   5 384.740 290.111   3
  -8  -2   5 314.464 195.999   3
  -8   2   4 3525.04 800.046   3
  -8  -2   4 4227.20 822.643   3
  -8   2   3 11631.4 1478.30   3
  -8  -2   2 16505.7 1428.97   2
  -8   2   2 20585.3 1955.48   3
  -8  -2   1 1850.07 505.523   2
  -8   2   1 2389.98 712.099   3
  -8  -2   0-6.22370 243.153   2
  -8   2   0 633.975 484.047   3
  -8   2  -1-48.0046 180.571   1
  -8  -2  -1 577.562 341.681   2
  -8   2  -2 811.420 500.240   1
  -8  -2  -2 1381.25 538.056   2
  -8   2  -3-228.218 320.218   1
  -8  -2  -3 1217.80 470.636   2
  -8   2  -4-849.859 455.816   1
  -8  -2  -4 45.7420 383.211   2
  -8   2  -5-65.2627 248.982   1
  -8  -2  -5 2.84007 379.217   2
  -8  -2  -6 3147.62 831.533   2
  -8   2  -6 1939.93 581.916   1
  -8  -2  -7-710.929 505.368   2
  -8   3   9 2926.29 754.189   3
  -8   3   8 71.7764 258.085   3
  -8   3   7 6185.14 1153.61   3
  -8   3   6 1015.25 474.928   3
  -8   3   5-101.178 287.290   3
  -8   3   4 418.541 241.445   3
  -8   3   3 377.348 312.380   3
  -8   3   2 1347.13 540.778   3
  -8  -3   1 3373.90 728.775   2
  -8   3   1 5625.73 1109.65   3
  -8  -3   0 5762.50 991.312   2
  -8  -3  -1 3153.38 750.590   2
  -8  -3  -2 26.0748 315.951   2
  -8  -3  -3 874.182 445.301   2
  -9   0  12 1147.13 485.986   3
  -9   0  11 220.786 273.878   3
  -9   0  10 3719.38 840.752   3
  -9   0   9-371.444 374.549   3
  -9   0   8 1129.30 509.124   3
  -9   0   7-160.293 341.836   3
  -9   0   6 2936.67 735.664   3
  -9   0   5-189.282 283.954   3
  -9   0   4 1094.25 491.014   3
  -9   0   3 228.310 226.456   3
  -9   0   2 129.752 165.395   3
  -9   0   1-398.237 430.693   3
  -9   0  -5-309.196 774.500   2
  -9   0  -6-318.838 713.651   2
  -9   0  -7-371.700 1002.10   2
  -9  -1  13 1543.02 581.107   3
  -9  -1  12 1332.39 590.350   3
  -9  -1  11-105.250 324.758   3
  -9  -1  10 187.528 270.044   3
  -9   1  10 37.6410 188.910   3
  -9  -1   9 827.065 482.053   3
  -9   1   9-314.064 261.320   3
  -9  -1   8 1492.67 393.117   3
  -9   1   8 1591.89 539.827   3
  -9  -1   7 2241.97 684.132   3
  -9   1   7 1999.87 565.354   3
  -9  -1   6-12.4000 266.292   3
  -9   1   6-115.841 290.674   3
  -9  -1   5 6894.52 1139.98   3
  -9   1   5 8673.60 1316.00   3
  -9  -1   4-101.048 282.072   3
  -9   1   4 92.6214 274.984   3
  -9   1   3 1865.99 665.909   3
  -9  -1   3 1759.90 580.345   3
  -9   1   2 270.239 293.924   3
  -9   1   1 3175.71 776.424   3
  -9   1  -1 52.3477 360.054   1
  -9   1  -2 261.036 383.756   1
  -9   1  -3 407.903 324.645   1
  -9   1  -4-429.921 390.350   1
  -9  -1  -4-1107.73 828.490   2
  -9   1  -5 256.172 249.351   1
  -9  -1  -5 1620.11 474.597   2
  -9  -1  -6-224.430 566.489   2
  -9   1  -6 868.525 446.782   1
  -9  -1  -7-723.994 736.883   2
  -9   1  -7-567.181 420.499   1
  -9  -2  11 735.653 370.055   3
  -9  -2  10 1322.30 562.893   3
  -9  -2   9 456.457 316.214   3
  -9  -2   8 456.477 299.506   3
  -9  -2   7 1853.59 556.168   3
  -9   2   7 1963.92 668.948   3
  -9   2   6 7230.65 1219.74   3
  -9  -2   6 6733.42 1075.00   3
  -9   2   5 2255.19 684.635   3
  -9  -2   5 1945.43 618.995   3
  -9   2   4-109.258 347.519   3
  -9   2   3 83.9596 374.357   3
  -9   2   2-185.617 230.502   3
  -9   2   1 867.946 483.582   3
  -9   2  -1 752.228 454.053   1
  -9  -2  -3 1576.80 655.556   2
  -9  -2  -4-116.740 327.356   2
  -9  -2  -5 562.641 459.954   2
 -10  -1   7 74.6387 222.706   3
 -10  -1   6 3534.70 917.547   3
 -10  -1   5 2347.41 672.123   3
 -10  -1   4 2826.77 888.168   3
 -10   1   0 307.701 233.211   1
 -10   1  -1 484.291 219.208   1
 -10   1  -2 1364.49 455.902   1
 -10  -2   6 551.065 357.237   3
   0   0   0    0.00    0.00   0
TITL BKS-SS-DI-ANTH-223K-ss in P2(1)/c
REM P2(1)/c (#14 in standard setting)
CELL 0.71073   7.887631   3.943396  15.757786  90.0000 102.6236  90.0000
ZERR    2.00   0.000696   0.000446   0.001900   0.0000   0.0107   0.0000
LATT  1
SYMM -x, y+1/2,-z+1/2
SFAC C H O
UNIT 24.00 16.00 4.00
TREF
HKLF 4
END
;
_shelx_hkl_checksum              60846
_olex2_submission_special_instructions 'No special instructions were received'
loop_
_space_group_symop_operation_xyz
'x, y, z'
'-x, y+1/2, -z+1/2'
'-x, -y, -z'
'x, -y-1/2, z-1/2'
loop_
_atom_site_label
_atom_site_type_symbol
_atom_site_fract_x
_atom_site_fract_y
_atom_site_fract_z
_atom_site_U_iso_or_equiv
_atom_site_adp_type
_atom_site_occupancy
_atom_site_site_symmetry_order
_atom_site_calc_flag
_atom_site_refinement_flags_posn
_atom_site_refinement_flags_adp
_atom_site_refinement_flags_occupancy
_atom_site_disorder_assembly
_atom_site_disorder_group
C2 C 0.4358(2) 0.6535(4) 0.41510(12) 0.0335(5) Uani 1 1 d . . . . .
C7 C 0.3262(2) 0.6395(4) 0.47404(12) 0.0332(5) Uani 1 1 d . . . . .
C1 C 0.6149(2) 0.5131(4) 0.43848(13) 0.0371(5) Uani 1 1 d . . . . .
C5 C 0.1001(2) 0.9146(5) 0.36856(15) 0.0455(6) Uani 1 1 d . . . . .
H5 H -0.013066 1.003271 0.352945 0.055 Uiso 1 1 calc R U . . .
O1 O 0.71086(18) 0.5233(4) 0.38685(10) 0.0598(5) Uani 1 1 d . . . . .
C3 C 0.3752(2) 0.7987(5) 0.33334(13) 0.0423(5) Uani 1 1 d . . . . .
H3 H 0.448283 0.809124 0.293613 0.051 Uiso 1 1 calc R U . . .
C6 C 0.1581(2) 0.7717(5) 0.44958(13) 0.0415(5) Uani 1 1 d . . . . .
H6 H 0.083800 0.763036 0.488767 0.050 Uiso 1 1 calc R U . . .
C4 C 0.2076(3) 0.9280(5) 0.31027(14) 0.0467(6) Uani 1 1 d . . . . .
H4 H 0.167433 1.024577 0.254994 0.056 Uiso 1 1 calc R U . . .
loop_
_atom_site_aniso_label
_atom_site_aniso_U_11
_atom_site_aniso_U_22
_atom_site_aniso_U_33
_atom_site_aniso_U_23
_atom_site_aniso_U_13
_atom_site_aniso_U_12
C2 0.0344(10) 0.0325(10) 0.0326(11) -0.0041(8) 0.0055(8) -0.0037(8)
C7 0.0314(9) 0.0306(10) 0.0374(12) -0.0043(8) 0.0070(8) -0.0024(7)
C1 0.0334(10) 0.0430(11) 0.0369(12) -0.0039(8) 0.0116(9) -0.0038(8)
C5 0.0360(10) 0.0421(13) 0.0533(15) -0.0024(10) -0.0010(9) 0.0034(9)
O1 0.0466(9) 0.0922(12) 0.0470(10) 0.0111(8) 0.0240(8) 0.0111(8)
C3 0.0462(12) 0.0451(12) 0.0359(12) -0.0007(9) 0.0098(9) -0.0021(9)
C6 0.0331(10) 0.0445(13) 0.0470(13) -0.0029(9) 0.0091(9) 0.0004(8)
C4 0.0528(13) 0.0442(12) 0.0381(13) 0.0023(9) -0.0012(10) 0.0025(9)
loop_
_atom_type_symbol
_atom_type_description
_atom_type_scat_dispersion_real
_atom_type_scat_dispersion_imag
_atom_type_scat_source
C C 0.0033 0.0016 'International Tables Vol C Tables 4.2.6.8 and 6.1.1.4'
H H 0.0000 0.0000 'International Tables Vol C Tables 4.2.6.8 and 6.1.1.4'
O O 0.0106 0.0060 'International Tables Vol C Tables 4.2.6.8 and 6.1.1.4'
loop_
_geom_angle_atom_site_label_1
_geom_angle_atom_site_label_2
_geom_angle_atom_site_label_3
_geom_angle
_geom_angle_site_symmetry_1
_geom_angle_site_symmetry_3
_geom_angle_publ_flag
C7 C2 C1 120.77(17) . . ?
C3 C2 C7 119.44(17) . . ?
C3 C2 C1 119.78(16) . . ?
C2 C7 C1 121.23(16) . 3_666 ?
C6 C7 C2 119.21(18) . . ?
C6 C7 C1 119.56(17) . 3_666 ?
C7 C1 C2 118.00(15) 3_666 . ?
O1 C1 C2 120.93(18) . . ?
O1 C1 C7 121.07(17) . 3_666 ?
C6 C5 H5 119.9 . . ?
C6 C5 C4 120.27(18) . . ?
C4 C5 H5 119.9 . . ?
C2 C3 H3 119.8 . . ?
C4 C3 C2 120.44(18) . . ?
C4 C3 H3 119.8 . . ?
C7 C6 H6 119.7 . . ?
C5 C6 C7 120.67(18) . . ?
C5 C6 H6 119.7 . . ?
C5 C4 C3 120.0(2) . . ?
C5 C4 H4 120.0 . . ?
C3 C4 H4 120.0 . . ?
loop_
_geom_bond_atom_site_label_1
_geom_bond_atom_site_label_2
_geom_bond_distance
_geom_bond_site_symmetry_2
_geom_bond_publ_flag
C2 C7 1.401(2) . ?
C2 C1 1.487(2) . ?
C2 C3 1.395(3) . ?
C7 C1 1.483(3) 3_666 ?
C7 C6 1.398(2) . ?
C1 O1 1.227(2) . ?
C5 H5 0.9400 . ?
C5 C6 1.379(3) . ?
C5 C4 1.381(3) . ?
C3 H3 0.9400 . ?
C3 C4 1.389(3) . ?
C6 H6 0.9400 . ?
C4 H4 0.9400 . ?
loop_
_geom_torsion_atom_site_label_1
_geom_torsion_atom_site_label_2
_geom_torsion_atom_site_label_3
_geom_torsion_atom_site_label_4
_geom_torsion
_geom_torsion_site_symmetry_1
_geom_torsion_site_symmetry_2
_geom_torsion_site_symmetry_3
_geom_torsion_site_symmetry_4
_geom_torsion_publ_flag
C2 C7 C6 C5 0.0(3) . . . . ?
C2 C3 C4 C5 0.3(3) . . . . ?
C7 C2 C1 C7 -0.4(3) . . . 3_666 ?
C7 C2 C1 O1 179.61(17) . . . . ?
C7 C2 C3 C4 -0.1(3) . . . . ?
C1 C2 C7 C1 0.4(3) . . . 3_666 ?
C1 C2 C7 C6 -179.50(15) . . . . ?
C1 C2 C3 C4 179.38(16) . . . . ?
C1 C7 C6 C5 -179.94(17) 3_666 . . . ?
C3 C2 C7 C1 179.90(16) . . . 3_666 ?
C3 C2 C7 C6 0.0(3) . . . . ?
C3 C2 C1 C7 -179.88(16) . . . 3_666 ?
C3 C2 C1 O1 0.1(3) . . . . ?
C6 C5 C4 C3 -0.3(3) . . . . ?
C4 C5 C6 C7 0.2(3) . . . . ?
