#------------------------------------------------------------------------------
#$Date: 2021-09-06 13:32:23 +0300 (Mon, 06 Sep 2021) $
#$Revision: 268688 $
#$URL: file:///home/coder/svn-repositories/cod/cif/7/24/27/7242762.cif $
#------------------------------------------------------------------------------
#
# This file is available in the Crystallography Open Database (COD),
# http://www.crystallography.net/
#
# All data on this site have been placed in the public domain by the
# contributors.
#
data_7242762
loop_
_publ_author_name
'Rather, Sumair A.'
'Saha, Binoy K.'
_publ_section_title
;
 Understanding the elastic bending mechanism in a 9,10-anthraquinone
 crystal through thermal expansion study
;
_journal_issue                   34
_journal_name_full               CrystEngComm
_journal_page_first              5768
_journal_page_last               5773
_journal_paper_doi               10.1039/D1CE00467K
_journal_volume                  23
_journal_year                    2021
_chemical_formula_moiety         'C14 H8 O2'
_chemical_formula_sum            'C14 H8 O2'
_chemical_formula_weight         208.20
_chemical_name_common            Anthraquinone
_chemical_name_systematic        9,10-Anthracenedione
_space_group_crystal_system      monoclinic
_space_group_IT_number           14
_space_group_name_Hall           '-P 2ybc'
_space_group_name_H-M_alt        'P 1 21/c 1'
_atom_sites_solution_hydrogens   geom
_audit_creation_date             2021-03-31
_audit_creation_method
;
Olex2 1.3-alpha
(compiled 2019.09.11 svn.r3662 for OlexSys, GUI svn.r5938)
;
_audit_update_record
;
2021-04-06 deposited with the CCDC.	2021-05-03 downloaded from the CCDC.
;
_cell_angle_alpha                90
_cell_angle_beta                 102.624(10)
_cell_angle_gamma                90
_cell_formula_units_Z            2
_cell_length_a                   7.8864(7)
_cell_length_b                   3.9488(5)
_cell_length_c                   15.774(2)
_cell_measurement_reflns_used    474
_cell_measurement_temperature    238
_cell_measurement_theta_max      29.2932
_cell_measurement_theta_min      3.3026
_cell_volume                     479.36(10)
_computing_cell_refinement
;
CrysAlisPro, Agilent Technologies,
Version 1.171.36.21 (release 14-08-2012 CrysAlis171 .NET)
(compiled Sep 14 2012,17:21:16)
;
_computing_data_collection
;
CrysAlisPro, Agilent Technologies,
Version 1.171.36.21 (release 14-08-2012 CrysAlis171 .NET)
(compiled Sep 14 2012,17:21:16)
;
_computing_data_reduction
;
CrysAlisPro, Agilent Technologies,
Version 1.171.36.21 (release 14-08-2012 CrysAlis171 .NET)
(compiled Sep 14 2012,17:21:16)
;
_computing_molecular_graphics    'Olex2 1.3-alpha (Dolomanov et al., 2009)'
_computing_publication_material  'Olex2 1.3-alpha (Dolomanov et al., 2009)'
_computing_structure_refinement  'ShelXL 2018/3 (Sheldrick, 2015)'
_computing_structure_solution    'ShelXS n/a (Sheldrick, 2008)'
_diffrn_ambient_temperature      238.00(2)
_diffrn_detector_area_resol_mean 15.9821
_diffrn_measured_fraction_theta_full 0.960
_diffrn_measured_fraction_theta_max 0.796
_diffrn_measurement_details
;
#__ type_ start__ end____ width___ exp.time_
  1 omega   -2.00   83.00   1.0000    5.0000
omega____ theta____ kappa____ phi______ frames
    -       19.6835   57.0000   60.0000 85

#__ type_ start__ end____ width___ exp.time_
  2 omega   35.00   96.00   1.0000    5.0000
omega____ theta____ kappa____ phi______ frames
    -       19.6835  178.0000  -60.0000 61

#__ type_ start__ end____ width___ exp.time_
  3 omega   -8.00   78.00   1.0000    5.0000
omega____ theta____ kappa____ phi______ frames
    -       19.6835   19.0000    0.0000 86
;
_diffrn_measurement_device_type  'Xcalibur, Eos'
_diffrn_measurement_method       '\w scans'
_diffrn_radiation_type           MoK\a
_diffrn_radiation_wavelength     0.71073
_diffrn_reflns_av_R_equivalents  0.0250
_diffrn_reflns_av_unetI/netI     0.0414
_diffrn_reflns_Laue_measured_fraction_full 0.960
_diffrn_reflns_Laue_measured_fraction_max 0.796
_diffrn_reflns_limit_h_max       10
_diffrn_reflns_limit_h_min       -5
_diffrn_reflns_limit_k_max       5
_diffrn_reflns_limit_k_min       -4
_diffrn_reflns_limit_l_max       20
_diffrn_reflns_limit_l_min       -20
_diffrn_reflns_number            2164
_diffrn_reflns_point_group_measured_fraction_full 0.960
_diffrn_reflns_point_group_measured_fraction_max 0.796
_diffrn_reflns_theta_full        25.000
_diffrn_reflns_theta_max         29.358
_diffrn_reflns_theta_min         3.309
_exptl_absorpt_coefficient_mu    0.096
_exptl_absorpt_correction_T_max  1.00000
_exptl_absorpt_correction_T_min  0.74662
_exptl_absorpt_correction_type   multi-scan
_exptl_absorpt_process_details
;
CrysAlisPro, Agilent Technologies,
Version 1.171.36.21 (release 14-08-2012 CrysAlis171 .NET)
(compiled Sep 14 2012,17:21:16)
Empirical absorption correction using spherical harmonics,
 implemented in SCALE3 ABSPACK scaling algorithm.
;
_exptl_crystal_colour            yellow
_exptl_crystal_colour_primary    yellow
_exptl_crystal_density_diffrn    1.443
_exptl_crystal_description       block
_exptl_crystal_F_000             216
_exptl_crystal_size_max          0.62
_exptl_crystal_size_mid          0.26
_exptl_crystal_size_min          0.16
_refine_diff_density_max         0.144
_refine_diff_density_min         -0.150
_refine_diff_density_rms         0.039
_refine_ls_extinction_method     none
_refine_ls_goodness_of_fit_ref   1.036
_refine_ls_hydrogen_treatment    constr
_refine_ls_matrix_type           full
_refine_ls_number_parameters     73
_refine_ls_number_reflns         1052
_refine_ls_number_restraints     0
_refine_ls_restrained_S_all      1.036
_refine_ls_R_factor_all          0.0800
_refine_ls_R_factor_gt           0.0489
_refine_ls_shift/su_max          0.000
_refine_ls_shift/su_mean         0.000
_refine_ls_structure_factor_coef Fsqd
_refine_ls_weighting_details
'w=1/[\s^2^(Fo^2^)+(0.0584P)^2^] where P=(Fo^2^+2Fc^2^)/3'
_refine_ls_weighting_scheme      calc
_refine_ls_wR_factor_gt          0.1093
_refine_ls_wR_factor_ref         0.1304
_reflns_Friedel_coverage         0.000
_reflns_number_gt                714
_reflns_number_total             1052
_reflns_threshold_expression     'I > 2\s(I)'
_cod_data_source_file            d1ce00467k2.cif
_cod_data_source_block           anthraquinone-238k
_cod_depositor_comments
'Adding full bibliography for 7242759--7242768.cif.'
_cod_original_cell_volume        479.35(9)
_cod_database_code               7242762
_shelx_shelxl_version_number     2018/3
_shelx_space_group_comment
;
The symmetry employed for this shelxl refinement is uniquely defined
by the following loop, which should always be used as a source of
symmetry information in preference to the above space-group names.
They are only intended as comments.
;
_shelx_estimated_absorpt_t_max   0.985
_shelx_estimated_absorpt_t_min   0.943
_olex2_refinement_description
;
1. Fixed Uiso
 At 1.2 times of:
  All C(H) groups
2.a Aromatic/amide H refined with riding coordinates:
 C5(H5), C3(H3), C6(H6), C4(H4)
;
_shelx_res_file
;
TITL BKS-SS-DI-ANTH-238K-SS in P21/c #14
    anthraquinone-238k.res
    created by SHELXL-2018/3 at 17:38:16 on 31-Mar-2021
REM reset to P21/c #14
CELL 0.71073 7.886358 3.948778 15.773956 90 102.6244 90
ZERR 2 0.000665 0.000465 0.001968 0 0.01 0
LATT 1
SYMM -X,0.5+Y,0.5-Z
SFAC C H O
UNIT 28 16 4

L.S. 4
PLAN  5
SIZE 0.62 0.26 0.16
TEMP -35.15(2)
CONF
BOND $H
HTAB
MORE -1
fmap 2
acta 50
REM <olex2.extras>
REM <HklSrc "%.\\Anthraquinone-238K.hkl">
REM </olex2.extras>

WGHT    0.058400
FVAR      13.34275
C2    1    0.435841    0.653653    0.414916    11.00000    0.03694    0.03485 =
         0.03418   -0.00337    0.00704   -0.00336
C7    1    0.326561    0.639396    0.473984    11.00000    0.03296    0.03476 =
         0.03730   -0.00529    0.00711   -0.00345
C1    1    0.615080    0.513027    0.438604    11.00000    0.03530    0.04518 =
         0.03718   -0.00321    0.01187   -0.00314
C5    1    0.101002    0.914108    0.368511    11.00000    0.03707    0.04638 =
         0.05467   -0.00372   -0.00282    0.00356
AFIX  43
H5    2   -0.012107    1.002964    0.352796    11.00000   -1.20000
AFIX   0
O1    3    0.711196    0.523326    0.387194    11.00000    0.04724    0.09767 =
         0.04738    0.01110    0.02375    0.00981
C3    1    0.375881    0.798142    0.333488    11.00000    0.04875    0.04684 =
         0.03833   -0.00047    0.01033   -0.00138
AFIX  43
H3    2    0.449213    0.808032    0.293908    11.00000   -1.20000
AFIX   0
C6    1    0.157970    0.771505    0.449358    11.00000    0.03456    0.04507 =
         0.05049   -0.00247    0.00979    0.00172
AFIX  43
H6    2    0.083319    0.762654    0.488316    11.00000   -1.20000
AFIX   0
C4    1    0.208738    0.927749    0.310229    11.00000    0.05415    0.04765 =
         0.03976    0.00261   -0.00242    0.00232
AFIX  43
H4    2    0.168818    1.024549    0.255027    11.00000   -1.20000
AFIX   0
HKLF 4




REM  BKS-SS-DI-ANTH-238K-SS in P21/c #14
REM wR2 = 0.1304, GooF = S = 1.036, Restrained GooF = 1.036 for all data
REM R1 = 0.0489 for 714 Fo > 4sig(Fo) and 0.0800 for all 1052 data
REM 73 parameters refined using 0 restraints

END

WGHT      0.0584      0.0000

REM No hydrogen bonds found for HTAB generation

REM Highest difference peak  0.144,  deepest hole -0.150,  1-sigma level  0.039
Q1    1   0.4771  0.7931  0.2773  11.00000  0.05    0.14
Q2    1   0.0581  0.7462  0.5024  11.00000  0.05    0.13
Q3    1   0.3589  0.6701  0.4548  11.00000  0.05    0.12
Q4    1   0.7653  0.5306  0.3202  11.00000  0.05    0.12
Q5    1  -0.1493  1.0584  0.2789  11.00000  0.05    0.11
;
_shelx_res_checksum              43339
_shelx_hkl_file
;
   0   0  -3 8.61751 79.6393   1
   0   0   3-176.610 136.631   1
   0   0  -4 200532. 2204.68   1
   0   0   4 202498. 2232.12   1
   0   0   5-104.957 157.234   1
   0   0  -5-83.7548 112.891   1
   0   0  -6 608.733 158.425   1
   0   0   6 457.628 177.465   1
   0   0   7-146.939 191.049   1
   0   0   8 16823.9 994.934   1
   0   0   9-348.476 232.924   1
   0   0  10 399.929 330.982   1
   0   0  11 155.637 248.259   1
   0   0  12 2974.48 550.718   1
   0   0  13 104.090 307.441   1
   0   0  14 5097.34 734.606   1
   0   0  15-189.150 327.272   1
   0   0  16 1827.68 549.017   1
   0   0  17 28.0461 405.835   1
   0   0  18-55.3974 355.566   1
   0   0  19 1150.68 614.038   1
   0   1   0-64.5057 87.6152   2
   0   1  -1 166753. 1882.80   2
   0  -1   1 164783. 1924.22   2
   0   1   1 166503. 1810.92   1
   0   1  -2 594120. 4007.51   2
   0   1   2 589589. 3951.15   1
   0  -1   2 588787. 4080.57   2
   0  -1  -2 594536. 3904.30   1
   0  -1   3 182586. 2267.42   2
   0   1   3 179245. 2244.66   1
   0  -1  -3 183090. 2156.01   1
   0   1  -3 185088. 2315.70   2
   0  -1  -4 27359.6 883.772   1
   0   1   4 25142.8 929.114   1
   0  -1   4 25075.4 913.632   2
   0   1  -4 27774.8 972.631   2
   0  -1  -5 143447. 2199.47   1
   0  -1   5 147003. 2312.89   2
   0   1  -5 147071. 2164.97   1
   0   1   5 142810. 2403.09   1
   0  -1   6 45020.9 1412.61   2
   0   1   6 41621.9 1400.22   1
   0   1  -6 44741.9 1304.29   1
   0  -1   7 22972.9 1097.17   2
   0   1   7 22896.8 1117.89   1
   0   1   8 16356.0 1005.14   1
   0  -1   8 17707.6 1041.22   2
   0  -1   9 6577.57 696.288   2
   0   1   9 7302.78 712.821   1
   0   1  10 1476.33 380.694   1
   0  -1  10 3114.16 558.633   2
   0  -1  11 265.906 336.933   2
   0   1  11-221.242 318.027   1
   0  -1  12 2129.05 572.041   2
   0   1  12 2212.02 517.412   1
   0   1  13 88.3932 408.980   1
   0  -1  13 739.399 520.437   2
   0   1  14 640.096 309.228   1
   0  -1  14 798.824 456.522   2
   0   1  15 997.384 430.119   1
   0  -1  15 857.790 433.747   2
   0   1  16-549.846 514.638   1
   0  -1  16 972.552 518.181   2
   0   1  17 640.094 431.178   1
   0  -1  17 317.361 474.173   2
   0   1  18 1062.08 579.614   1
   0  -1  18-335.298 422.434   2
   0   1  19 527.148 529.111   1
   0  -1  19 1135.11 700.540   2
   0  -1  20 1733.89 805.893   2
   0   2   1 15281.4 722.123   1
   0   2  -1 14087.7 428.593   3
   0   2  -2 3912.06 261.463   3
   0   2   2 4567.42 419.543   1
   0  -2   3 31674.5 1241.40   2
   0   2   3 32009.3 1148.95   1
   0  -2   4 22791.6 1085.21   2
   0  -2  -4 21890.6 546.060   3
   0   2   5 64241.6 1836.85   1
   0  -2   5 64174.5 1850.81   2
   0  -2   6 7388.77 642.764   2
   0   2   6 7586.36 681.789   1
   0  -2   7 4259.73 564.097   2
   0   2   7 6017.14 645.035   1
   0  -2   8 5960.92 680.722   2
   0   2   8 5604.40 685.785   1
   0   2   9-34.1137 280.249   1
   0  -2   9-23.6772 217.103   2
   0   2  10 5043.62 728.365   1
   0  -2  10 4154.72 596.172   2
   0   2  11 599.909 351.387   1
   0  -2  11 624.983 298.351   2
   0   2  12 3943.84 722.546   1
   0  -2  12 3980.04 626.349   2
   0  -2  13 5070.59 748.456   2
   0   2  13 5860.89 860.703   1
   0  -2  14 782.133 440.277   2
   0   2  14 575.700 353.526   1
   0   2  15 5706.16 902.107   1
   0  -2  15 7713.91 1021.32   2
   0  -2  16 9846.69 1164.44   2
   0   2  16 7129.89 1145.17   1
   0  -2  17 546.969 366.212   2
   0   2  17 1004.61 589.089   1
   0  -2  18-620.338 400.282   2
   0  -2  19 613.501 496.830   2
   0   3   0 80.1868 83.0414   1
   0   3   1 353.735 160.690   1
   0   3  -1 344.160 152.335   1
   0   3  -1 92.1322 32.1060   3
   0   3   2 9006.39 711.829   1
   0   3  -2 7001.14 372.256   3
   0   3   3 6461.40 612.051   1
   0   3  -3 5121.79 352.891   3
   0   3   4 712.195 210.887   1
   0  -3   4 880.957 274.940   2
   0   3  -4 677.317 146.119   3
   0   3  -5 527.948 136.584   3
   0  -3   5 358.990 212.002   2
   0  -3   6 1104.68 327.667   2
   0   3  -6 1434.15 259.299   3
   0   3   6 2158.60 432.875   1
   0   3   7-273.580 222.332   1
   0  -3   7-137.249 191.045   2
   0   3   8 1733.06 396.883   1
   0  -3   8 1414.01 377.523   2
   0  -3   9 3670.32 602.795   2
   0   3   9 3599.95 614.346   1
   0  -3  10 554.795 228.140   2
   0   3  10 1321.16 416.581   1
   0  -3  11 1765.90 488.903   2
   0   3  11 1215.83 400.038   1
   0   3  12 2834.20 659.699   1
   0  -3  12 2301.95 516.092   2
   0  -3  13-309.755 342.026   2
   0   3  13 594.450 433.625   1
   0  -3  14 439.729 303.690   2
   0   3  14-390.198 561.372   1
   0   3  15 473.415 447.542   1
   0  -3  15 669.523 339.610   2
   0  -3  16 1962.30 564.731   2
   0   4   0-37.4579 81.3946   1
   0   4  -1 415.970 170.004   1
   0   4   1 270.487 120.735   1
   0   4   2 117.939 112.473   1
   0   4   3 120.750 131.516   1
   0   4   4 41.0677 186.885   1
   0   4   5 60.9624 170.830   1
   0   4   6 505.406 295.300   1
   0  -4   7 423.982 272.631   2
   0   4   7 354.344 233.518   1
   0  -4   8 1354.10 423.431   2
   0   4   8 2106.25 567.085   1
   0  -4   9 148.757 244.582   2
   0   4   9-456.856 318.648   1
   0   4  10 2422.21 650.515   1
   0  -4  10 2182.74 543.989   2
   0   4  11 2211.32 591.338   1
   0  -4  11 1620.99 466.593   2
   0  -4  12 223.134 195.685   2
   0   4  12 1465.65 600.106   1
  -1   0  16-189.132 300.689   1
  -1   0  15-39.1960 330.528   1
  -1   0  14 2697.95 624.622   1
  -1   0  13 54.8626 288.691   1
  -1   0  12 37849.1 1820.03   1
  -1   0  11 598.853 391.129   1
  -1   0  10-41.8270 260.934   1
  -1   0   9-178.815 269.308   1
  -1   0   8 18113.6 1015.25   1
  -1   0   7-192.259 230.648   1
  -1   0   6 87347.5 1874.35   1
   1   0  -6 86367.0 1777.26   1
  -1   0   5-120.300 160.005   1
   1   0  -5-107.693 143.654   1
  -1   0   4 85662.4 1596.60   1
   1   0  -4 89461.9 1536.57   1
   1   0  -3 38.5378 50.0739   3
   1   0  -3 43.3631 105.589   1
  -1   0   2 265141. 2028.58   3
  -1   0  -2 11867.7 402.273   1
   1   0   2 11392.0 399.520   1
   1   0   3 159.436 125.590   1
  -1   0  -3 20.0714 65.9792   1
   1   0   4 32258.4 908.344   1
  -1   0  -4 33323.9 862.639   1
   1   0   5 72.1950 113.331   1
  -1   0  -5-27.7257 99.0964   1
  -1   0  -6 300852. 3244.66   1
   1   0   6 299153. 3476.14   1
   1   0   7-1.19417 161.756   1
   1   0   8 190121. 3171.45   1
   1   0   9-343.802 195.545   1
   1   0  10 10927.6 875.468   1
   1   0  11-469.242 319.193   1
   1   0  12 6871.87 780.157   1
   1   0  13-270.478 323.745   1
   1   0  14 2079.51 567.769   1
   1   0  15-335.701 323.685   1
   1   0  16 7722.01 1024.88   1
   1   0  17-124.266 311.559   1
   1   0  18-620.031 417.495   1
   1   0  19 679.368 610.596   1
  -1  -1  20 696.889 528.834   2
  -1  -1  19 3220.99 686.536   2
  -1   1  19 2236.56 749.750   1
  -1   1  18 887.202 415.679   1
  -1  -1  18-470.135 448.441   2
  -1  -1  17-252.713 395.261   2
  -1   1  17-433.116 394.880   1
  -1   1  16 563.463 475.362   1
  -1  -1  16 1109.10 506.207   2
  -1  -1  15 36341.4 1962.12   2
  -1   1  15 30362.0 1978.99   1
  -1  -1  14 25963.0 1622.64   2
  -1   1  14 27521.5 1794.30   1
  -1   1  13 3066.90 652.687   1
  -1  -1  13 2531.45 562.610   2
  -1   1  12 2495.31 581.156   1
  -1  -1  12 3049.24 558.826   2
  -1  -1  11 4836.19 659.611   2
  -1   1  11 4665.53 647.176   1
  -1  -1  10 385.883 240.239   2
  -1   1  10 904.953 405.434   1
  -1  -1   9 4572.80 526.212   2
  -1   1   9 3183.85 522.220   1
  -1   1   8 7127.73 669.854   1
  -1  -1   8 6253.89 577.177   2
  -1   1   7 2217.16 384.827   1
  -1  -1   7 2475.67 348.227   2
  -1  -1   6 16398.0 742.989   2
  -1   1   6 16718.4 851.506   1
   1  -1  -5 211.248 119.728   1
  -1   1   5 169.806 177.942   1
  -1  -1   5 34.8982 104.347   2
   1   1  -4 4676.54 376.317   2
   1  -1  -4 5616.10 384.319   1
  -1   1   4 4523.89 386.604   1
  -1  -1   4 5257.72 359.537   2
  -1  -1   3 73881.2 1244.26   2
  -1   1   3 72925.4 1336.69   1
   1  -1  -3 73812.0 1243.63   1
   1   1  -3 72723.8 1287.48   3
   1  -1  -3 73084.9 960.072   3
   1   1  -3 70490.4 1247.42   2
   1  -1  -2 262.768 72.9709   1
   1  -1  -2 285.246 61.1197   3
  -1  -1   2 366.905 91.9062   2
   1   1  -2 344.185 97.9616   3
  -1   1   2 436.502 192.240   2
   1   1  -2 266.839 94.0422   2
   1  -1  -1 865.561 105.551   1
   1   1  -1 1014.25 125.968   3
   1  -1  -1 953.886 162.375   2
  -1   1   1 1008.59 88.5598   3
   1  -1  -1 1036.24 100.162   3
  -1  -1   1 1026.24 131.179   3
  -1   1   1 1204.97 135.198   1
   1   1  -1 1371.47 186.629   2
  -1   1   1 942.531 160.773   2
   1  -1   0 435835. 3348.91   2
  -1   1   0 431122. 2060.89   1
  -1   1   0 430869. 3292.90   2
   1   1   0 433137. 2763.32   3
  -1  -1   0 433151. 2685.93   3
  -1   1   0 426262. 2550.28   3
  -1  -1  -1 994044. 4709.19   3
   1  -1   1 997385. 5713.67   2
   1   1   1 998671. 4738.59   3
  -1   1  -2 96314.3 1742.84   2
   1   1   2 98341.6 1722.38   1
  -1   1  -2 97060.0 966.135   1
   1  -1   2 97827.5 1729.17   2
  -1  -1  -2 101709. 1393.45   3
   1   1   3 26825.8 974.690   1
  -1   1  -3 28518.6 1013.08   2
   1  -1   3 28121.2 990.126   2
  -1   1  -3 28387.7 615.568   1
  -1  -1  -3 29757.8 973.231   1
   1   1   4 955.827 202.406   1
   1  -1   4 733.815 264.502   2
  -1   1  -4 850.651 145.036   1
  -1   1  -5 113353. 1671.82   1
   1   1   5 110184. 2205.45   1
   1  -1   6 26300.5 976.388   1
  -1   1  -6 26676.3 899.322   1
   1   1   6 26044.8 1141.21   1
   1  -1   6 26318.1 1204.98   2
   1  -1   7 17201.8 875.202   1
  -1   1  -7 18128.8 814.537   1
   1   1   7 16061.4 964.226   1
   1   1   8 22613.5 1221.70   1
   1  -1   8 21533.9 1036.13   1
   1  -1   8 20729.9 1198.04   2
   1  -1   9 5157.07 678.148   2
   1   1   9 3965.55 580.567   1
   1  -1   9 4773.16 561.755   1
   1  -1  10 18567.2 1378.16   2
   1  -1  10 20807.9 1214.65   1
   1  -1  11 850.122 431.875   2
   1  -1  11-344.525 287.156   1
   1   1  11 541.011 360.938   1
   1   1  12 519.480 303.144   1
   1  -1  12 486.351 268.738   1
   1   1  13 3408.07 623.174   1
   1  -1  13 3469.12 748.589   2
   1  -1  13 2751.49 657.252   1
   1  -1  14 4213.40 760.002   2
   1   1  14 4283.68 783.259   1
   1   1  15 2925.77 679.149   1
   1  -1  15 3509.38 770.916   2
   1   1  16-315.316 360.242   1
   1  -1  16-65.3524 397.598   2
   1   1  17 1641.49 756.018   1
   1  -1  17 1263.18 556.497   2
   1  -1  18-946.177 570.831   2
   1   1  18 201.012 440.430   1
   1  -1  19 270.023 430.043   2
  -1   2  18 1209.52 570.634   1
  -1  -2  18 1092.89 471.358   2
  -1  -2  17 11759.7 1214.91   2
  -1   2  17 10551.7 1317.14   1
  -1  -2  16 13139.1 1208.71   2
  -1   2  16 12811.6 1424.80   1
  -1  -2  15 4571.17 730.986   2
  -1   2  15 5219.00 873.589   1
  -1   2  14 1452.27 560.898   1
  -1  -2  14 482.209 263.975   2
  -1  -2  13 761.218 303.825   2
  -1   2  13 939.295 409.388   1
  -1  -2  12 993.166 364.600   2
  -1   2  12 1024.46 398.755   1
  -1  -2  11 1730.65 400.534   2
  -1   2  11 1581.46 459.502   1
  -1   2  10 1978.30 467.611   1
  -1  -2  10 1349.16 323.110   2
  -1   2   9 1608.33 437.397   1
  -1  -2   9 1377.14 322.651   2
  -1  -2   8 5845.77 599.266   2
  -1   2   8 5542.50 647.637   1
  -1   2   7 2209.42 387.099   1
  -1  -2   7 2169.22 357.248   2
   1   2  -6 14764.5 787.948   3
   1  -2  -6 16655.4 600.301   3
  -1   2   6 17522.3 978.253   1
  -1  -2   6 16061.8 902.197   2
   1   2  -5 4626.22 409.187   3
  -1   2   5 5042.07 494.521   1
   1  -2  -5 4049.15 243.896   3
  -1  -2   5 3952.46 441.862   2
  -1  -2   4 20084.6 960.892   2
   1   2  -4 20279.5 783.802   3
  -1   2   4 21799.5 945.541   1
  -1   2   3 2176.86 297.844   1
   1  -2  -3 1868.79 266.338   1
   1   2  -3 2285.28 248.145   3
  -1  -2   3 1664.54 278.322   2
   1   2  -2 5933.93 374.812   3
  -1   2   2 5084.21 398.768   1
  -1   2   1 17370.1 667.362   1
   1   2  -1 17102.5 574.209   3
   1  -2   0 145.206 84.9736   2
  -1  -2   0 200.979 60.4310   3
  -1   2   0 117.866 39.2879   3
  -1   2   0 126.485 60.6250   1
   1   2   0 323.858 81.6916   3
   1   2   1 6638.39 534.267   1
   1  -2   1 6962.06 595.427   2
  -1   2  -1 6610.69 382.341   1
  -1  -2  -1 8118.57 357.892   3
   1  -2   2 163319. 2899.53   2
   1   2   2 170086. 2827.18   1
  -1  -2  -2 170715. 1722.93   3
  -1  -2  -3 203208. 2030.42   3
   1   2   3 200000. 3182.31   1
   1  -2   3 198467. 3284.29   2
   1   2   4 90695.7 2215.69   1
   1  -2   4 90739.7 2264.18   2
  -1  -2  -4 91608.2 1486.29   3
   1   2   5 4696.69 528.616   1
  -1  -2  -5 4837.77 362.835   3
   1  -2   5 4525.85 544.999   2
   1  -2   6 6211.04 637.612   2
  -1   2  -6 6603.15 473.055   1
   1   2   6 6444.67 680.666   1
   1   2   7 1476.19 396.379   1
  -1   2  -7 1320.64 279.171   1
   1  -2   7 929.304 325.566   2
   1  -2   8 173.884 272.982   2
   1   2   8 707.160 313.861   1
   1   2   9 668.465 392.338   1
   1  -2   9 340.192 327.861   2
   1   2  10 920.094 434.006   1
   1  -2  10 439.177 281.430   2
   1  -2  11 306.053 276.720   2
   1   2  11 432.084 252.912   1
   1  -2  12 6047.40 862.657   2
   1   2  12 5742.70 883.372   1
   1  -2  13 812.229 414.041   2
   1   2  13 349.593 282.436   1
   1   2  14 513.709 350.939   1
   1  -2  14 60.9688 328.902   2
   1   2  15 658.542 397.618   1
   1  -2  15 760.036 442.331   2
   1  -2  16 457.148 339.942   2
   1   2  16 969.144 558.229   1
   1   2  17 470.444 535.540   1
   1  -2  17 850.700 519.037   2
   1  -2  18-644.657 567.749   2
  -1  -3  17 1172.83 375.676   2
   1   3 -16-20.4730 125.779   3
  -1   3  16 512.906 446.991   1
  -1  -3  15 241.024 209.373   2
  -1   3  15-300.207 480.810   1
   1   3 -15 177.479 129.777   3
  -1   3  14 64.9831 352.781   1
   1   3 -14 225.532 139.216   3
  -1  -3  14 7.35132 193.239   2
  -1   3  13 110.907 355.684   1
  -1  -3  13 230.307 201.654   2
   1   3 -13 40.7052 156.040   3
   1   3 -12-29.8221 82.3749   3
  -1  -3  12 177.636 151.877   2
  -1   3  12 7.72024 279.527   1
  -1  -3  11 5158.75 692.452   2
  -1   3  11 6533.24 900.884   1
   1   3 -11 4674.36 598.267   3
   1   3 -10 2860.85 451.627   3
  -1  -3  10 3222.12 551.239   2
  -1   3  10 3351.83 623.168   1
  -1  -3   9 3053.60 518.272   2
   1   3  -9 2487.84 384.863   3
  -1   3   9 2895.36 555.813   1
  -1   3   8 852.010 249.154   1
  -1  -3   8 1346.45 361.092   2
   1   3  -8 1333.42 272.230   3
  -1  -3   7 1764.08 406.251   2
   1   3  -7 1252.83 255.293   3
  -1  -3   6-84.5093 146.761   2
   1   3  -6 200.783 101.953   3
  -1   3   6 238.304 201.045   1
  -1  -3   5 1202.27 291.748   2
  -1   3   5 1338.82 304.579   1
   1   3  -5 1148.00 212.344   3
  -1   3   4 11953.5 821.625   1
   1   3  -4 11191.8 632.560   3
   1   3  -3 27589.7 906.324   3
  -1   3   3 26396.8 1158.60   1
  -1   3   2 155.177 96.5422   1
   1   3  -2 294.228 90.1781   3
  -1   3   1 4210.16 414.498   1
   1   3  -1 3600.04 276.433   3
  -1   3   0 468.442 174.514   1
   1   3   0 320.892 154.210   1
  -1   3  -1 802.261 183.989   1
   1   3   1 802.920 230.175   1
   1  -3   2 6636.59 724.667   2
  -1   3  -2 6488.69 484.175   1
  -1   3  -2 5896.14 316.213   3
   1   3   2 6513.65 644.847   1
   1   3   3 1774.05 358.888   1
   1  -3   3 1729.64 419.099   2
  -1  -3  -3 1207.58 118.858   3
   1  -3   4 11756.0 967.511   2
   1   3   4 12251.7 985.021   1
   1  -3   5 10436.3 964.732   2
   1   3   5 10275.0 905.828   1
   1   3   6 17133.3 1185.39   1
   1  -3   6 16059.7 1159.81   2
   1   3   7-70.5054 274.425   1
   1  -3   7 140.548 231.383   2
   1   3   8-140.625 208.104   1
   1  -3   8 128.772 192.162   2
   1  -3   9 1419.93 424.182   2
   1   3   9 1604.04 449.595   1
   1  -3  10 1605.94 424.119   2
   1   3  10 1290.22 461.376   1
   1  -3  11 1055.28 323.794   2
   1   3  11 515.728 398.493   1
   1   3  12 256.248 389.204   1
   1  -3  12 972.736 375.689   2
   1  -3  13 378.326 342.118   2
   1   3  13-123.022 319.470   1
   1   3  14 447.640 379.040   1
   1  -3  14-17.6406 282.861   2
   1  -3  15-19.3613 342.272   2
  -1  -4  14 316.782 210.821   2
  -1  -4  13 1209.19 440.497   2
  -1   4  13 752.462 422.218   1
  -1   4  12 1555.88 550.788   1
  -1  -4  12 632.326 264.731   2
  -1   4  11-90.8531 343.615   1
  -1  -4  11-80.7781 210.056   2
  -1   4  10 1847.85 544.442   1
  -1  -4  10 1777.19 477.333   2
  -1   4   9 2651.46 606.595   1
  -1  -4   9 1335.38 409.347   2
  -1   4   8 490.004 316.044   1
  -1   4   7-307.565 316.102   1
  -1   4   6 105.978 195.189   1
  -1   4   5 3458.65 535.094   1
  -1   4   4 2663.66 454.138   1
   1   4  -2 5787.56 649.782   1
   1   4  -1 4206.60 553.873   1
   1   4   0 185.923 157.178   1
   1   4   1 116.331 160.297   1
   1   4   2-35.4918 119.420   1
   1   4   3 159.799 125.366   1
   1   4   4 41.7246 169.589   1
   1  -4   5 2349.49 501.537   2
   1   4   5 2473.07 501.391   1
   1  -4   6 352.722 265.804   2
   1   4   6-212.513 250.391   1
   1   4   7 830.060 349.936   1
   1  -4   7 977.462 361.892   2
   1   4   8-229.455 350.608   1
   1  -4   8 99.1303 180.026   2
   1  -4   9-98.0723 247.039   2
   1   4   9 85.1568 256.642   1
   1  -4  10 237.243 204.165   2
   1   4  10 276.780 375.244   1
   1   4  11 941.582 476.192   1
   1  -4  11 550.288 294.113   2
   2   0  -7 62.5006 63.2873   3
   2   0  -6 2786.21 319.316   3
   2   0  -5-153.618 91.5211   3
   2   0  -5 97.5376 155.699   1
  -2   0   4 75663.1 1437.67   3
   2   0  -4 75996.9 1481.61   3
   2   0  -3-50.3856 59.3875   3
  -2   0   3 19.4479 59.6184   3
   2   0  -2 105906. 1565.73   3
  -2   0   2 111934. 1626.39   3
   2   0  -1 30.3997 60.2160   3
  -2   0   1 14.9746 44.7238   3
   2   0   0 165530. 2033.10   3
  -2   0   0 170072. 2009.01   3
  -2   0  -1 18.7154 49.0707   3
   2   0   1 112.581 78.5491   3
  -2   0  -2 78878.1 1487.09   3
   2   0   2 77038.2 1300.79   1
   2   0   3-100.752 91.9623   1
  -2   0  -4 30881.3 932.879   1
   2   0   4 30927.8 949.892   1
  -2   0  -5 142.875 97.3252   1
   2   0   5-17.3844 116.373   1
   2   0   6 14889.3 795.107   1
   2   0   7-13.5789 165.311   1
   2   0   8 3867.09 488.460   1
   2   0   9 105.075 228.558   1
   2   0  10 242.863 208.039   1
   2   0  11 282.380 269.649   1
   2   0  12-754.195 347.211   1
   2   0  13 77.1212 311.074   1
   2   0  14 11417.0 1122.99   1
   2   0  15-137.551 309.162   1
   2   0  16 2640.32 659.448   1
   2   0  17 526.099 416.150   1
   2   0  18 892.202 485.195   1
   2   0  19 1074.08 517.041   1
  -2   1  19 6468.56 1062.18   1
  -2   1  18 280.110 437.806   1
  -2  -1  17 1174.35 455.715   2
  -2   1  17 1769.79 677.608   1
  -2   1  16 13789.1 1369.08   1
  -2  -1  16 15538.0 1282.60   2
  -2  -1  15 10334.2 989.012   2
  -2   1  15 9781.14 1116.40   1
  -2  -1  14 4408.07 658.744   2
  -2   1  14 4421.79 760.712   1
  -2   1  13 9966.53 1024.06   1
  -2  -1  13 10828.1 924.010   2
  -2   1  12 32381.6 1761.02   1
  -2  -1  12 33347.1 1481.07   2
  -2  -1  11 21669.4 1105.23   2
  -2   1  11 26411.6 1510.40   1
  -2  -1  10 7732.68 629.074   2
  -2   1  10 8388.94 844.167   1
  -2   1   9 8910.10 791.967   1
  -2  -1   9 9215.10 620.472   2
   2  -1  -8 8778.07 608.629   3
  -2   1   8 8609.09 758.561   1
  -2  -1   8 9028.16 567.466   2
   2   1  -8 8874.46 678.833   3
  -2   1   7 26381.0 1200.61   1
   2  -1  -7 28810.1 1000.16   3
  -2  -1   7 27355.0 881.237   2
   2   1  -7 27769.0 1131.04   3
   2   1  -6 47178.5 1402.18   3
  -2  -1   6 51221.2 1099.05   2
  -2   1   6 48973.3 1508.82   1
   2  -1  -6 49865.8 1219.48   3
  -2   1   5 24199.8 982.852   1
  -2  -1   5 23258.8 691.406   2
   2   1  -5 22962.1 749.035   2
   2  -1  -5 23504.6 880.389   1
   2  -1  -5 24486.8 810.893   3
   2   1  -5 23982.6 928.212   3
  -2   1   4 403.967 182.153   1
   2   1  -4 415.492 128.760   3
   2  -1  -4 84.7284 100.307   1
   2  -1  -4 431.613 118.082   3
  -2   1   4 314.851 122.152   2
  -2  -1   4 299.800 105.134   3
  -2  -1   4 339.234 90.7012   2
   2   1  -4 354.313 100.666   2
  -2   1   3 5108.38 325.046   3
  -2  -1   3 4308.44 366.673   3
   2  -1  -3 4936.97 313.339   3
   2   1  -3 4901.63 285.450   2
  -2   1   3 5493.81 395.542   1
   2  -1  -3 4765.37 320.512   1
  -2   1   3 5355.91 381.252   2
   2   1  -3 5661.95 414.917   3
   2   1  -2 4007.16 279.382   2
   2  -1  -2 3397.80 287.294   2
  -2   1   2 3675.98 275.488   1
   2  -1  -2 3430.94 237.112   1
  -2   1   2 3320.23 301.867   2
   2   1  -2 3112.39 296.359   3
   2  -1  -2 3005.74 247.908   3
  -2   1   2 3804.47 284.868   3
  -2  -1   2 3804.05 323.444   3
  -2   1   1 6961.44 361.956   3
   2   1  -1 6903.99 421.020   3
  -2  -1   1 7352.22 442.319   3
   2  -1  -1 7390.21 387.448   3
   2  -1  -1 6075.86 405.803   2
  -2   1   1 6346.96 409.080   2
   2  -1  -1 7160.10 269.459   1
  -2   1   0 5692.94 416.825   2
   2   1   0 5356.68 380.988   3
  -2  -1   0 5442.76 363.513   3
  -2   1   0 6128.20 362.296   3
   2  -1   0 5686.19 412.323   2
   2  -1   1 43376.0 1212.55   2
  -2   1  -1 43799.0 1231.06   2
  -2   1  -1 45324.9 1049.75   3
  -2  -1  -1 43113.2 1058.65   3
   2   1   1 44052.6 1139.04   3
  -2   1  -2 5896.15 488.239   2
   2  -1   2 5300.89 475.010   2
   2   1   2 5833.65 479.140   1
  -2  -1  -2 5505.14 404.675   3
   2  -1   3 5937.10 270.129   1
  -2   1  -3 6257.40 259.933   1
   2  -1   3 5790.97 528.569   2
  -2  -1  -3 7268.28 486.324   3
   2   1   3 5857.81 502.250   1
   2  -1   4-32.3504 103.757   1
   2  -1   4-251.955 230.327   2
   2   1   4-81.6438 124.719   1
  -2  -1  -4 106.937 88.6086   3
  -2   1  -4 37.6159 53.2731   1
   2  -1   5 42131.0 1046.14   1
   2   1   5 41854.4 1477.86   1
   2  -1   5 41100.3 1536.29   2
  -2   1  -5 42629.2 946.884   1
  -2   1  -6 504.453 88.8426   1
   2  -1   6 429.358 292.571   2
   2   1   6 724.591 198.272   1
   2  -1   6 575.573 183.830   1
  -2   1  -7 28634.4 956.744   1
   2   1   7 29016.4 1342.56   1
   2  -1   7 30585.2 1139.60   1
   2   1   8 9686.85 816.983   1
   2  -1   8 10578.6 733.417   1
   2  -1   8 8263.76 886.041   2
   2  -1   9 29455.8 1349.04   1
   2  -1   9 26203.3 1583.13   2
   2  -1  10 445.609 465.124   2
   2  -1  10 205.012 237.013   1
   2   1  11 310.658 331.784   1
   2  -1  11 519.324 304.684   1
   2   1  12 6705.59 848.162   1
   2  -1  12 5197.42 713.638   1
   2  -1  12 4655.26 793.242   2
   2  -1  13-689.361 545.770   2
   2   1  13 296.876 374.843   1
   2  -1  13-57.1637 340.261   1
   2  -1  14 313.785 407.652   2
   2   1  14-259.348 320.236   1
   2  -1  14 205.573 352.633   1
   2  -1  15-1014.01 609.095   2
   2   1  15 791.734 484.924   1
   2  -1  15-280.671 435.670   1
   2  -1  16 3038.27 790.964   2
   2  -1  16 2054.64 578.580   1
   2   1  16 2385.87 611.101   1
   2   1  17 3227.17 802.734   1
   2  -1  17 2945.45 866.984   2
   2  -1  18 404.813 466.803   2
   2   1  18 575.058 556.798   1
   2  -2 -19 584.606 207.484   3
   2   2 -18 1062.13 412.721   3
   2  -2 -18 901.248 262.678   3
   2  -2 -17 3986.58 629.143   3
   2   2 -17 3947.31 736.558   3
  -2   2  17 3982.07 827.241   1
   2  -2 -16 288.877 171.577   3
   2   2 -16 439.916 280.006   3
  -2   2  16 515.850 534.618   1
  -2  -2  16 341.324 275.877   2
   2  -2 -15 440.209 223.862   3
   2   2 -15 75.0905 126.643   3
  -2  -2  15 139.740 253.984   2
  -2   2  15 519.727 304.601   1
  -2   2  14 1005.32 522.908   1
  -2  -2  14 540.125 244.427   2
   2  -2 -14 454.607 170.642   3
   2   2 -14 577.343 259.635   3
  -2  -2  13 658.265 257.982   2
  -2   2  13 330.098 305.890   1
   2  -2 -13 610.335 207.719   3
   2   2 -13 670.774 227.190   3
   2  -2 -12-155.857 150.531   3
   2   2 -12-99.0456 86.7366   3
  -2   2  12 175.110 321.078   1
  -2  -2  12-94.7115 196.975   2
   2   2 -11 1465.93 320.866   3
  -2  -2  11 1298.97 327.768   2
  -2   2  11 952.700 406.827   1
   2  -2 -11 1150.22 256.373   3
  -2   2  10 3838.76 627.971   1
  -2  -2  10 3653.67 466.849   2
   2  -2 -10 3615.72 404.813   3
   2   2 -10 4122.86 533.461   3
  -2   2   9 32973.5 1568.97   1
  -2  -2   9 31316.7 1305.73   2
   2  -2  -9 32404.0 1135.60   3
   2   2  -9 31586.8 1399.79   3
  -2   2   8 1550.14 392.031   1
   2  -2  -8 1594.82 224.884   3
   2   2  -8 1658.80 314.993   3
  -2  -2   8 1272.54 282.631   2
   2  -2  -7 108.054 57.7213   3
  -2  -2   7 31.1206 106.940   2
   2   2  -7 136.969 84.6911   3
   2  -2  -6 7047.27 416.518   3
  -2  -2   6 5979.41 531.461   2
   2   2  -6 7126.24 575.341   3
  -2   2   6 6717.91 617.924   1
   2  -2  -5 978.423 134.506   3
   2   2  -5 923.274 206.176   3
  -2  -2   5 800.518 189.019   2
  -2   2   5 791.060 213.086   1
  -2   2   4 21723.4 894.709   1
   2  -2  -4 19797.0 817.677   1
   2   2  -4 22588.5 924.926   3
   2  -2  -4 19026.2 538.170   3
   2  -2  -3 3649.26 220.089   3
  -2   2   3 4120.08 355.203   1
   2  -2  -3 4083.55 345.217   1
   2   2  -3 4459.10 400.300   3
  -2   2   2 33903.1 889.618   1
   2   2  -2 34321.4 1043.54   3
  -2   2   2 34184.5 665.336   3
  -2  -2   2 35193.7 1050.24   3
  -2   2   1 24404.5 613.485   3
  -2   2   1 25441.7 665.126   1
  -2  -2   1 25173.2 864.816   3
   2   2  -1 26603.3 895.177   3
   2   2   0 16230.0 705.329   3
  -2   2   0 14838.0 425.970   1
   2  -2   0 14424.3 879.024   2
  -2   2   0 15742.8 549.480   3
  -2  -2   0 15400.6 660.353   3
   2   2   1 62104.3 1365.43   3
  -2  -2  -1 60831.9 1291.84   3
   2  -2   1 60879.4 1813.55   2
  -2   2  -1 58974.5 1214.15   3
   2  -2   2 95555.9 2317.29   2
   2   2   2 93623.0 2281.67   1
  -2  -2  -2 93790.0 1617.65   3
   2   2   3 695.422 228.856   1
  -2  -2  -3 668.962 143.957   3
   2  -2   3 646.561 244.861   2
  -2   2  -4 1326.58 128.112   1
   2   2   4 1563.78 327.753   1
  -2  -2  -4 1261.26 218.052   3
   2  -2   4 1257.36 326.281   2
  -2   2  -5 253.802 72.3016   1
   2  -2   5 288.489 200.257   2
   2   2   5 394.167 211.074   1
   2  -2   6 855.591 317.286   2
   2   2   6 680.234 258.619   1
  -2   2  -6 868.588 141.625   1
  -2   2  -7 286.431 96.7504   1
   2   2   7 10.9489 167.721   1
   2  -2   7 196.565 282.061   2
   2   2   8 807.244 336.942   1
   2  -2   8 706.770 349.219   2
   2   2   9 6005.03 754.781   1
   2  -2   9 5796.03 811.260   2
   2   2  10 18957.4 1424.04   1
   2  -2  10 18682.8 1400.03   2
   2  -2  11 4073.31 776.726   2
   2   2  11 3341.24 632.825   1
   2  -2  12-69.4438 294.443   2
   2   2  12-776.784 478.535   1
   2   2  13 1232.61 421.198   1
   2  -2  13 1670.91 569.702   2
   2  -2  14 1382.16 553.210   2
   2   2  14 623.540 313.116   1
   2  -2  15 226.010 369.594   2
   2   2  15-41.4498 406.496   1
   2   2  16 721.039 583.385   1
   2  -2  16-302.228 371.295   2
   2   3 -16 766.349 290.412   3
  -2   3  16 392.100 378.025   1
   2   3 -15-126.288 186.806   3
  -2   3  15 757.266 443.076   1
  -2   3  14-209.826 304.215   1
   2   3 -14 161.361 92.4003   3
  -2  -3  14-250.704 256.915   2
   2   3 -13 78.5743 89.4051   3
  -2   3  13-262.432 317.490   1
  -2  -3  13 479.237 254.792   2
   2   3 -12 1730.83 383.769   3
  -2   3  12 772.370 344.093   1
  -2  -3  12 2254.40 473.969   2
  -2   3  11 1755.00 526.761   1
   2   3 -11 1155.29 303.377   3
  -2  -3  11 1289.01 371.524   2
  -2   3  10 81.6119 294.751   1
  -2  -3  10 71.9823 119.999   2
   2   3 -10 305.417 191.280   3
   2   3  -9 703.369 222.637   3
  -2   3   9 725.556 371.630   1
  -2  -3   9 693.970 242.646   2
  -2   3   8 183.084 266.804   1
   2   3  -8 711.065 232.446   3
  -2  -3   8 635.457 222.080   2
  -2   3   7 836.803 318.210   1
   2   3  -7 905.639 239.911   3
  -2   3   6 390.106 237.434   1
   2   3  -6 502.018 162.403   3
   2   3  -5 2040.94 331.025   3
  -2   3   5 2690.33 412.080   1
  -2   3   4 3496.81 436.684   1
   2   3  -4 2366.28 315.039   3
  -2   3   3 15443.0 801.157   1
   2   3  -3 14978.6 755.358   3
   2   3  -2 17049.8 787.305   3
  -2   3   2 17642.3 796.334   1
   2   3  -1 3619.62 356.617   3
  -2   3   1 4037.00 357.139   1
  -2   3   0 2166.52 233.833   1
   2   3   0 2145.91 262.839   3
  -2  -3  -1 30.4556 53.7412   3
   2   3   1 35.4020 134.612   1
   2  -3   1 207.918 213.500   2
  -2   3  -1 29.8490 59.2041   1
   2   3   2 6989.34 745.014   1
   2  -3   2 6997.01 791.457   2
   2  -3   3 37913.4 1817.35   2
   2   3   3 38747.6 1694.37   1
   2  -3   4 26381.0 1523.74   2
   2   3   4 27381.1 1471.48   1
   2  -3   5 52384.6 2168.65   2
   2   3   5 56981.0 2197.19   1
   2  -3   6 5762.87 784.168   2
   2   3   6 5339.87 713.742   1
   2   3   7 456.885 276.315   1
   2  -3   7 211.952 241.421   2
   2   3   8-277.940 319.704   1
   2  -3   8 142.173 253.295   2
   2  -3   9 924.541 353.887   2
   2   3   9 629.982 342.496   1
   2   3  10 315.695 310.547   1
   2  -3  10 226.736 273.547   2
   2   3  11-18.1891 229.568   1
   2  -3  11 313.212 325.973   2
   2  -3  12 3260.04 633.680   2
   2   3  12 4175.10 807.109   1
   2  -3  13 1118.45 469.729   2
   2   3  13 1607.23 594.736   1
   2  -3  14 271.498 347.734   2
   2   3  14 2.36958 438.227   1
  -2   4  14-1373.32 552.350   1
  -2   4  13-212.727 468.852   1
  -2   4  12-409.422 406.425   1
  -2   4  11 989.967 493.156   1
  -2   4  10-524.878 328.582   1
  -2   4   9 466.941 267.397   1
   2   4  -1 330.977 202.460   1
   2   4   0 301.944 97.1605   1
   2   4   1 315.519 236.542   1
   2   4   2 1733.55 375.892   1
   2   4   3 17772.5 1306.01   1
   2  -4   4 20558.0 1567.86   2
   2   4   4 22459.5 1531.70   1
   2   4   5 359.429 292.131   1
   2  -4   5 147.116 163.429   2
   2  -4   6 10002.6 1123.12   2
   2   4   6 11287.5 1112.50   1
   2  -4   7 9360.49 1109.19   2
   2   4   7 8161.31 990.724   1
   2   4   8-133.081 227.413   1
   2  -4   8-98.0796 258.571   2
   2   4   9 280.032 231.564   1
   2  -4   9 28.5929 223.099   2
   2   4  10-13.2147 290.989   1
   2  -4  10-135.587 189.676   2
   2   5   3 692.093 278.507   1
   2   5   4 130.889 272.537   1
   2   5   5 741.683 359.284   1
   3   0 -19 244.379 214.326   3
   3   0 -18 3506.50 666.627   3
   3   0 -17-240.119 187.576   3
   3   0 -16 18.4557 136.807   3
   3   0 -15-192.675 111.435   3
   3   0 -14 19976.5 1350.35   3
   3   0 -13-114.967 136.972   3
   3   0 -12 2262.60 424.542   3
   3   0 -11 100.987 130.237   3
   3   0 -10 5662.59 608.532   3
   3   0  -9-72.6987 121.268   3
   3   0  -8 66335.6 1885.35   3
   3   0  -7-37.7028 75.6763   3
   3   0  -6 263547. 3431.97   3
   3   0  -5 57.8595 71.2279   3
   3   0  -4 24555.5 941.572   3
  -3   0   3 68.7913 60.6857   3
   3   0  -3-4.01360 82.5512   3
   3   0  -2 84766.7 1692.68   3
   3   0  -2 89534.5 1070.66   2
  -3   0   2 86956.4 1696.96   3
   3   0  -1-0.64997 70.5038   3
  -3   0   1-14.8662 80.4335   3
   3   0   0 21103.4 895.312   3
  -3   0   0 20715.9 848.962   3
   3   0   1-82.2414 115.948   3
   3   0   2 306211. 3161.39   1
   3   0   3 114.264 77.9686   1
   3   0   4 885.622 194.944   1
   3   0   5-19.3682 109.961   1
   3   0   6 40786.3 1379.69   1
   3   0   7 228.171 167.855   1
   3   0   8 3700.84 504.126   1
   3   0   9-154.600 245.347   1
   3   0  10 3230.91 561.353   1
   3   0  11 95.2282 249.542   1
   3   0  12 1581.33 439.723   1
   3   0  13-337.458 309.861   1
   3   0  14 39.1289 343.745   1
   3   0  15 45.5663 319.837   1
   3   0  16 1567.27 428.245   1
   3   0  17 347.402 402.270   1
   3   0  18 183.583 514.813   1
   3  -1 -20 50.2542 157.599   3
   3  -1 -19 105.424 197.527   3
   3   1 -19 220.036 121.996   3
   3  -1 -18 316.731 218.167   3
   3   1 -18 189.280 223.531   3
   3  -1 -17 1764.12 470.533   3
   3   1 -17 2642.12 575.032   3
   3  -1 -16 1358.59 394.054   3
   3   1 -16 824.795 307.775   3
  -3  -1  15 1169.70 318.078   2
   3  -1 -15 1072.26 320.079   3
   3   1 -15 1385.55 385.293   3
  -3   1  14 8907.57 1065.29   1
  -3  -1  14 10015.2 774.906   2
   3  -1 -14 10271.3 927.489   3
   3   1 -14 10431.8 1016.91   3
  -3   1  13 44926.7 2197.43   1
  -3  -1  13 41853.2 1475.11   2
   3  -1 -13 41433.3 1793.49   3
   3   1 -13 42489.5 1970.09   3
   3  -1 -12 16983.4 1084.66   3
  -3   1  12 16852.5 1320.27   1
   3   1 -12 16319.9 1171.97   3
  -3  -1  12 16873.7 873.595   2
  -3   1  11 22215.3 1457.70   1
  -3  -1  11 25509.2 999.778   2
   3  -1 -11 23370.1 1212.31   3
   3   1 -11 24443.0 1363.80   3
  -3  -1  10 2006.65 287.151   2
  -3   1  10 1350.32 402.742   1
   3  -1 -10 1728.11 317.286   3
   3   1 -10 1515.70 337.810   3
   3  -1  -9 28837.8 1207.55   3
  -3  -1   9 32585.7 941.093   2
  -3   1   9 29966.9 1480.22   1
   3   1  -9 29265.2 1346.50   3
  -3  -1   8 12935.6 541.242   2
   3   1  -8 11461.9 813.812   3
   3  -1  -8 11643.6 735.074   3
   3  -1  -7 12305.4 718.919   3
   3   1  -7 11992.9 791.289   3
  -3  -1   7 13264.7 499.534   2
  -3   1   6 7155.68 507.999   2
   3  -1  -6 6452.13 497.619   3
   3   1  -6 6434.33 554.031   3
   3   1  -5 1500.68 172.740   2
   3  -1  -5 1547.27 233.387   1
   3  -1  -5 1686.84 243.679   3
   3   1  -5 1649.03 270.986   3
  -3   1   5 1626.83 240.553   3
  -3   1   5 1737.32 229.304   2
  -3   1   4 78655.4 1606.07   3
   3  -1  -4 78592.4 1581.95   3
  -3   1   4 77152.1 1463.74   2
   3   1  -4 78827.1 1076.45   2
   3  -1  -4 79011.9 1559.50   1
   3   1  -4 76966.8 1804.89   3
   3  -1  -3 96.8106 60.7625   3
   3   1  -3-6.97617 114.026   3
  -3   1   3 15.4961 50.6446   3
   3  -1  -3 28.7688 82.3659   2
   3   1  -3 75.6437 53.1665   2
  -3   1   3 104.886 122.594   2
   3  -1  -3 227.020 118.799   1
   3  -1  -2 198.664 99.6381   3
   3   1  -2 34.4330 80.8994   3
  -3   1   2 284.417 106.563   3
   3  -1  -2 191.315 110.375   1
   3  -1  -2 141.432 103.569   2
  -3   1   2-133.329 134.991   2
   3  -1  -1 60865.4 1021.20   1
  -3   1   1 59722.0 1340.33   3
   3  -1  -1 58927.8 1388.00   2
  -3   1   1 60117.9 1435.67   2
   3  -1  -1 62173.7 1441.25   3
   3   1  -1 57671.5 1494.42   3
   3   1   0 94792.2 1951.96   3
   3  -1   0 93556.7 1816.08   3
   3  -1   0 96206.1 1843.90   2
  -3   1   0 93215.1 1907.94   2
  -3   1   0 97460.4 1801.72   3
   3   1   1 125141. 2324.78   3
   3  -1   1 123019. 1196.29   1
  -3   1  -1 130149. 2167.36   3
   3  -1   1 127574. 2314.79   2
   3  -1   2 6853.25 570.350   2
   3  -1   2 6535.16 270.054   1
   3  -1   3 432.533 241.528   2
   3  -1   3 711.171 109.566   1
   3   1   3 377.081 166.839   1
   3  -1   4 3685.61 283.709   1
   3  -1   4 4323.04 546.198   2
   3   1   4 3241.70 425.007   1
   3   1   5 933.377 244.348   1
   3  -1   5 1393.61 211.587   1
   3  -1   5 844.223 383.180   2
   3  -1   6 452.979 332.597   2
   3  -1   6 252.537 189.102   1
  -3   1  -6 187.347 95.5951   1
   3   1   6 153.677 145.447   1
   3  -1   7 6008.70 738.758   2
   3  -1   7 6528.68 539.964   1
   3   1   7 6559.44 693.653   1
   3  -1   8 3845.50 492.722   1
   3  -1   8 3720.48 701.343   2
   3   1   8 3337.34 502.450   1
   3   1   9 6552.80 749.864   1
   3  -1   9 5397.29 821.537   2
   3  -1   9 5949.84 601.321   1
   3   1  10 755.518 300.069   1
   3  -1  10 1023.31 572.085   2
   3  -1  10 1396.67 403.142   1
   3  -1  11 2333.06 488.879   1
   3  -1  11 1924.64 675.406   2
   3   1  11 2782.06 633.187   1
   3  -1  12 448.373 421.448   2
   3   1  12-135.730 285.734   1
   3  -1  12 151.050 298.711   1
   3   1  13-338.534 332.754   1
   3  -1  13-136.115 398.181   2
   3  -1  13-245.361 357.713   1
   3  -1  14 3092.51 584.520   1
   3   1  14 3096.96 666.709   1
   3  -1  14 3411.26 800.054   2
   3   1  15 162.335 458.431   1
   3  -1  15-45.7613 379.569   2
   3  -1  15 194.472 341.111   1
   3  -1  16 1166.55 635.512   2
   3   1  16 519.933 374.819   1
   3  -1  16 147.377 390.216   1
   3   1  17-21.5588 379.444   1
   3  -2 -19 18.1407 206.092   3
   3  -2 -18 1263.56 391.490   3
   3   2 -18 1338.92 491.522   3
  -3   2  18 2452.59 558.452   1
   3  -2 -17-168.394 217.361   3
   3   2 -17 30.5090 176.207   3
  -3   2  17-228.975 408.706   1
   3   2 -16 1434.90 422.214   3
  -3   2  16 1749.15 565.464   1
   3  -2 -16 707.891 257.280   3
   3  -2 -15 696.416 251.785   3
   3   2 -15 508.648 228.390   3
  -3   2  15 14.4424 422.182   1
   3   2 -14 680.363 298.285   3
   3  -2 -14 575.810 220.959   3
  -3   2  14 429.437 286.522   1
   3  -2 -13-21.3619 109.583   3
   3   2 -13-47.2787 144.689   3
  -3  -2  13-63.3538 135.841   2
  -3   2  12 11446.4 1119.91   1
  -3  -2  12 12357.9 838.474   2
   3  -2 -12 12126.4 870.356   3
   3   2 -12 11731.7 987.220   3
  -3   2  11 37168.0 1920.14   1
  -3  -2  11 35949.8 1383.36   2
   3  -2 -11 36178.0 1411.24   3
   3   2 -11 37723.0 1719.93   3
  -3   2  10 32424.6 1678.18   1
  -3  -2  10 29409.8 1222.55   2
   3  -2 -10 29996.1 1212.67   3
   3   2 -10 28930.4 1462.44   3
  -3   2   9 8285.42 803.314   1
  -3  -2   9 8106.00 625.736   2
   3  -2  -9 8682.84 617.476   3
   3   2  -9 8275.82 752.593   3
   3   2  -8 691.625 219.057   3
   3  -2  -8 672.117 174.192   3
  -3  -2   8 255.417 115.049   2
  -3   2   8 727.666 339.543   1
   3   2  -7 1387.99 293.695   3
   3  -2  -7 1074.72 198.976   3
  -3   2   7 1299.37 337.411   1
   3  -2  -6 651.866 138.389   3
   3   2  -6 588.446 187.877   3
  -3   2   6 537.916 234.368   1
  -3   2   5 535.985 202.608   1
   3  -2  -5 720.704 140.991   3
   3   2  -5 607.721 174.475   3
   3  -2  -4 805.773 151.348   3
   3   2  -4 552.830 169.652   3
  -3   2   4 701.721 130.067   3
   3  -2  -4 693.147 167.076   1
  -3   2   4 990.435 237.587   1
  -3   2   3 5039.73 386.582   1
   3  -2  -3 4167.22 316.724   1
   3  -2  -3 4554.49 348.862   3
   3   2  -3 3723.51 417.058   3
   3  -2  -2 43092.5 1483.16   2
   3  -2  -2 41377.3 860.649   1
   3   2  -1 4239.52 437.700   3
  -3   2   1 4381.69 339.412   3
   3  -2  -1 4542.10 509.672   2
   3  -2   0 11288.6 818.760   2
   3   2   0 11453.8 718.357   3
  -3   2   0 10862.8 566.229   3
   3   2   1 1202.81 241.302   3
  -3   2  -1 1325.62 226.074   3
   3  -2   1 1365.20 301.563   2
   3  -2   2 10082.8 800.630   2
   3   2   2 9412.21 813.759   1
   3   2   3 543.314 198.882   1
   3  -2   3 143.777 167.483   2
   3  -2   4 772.849 345.501   2
   3   2   4 960.015 304.688   1
   3   2   5 5995.37 703.450   1
   3  -2   5 5661.88 685.915   2
   3  -2   6 68363.7 2401.16   2
   3   2   6 69853.6 2415.64   1
   3   2   7 36822.9 1785.68   1
   3  -2   7 33289.7 1736.57   2
   3   2   8 984.417 330.590   1
   3  -2   8 1286.62 494.636   2
   3  -2   9 1050.61 468.430   2
   3   2   9 1116.83 396.679   1
   3   2  10 6272.52 849.115   1
   3  -2  10 6117.30 851.995   2
   3  -2  11 1337.33 521.715   2
   3   2  11 173.107 244.045   1
   3  -2  12 308.094 322.544   2
   3   2  12 303.648 288.465   1
   3  -2  13 910.468 565.385   2
   3   2  13 462.894 352.642   1
   3  -2  14-435.383 455.465   2
   3   2  14-129.559 386.619   1
   3  -2  15-47.7972 483.127   2
   3   2  15 27.3594 346.386   1
  -3   3  16 503.555 413.095   1
   3   3 -16 101.813 212.487   3
   3   3 -15 2151.25 495.073   3
  -3   3  15 2504.59 699.781   1
   3   3 -14 31.4035 138.161   3
  -3   3  14 549.302 438.970   1
  -3   3  13 441.534 394.803   1
   3   3 -13-99.5258 115.227   3
   3   3 -12 786.098 280.147   3
  -3  -3  12 692.911 236.972   2
  -3   3  11-327.194 296.424   1
   3   3 -11 376.434 196.679   3
  -3  -3  11-5.24032 105.411   2
   3   3 -10 1469.66 342.119   3
  -3   3  10 1819.76 417.574   1
   3   3  -9 4410.24 562.191   3
  -3   3   9 4354.30 620.646   1
  -3   3   8 11570.9 941.482   1
   3   3  -8 11708.0 887.865   3
   3   3  -7 2144.85 392.175   3
  -3   3   7 2123.95 397.912   1
  -3   3   6 244.006 189.546   1
   3   3  -6-34.6494 74.1893   3
   3   3  -5 911.355 220.361   3
  -3   3   5 871.535 242.018   1
   3   3  -4 2804.66 383.068   3
  -3   3   4 2802.53 370.872   1
   3   3  -3 790.749 191.147   3
  -3   3   3 1139.85 224.976   1
   3   3  -2 107.759 117.487   3
   3   3  -1-22.2388 69.1852   3
   3   3   0 19.2414 72.4442   3
   3  -3   0-96.0254 116.885   2
   3   3   1 867.697 294.758   1
   3  -3   1 326.593 236.386   2
   3  -3   2 1785.83 443.294   2
   3   3   2 1306.10 324.922   1
   3  -3   3 20960.9 1391.99   2
   3   3   3 20851.1 1369.14   1
   3  -3   4 30223.3 1686.48   2
   3   3   4 29724.7 1681.85   1
   3  -3   5 18624.2 1374.48   2
   3   3   5 20642.3 1417.86   1
   3  -3   6 6643.93 856.587   2
   3   3   6 7552.66 890.585   1
   3   3   7-12.1978 250.272   1
   3  -3   7-607.881 340.632   2
   3  -3   8 2577.47 544.807   2
   3   3   8 2298.00 499.724   1
   3   3   9 1708.16 480.719   1
   3  -3   9 655.032 345.874   2
   3   3  10 2187.13 582.227   1
   3  -3  10 1569.69 486.515   2
   3  -3  11 5727.91 911.521   2
   3   3  11 3636.64 710.481   1
   3   3  12 626.940 526.230   1
   3  -3  12 117.976 258.073   2
   3  -3  13 1581.33 560.558   2
   3   4  -1 308.515 206.674   1
   3   4   0 66.2906 112.442   1
   3   4   1 3478.94 605.442   1
   3   4   2 5496.07 783.340   1
   3   4   3 456.295 290.392   1
   3  -4   3-78.4752 185.486   2
   3  -4   4 8376.99 1006.89   2
   3   4   4 8634.60 976.329   1
   3  -4   5 9502.44 1119.10   2
   3   4   5 11300.1 1140.49   1
   3   4   6 57.4829 242.906   1
   3  -4   6 34.8764 241.787   2
   3   4   7 8.85278 207.035   1
   3  -4   7 1.52870 214.188   2
   3   4   8 604.726 401.666   1
   3  -4   8 186.702 240.458   2
   3   4   9 297.769 352.293   1
   3   5  -1-370.095 233.241   1
   3   5   0 145.139 167.261   1
   3   5   1-352.889 261.486   1
   3   5   2 16.6489 201.467   1
   4   0 -19 135.504 182.956   3
   4   0 -18 3444.91 661.254   3
   4   0 -17 225.311 312.760   3
   4   0 -16 3485.17 639.975   3
   4   0 -15 14.9418 125.836   3
   4   0 -14 10022.4 979.739   3
   4   0 -13-20.5145 111.071   3
   4   0 -12 760.458 270.132   3
   4   0 -11-48.0992 110.511   3
   4   0 -10 14489.1 1000.64   3
   4   0  -9 44.6607 91.0954   3
   4   0  -8 10198.4 788.846   3
   4   0  -7-41.9249 94.4132   3
   4   0  -6 11816.3 789.909   3
   4   0  -5-182.953 165.021   3
   4   0  -4-23.7432 76.0004   3
   4   0  -3-106.319 103.417   3
   4   0  -3-74.9528 77.1571   2
   4   0  -2 14361.2 537.482   2
   4   0  -2 13316.9 802.617   3
   4   0  -1-5.74526 97.9570   3
   4   0   0 99095.6 2275.20   3
   4   0   1 104.008 107.774   3
   4   0   3 18.5861 80.9448   1
   4   0   4 502.071 150.709   1
   4   0   5 35.5034 101.741   1
   4   0   6 347.714 177.435   1
   4   0   7-11.8182 149.079   1
   4   0   8 49151.3 1809.66   1
   4   0   9 330.003 252.541   1
   4   0  10 68003.5 2365.92   1
   4   0  11-201.462 297.762   1
   4   0  12 1822.06 507.022   1
   4   0  13 54.2185 277.702   1
   4   0  14 705.441 413.083   1
   4   0  15 187.792 342.503   1
   4   0  16-1438.13 585.491   1
   4   0  17 318.964 417.043   1
   4   0  18 616.593 502.043   1
   4  -1 -20 1774.66 508.617   3
   4  -1 -19 205.199 188.524   3
   4  -1 -18-125.956 262.868   3
   4   1 -18 416.132 269.793   3
   4  -1 -17 653.131 321.774   3
   4   1 -17 629.458 247.803   3
   4  -1 -16 587.481 259.445   3
   4   1 -16 1063.81 431.829   3
   4  -1 -15 3226.04 551.266   3
   4   1 -15 2491.40 546.055   3
   4  -1 -14 752.878 282.633   3
   4   1 -14 775.442 294.869   3
   4  -1 -13 1173.02 324.132   3
   4   1 -13 1356.98 375.326   3
   4   1 -12 164.811 146.832   3
   4  -1 -12-51.6535 179.026   3
   4  -1 -11 691.568 232.480   3
   4   1 -11 395.554 184.254   3
  -4  -1  11 984.239 166.988   2
   4  -1 -10 81.4582 76.7530   3
   4   1 -10 3.87721 97.1890   3
  -4  -1  10-10.1383 61.8936   2
   4   1  -9 14962.9 1019.91   3
  -4  -1   9 15247.9 480.392   2
  -4   1   9 14307.2 750.641   2
   4  -1  -9 15446.2 954.316   3
   4  -1  -8 43.3386 68.4625   3
   4   1  -8-59.6298 137.795   3
  -4   1   8 6.24501 85.7467   2
  -4   1   7 11940.9 604.816   2
   4  -1  -7 12545.7 787.028   3
   4   1  -7 12871.3 891.590   3
   4  -1  -6 9478.19 670.711   3
  -4   1   6 9117.27 511.455   2
   4   1  -6 9279.86 752.501   3
   4   1  -5 56492.1 1743.94   3
  -4   1   5 49308.2 1228.58   2
   4   1  -5 48870.8 844.216   2
   4  -1  -5 56524.6 1574.20   3
   4  -1  -4 3141.53 366.670   3
   4   1  -4 3619.72 225.515   2
   4  -1  -4 3477.26 375.928   1
   4   1  -4 2790.17 366.216   3
  -4   1   4 2852.96 319.949   2
  -4   1   3 1788.75 274.575   2
   4  -1  -3 1849.81 289.640   3
   4   1  -3 1851.11 308.607   3
   4  -1  -3 1839.65 249.103   2
   4  -1  -3 2009.35 264.469   1
   4  -1  -2 23625.1 893.110   2
  -4   1   2 20996.0 921.710   2
   4  -1  -2 20764.7 962.697   3
   4   1  -2 21314.8 1051.75   3
   4  -1  -1 918.006 214.779   3
   4  -1  -1 977.307 215.254   2
   4   1  -1 916.099 215.532   3
   4   1   0 10195.2 745.644   3
   4  -1   0 12380.2 714.709   2
   4  -1   0 10769.5 716.493   3
   4   1   1 1940.49 334.652   3
   4  -1   1 1812.98 332.088   2
   4  -1   2 26448.3 712.103   1
   4  -1   2 24221.2 1133.34   2
   4   1   2 24700.3 1222.64   3
   4  -1   3 74999.8 1294.79   1
   4   1   3 74396.3 2147.16   1
   4  -1   4 7745.71 752.581   2
   4  -1   4 6725.98 416.057   1
   4   1   4 6700.89 656.536   1
   4  -1   5 1.03885 329.475   2
   4   1   5 65.3796 129.265   1
   4  -1   5 80.9332 140.233   1
   4  -1   6 16725.7 814.464   1
   4   1   6 16892.3 1119.48   1
   4  -1   6 16978.7 1232.39   2
   4  -1   7 84232.2 1963.52   1
   4   1   7 87198.0 2623.16   1
   4  -1   7 90585.9 2933.73   2
   4  -1   8 38069.5 1441.66   1
   4   1   8 42454.9 1895.82   1
   4  -1   8 42901.6 2102.93   2
   4  -1   9 4879.31 561.277   1
   4   1   9 5246.08 683.420   1
   4  -1   9 4942.83 832.841   2
   4  -1  10 1285.69 362.730   1
   4  -1  10 834.087 523.238   2
   4   1  10 609.702 285.411   1
   4  -1  11 285.814 271.238   1
   4  -1  11 800.476 496.570   2
   4   1  11 117.655 323.490   1
   4  -1  12 4254.16 805.024   2
   4  -1  12 2683.86 520.879   1
   4   1  12 4068.79 734.982   1
   4  -1  13 64.8424 477.640   2
   4   1  13 58.4364 302.620   1
   4  -1  13 486.708 334.795   1
   4  -1  14 573.777 529.932   2
   4   1  14 234.502 417.307   1
   4  -1  15 1298.53 601.005   2
   4   1  15 878.336 443.742   1
   4   1  16 346.178 477.165   1
   4  -2 -18 532.249 275.936   3
   4  -2 -17-73.4837 135.857   3
   4   2 -17 263.621 223.654   3
   4  -2 -16 1202.64 334.275   3
   4   2 -16 1525.50 452.435   3
   4  -2 -15 561.445 212.856   3
   4   2 -15 369.272 150.858   3
   4  -2 -14 6523.25 700.076   3
   4   2 -14 6418.47 862.823   3
   4  -2 -13 4395.99 549.067   3
   4   2 -13 4717.91 694.613   3
   4  -2 -12 8095.64 731.497   3
   4   2 -12 8996.89 909.295   3
   4  -2 -11 3018.81 419.747   3
   4   2 -11 2764.64 493.003   3
   4   2 -10 6079.25 697.564   3
   4  -2 -10 6812.12 638.696   3
   4  -2  -9 239.596 97.1237   3
   4   2  -9 76.0901 168.116   3
   4  -2  -8 474.551 155.731   3
   4   2  -8 372.227 181.492   3
   4   2  -7 355.709 173.119   2
   4  -2  -7 324.066 124.096   3
   4   2  -7 462.763 196.925   3
   4  -2  -6 55.6179 71.9785   3
   4   2  -6 78.6049 99.7356   3
   4   2  -6-137.071 139.684   2
   4  -2  -5 9439.22 611.628   3
   4   2  -5 9489.13 747.381   3
   4   2  -4 14651.6 909.706   3
   4  -2  -4 14935.8 672.010   1
   4  -2  -4 15304.8 787.766   3
   4   2  -3 14762.0 897.232   3
   4  -2  -3 13984.1 562.437   1
   4  -2  -3 14270.2 750.006   3
   4   2  -2 575.224 204.051   3
   4  -2  -2 384.648 88.8033   1
   4  -2  -2 885.236 261.010   2
   4  -2  -1 4067.50 501.170   2
   4   2  -1 3762.57 461.009   3
   4   2   0 7328.04 655.536   3
   4  -2   0 7352.34 679.335   2
   4   2   1 1988.74 357.179   3
   4  -2   1 2211.48 430.177   2
   4  -2   2 2112.10 403.809   2
   4   2   3 188.254 142.118   1
   4  -2   3 183.322 199.797   2
   4   2   4 3104.76 521.024   1
   4  -2   4 2251.66 463.790   2
   4  -2   5 53281.0 2153.82   2
   4   2   5 53412.5 2200.16   1
   4  -2   6 9243.97 952.808   2
   4   2   6 10785.7 995.360   1
   4   2   7 2691.67 515.824   1
   4  -2   7 2781.49 594.720   2
   4   2   8-28.3669 187.418   1
   4  -2   8 202.448 282.328   2
   4  -2   9 5133.64 837.177   2
   4   2   9 3241.07 606.916   1
   4  -2  10-882.380 436.178   2
   4   2  10-28.9278 204.758   1
   4   2  11 79.9528 274.293   1
   4  -2  11 769.158 425.534   2
   4  -2  12 2650.17 704.571   2
   4   2  12 1927.92 596.538   1
   4  -2  13 1920.14 632.278   2
   4   2  13 1082.98 460.456   1
   4  -2  14 3053.51 808.019   2
   4   2  14 2285.29 739.230   1
  -4   3  16 217.926 421.506   1
   4   3 -16 1217.77 391.511   3
   4   3 -15 1373.13 407.939   3
  -4   3  15 1645.42 603.383   1
   4   3 -14-129.532 205.190   3
  -4   3  14 669.949 416.574   1
   4   3 -13 271.315 122.371   3
  -4   3  13 904.941 438.642   1
   4   3 -12 85.8699 92.6127   3
  -4   3  12 554.893 304.849   1
  -4   3  11 5772.83 759.635   1
   4   3 -11 4343.09 638.247   3
  -4   3  10 11152.5 1016.64   1
   4   3 -10 11955.0 1043.69   3
  -4   3   9 32232.6 1629.97   1
   4   3  -9 34948.5 1707.57   3
   4   3  -8 885.561 259.927   3
  -4   3   8 1140.51 356.721   1
  -4   3   7 5700.10 606.982   1
   4   3  -7 5410.34 622.553   3
   4   3  -6 2323.52 398.869   3
   4   3  -5-8.13452 123.920   3
   4   3  -4 48.0092 110.238   3
   4   3  -3 99.3574 75.1567   3
   4   3  -2 6612.77 676.925   3
   4   3  -1 2548.81 406.690   3
   4  -3  -1 2643.14 462.775   2
   4   3   0 601.388 217.045   3
   4  -3   0 714.370 293.754   2
   4  -3   1 966.287 345.194   2
   4   3   1 968.416 290.517   1
   4   3   2 1565.71 382.545   1
   4  -3   2 1654.93 448.520   2
   4   3   3 441.659 217.344   1
   4  -3   3 485.987 246.528   2
   4   3   4 621.052 289.830   1
   4  -3   4 173.944 253.656   2
   4   3   5 394.716 254.122   1
   4  -3   5 231.657 248.783   2
   4  -3   6 1822.08 518.505   2
   4   3   6 1602.21 408.724   1
   4   3   7 298.892 259.306   1
   4  -3   7-261.980 257.164   2
   4   3   8 964.588 376.619   1
   4  -3   8 1539.34 518.846   2
   4   3   9 190.189 275.488   1
   4  -3   9-76.8387 229.284   2
   4   3  10-177.082 251.276   1
   4  -3  10-44.3476 327.738   2
   4   3  11 1944.11 395.305   1
   4  -3  11 2438.18 648.949   2
   4   4  -1 737.354 353.713   1
   4   4   0 212.843 190.574   1
   4   4   1 49.3684 134.512   1
   4  -4   2 1098.15 421.560   2
   4   4   2 799.714 336.593   1
   4   4   3 1324.26 409.223   1
   4  -4   3 1219.68 439.593   2
   4   4   4 883.992 358.163   1
   4  -4   4 389.031 249.805   2
   4  -4   5 159.610 180.779   2
   4   4   5-541.822 399.697   1
   4  -4   6-333.298 331.227   2
   4   4   6-154.218 287.358   1
   4   4   7 104.195 228.023   1
   5   0 -19-24.0050 137.465   3
   5   0 -18 161.989 201.195   3
   5   0 -17 144.837 216.914   3
   5   0 -16 3221.96 635.798   3
   5   0 -15-125.167 202.361   3
   5   0 -14 3217.91 593.702   3
   5   0 -13 139.474 164.269   3
   5   0 -12 27585.2 1565.75   3
   5   0 -11 31.7260 112.461   3
   5   0 -10-122.170 136.462   3
   5   0  -9-70.9591 92.2803   3
   5   0  -8 25621.3 1334.90   3
   5   0  -7 178.232 146.923   3
   5   0  -6 1306.49 279.407   3
   5   0  -5 248.410 151.544   3
   5   0  -4 14070.2 426.168   2
   5   0  -4 12891.4 870.483   3
   5   0  -3 0.80297 97.8570   3
   5   0  -3-129.457 108.314   2
   5   0  -2 435.794 172.161   3
   5   0  -2 426.051 147.058   2
   5   0  -1 15.1638 118.050   3
   5   0  -1 1.98889 179.991   2
   5   0   0 246.056 156.204   3
   5   0   1-111.958 123.886   3
   5   0   3-80.5314 136.597   1
   5   0   4 5367.75 547.468   1
   5   0   5-407.356 196.018   1
   5   0   6 1894.71 355.495   1
   5   0   7 200.897 179.416   1
   5   0   8 132618. 3162.38   1
   5   0   9 310.422 247.379   1
   5   0  10 6313.75 777.667   1
   5   0  11-20.9734 305.817   1
   5   0  12 3668.34 651.165   1
   5   0  13-229.110 276.886   1
   5   0  14 223.774 380.909   1
   5   0  15 438.065 524.073   1
   5   0  16 2075.90 542.332   1
   5  -1 -19 123.745 283.946   3
   5  -1 -18 2121.99 531.996   3
   5   1 -18 2182.06 593.554   3
   5  -1 -17 83.0944 122.280   3
   5   1 -17-310.781 274.115   3
   5  -1 -16 119.698 158.384   3
   5   1 -16 131.604 142.573   3
   5  -1 -15 2652.06 509.858   3
   5   1 -15 2780.18 560.270   3
   5  -1 -14 3950.84 597.396   3
   5   1 -14 4973.37 736.687   3
   5  -1 -13 16900.6 1211.88   3
   5   1 -13 19022.0 1403.63   3
   5  -1 -12 761.063 241.273   3
   5   1 -12 623.516 258.617   3
   5  -1 -11 1513.43 348.839   3
   5   1 -11 1142.56 332.062   3
   5  -1 -10 433.939 189.126   3
   5   1 -10 617.911 241.391   3
   5  -1  -9 2546.23 405.710   3
   5   1  -9 2753.80 501.653   3
   5  -1  -8 157.150 119.934   3
   5   1  -8 141.697 112.568   3
   5  -1  -7 2977.00 422.890   3
   5   1  -7 2879.78 449.451   3
  -5   1   7 2527.01 299.473   2
  -5   1   6 1398.68 233.691   2
   5  -1  -6 1936.72 338.645   3
   5   1  -6 2023.92 368.032   3
  -5   1   5 8438.43 555.194   2
   5  -1  -5 9738.84 738.562   3
   5   1  -5 8761.40 737.593   3
   5   1  -4 9097.79 758.075   3
   5  -1  -4 10164.3 582.479   2
  -5   1   4 8294.66 587.285   2
   5  -1  -4 10048.8 757.381   3
   5  -1  -3 1454.48 290.425   3
   5   1  -3 1651.47 315.561   3
   5  -1  -3 1561.50 248.594   2
   5  -1  -2 666.085 221.181   3
   5   1  -2 772.912 242.964   3
   5  -1  -2 907.707 220.282   2
   5  -1  -1 1208.21 267.144   3
   5   1  -1 1637.79 334.883   3
   5  -1  -1 1520.90 262.964   2
   5  -1   0 10891.0 718.063   2
   5  -1   0 10763.8 813.181   3
   5   1   0 11125.0 881.190   3
   5   1   1 156.039 127.801   3
   5  -1   1-434.366 182.244   2
   5  -1   2 9109.30 761.280   2
   5  -1   2 9105.20 506.528   1
   5  -1   3 10811.5 570.030   1
   5  -1   3 8669.78 803.993   2
   5   1   3 9039.77 802.040   1
   5  -1   4-21.0675 296.786   2
   5   1   4 209.776 201.227   1
   5  -1   4 214.789 148.284   1
   5  -1   5 2114.27 555.046   2
   5   1   5 1229.09 315.513   1
   5  -1   5 1966.92 283.009   1
   5  -1   6 10833.2 698.284   1
   5   1   6 12296.9 1015.27   1
   5  -1   6 12628.3 1115.90   2
   5  -1   7 1050.61 446.167   2
   5  -1   7 903.924 233.042   1
   5   1   7 1252.94 339.321   1
   5  -1   8 1071.06 490.152   2
   5  -1   8 1145.59 308.706   1
   5   1   8 1751.13 441.612   1
   5  -1   9 5961.09 938.317   2
   5   1   9 5385.63 761.133   1
   5  -1   9 5161.89 569.981   1
   5  -1  10 23600.3 1308.79   1
   5   1  10 27491.0 1733.34   1
   5  -1  10 26494.0 1872.09   2
   5   1  11 17204.4 1452.23   1
   5  -1  11 16847.3 1583.31   2
   5  -1  12 929.100 458.418   2
   5   1  12 1613.56 454.858   1
   5  -1  13 2244.10 723.801   2
   5   1  13 2262.67 665.972   1
   5  -1  14 1505.11 660.897   2
   5   1  14 304.309 440.757   1
   5   1  15 1539.46 545.190   1
   5  -2 -17-107.762 264.562   3
   5   2 -17 247.930 222.732   3
   5  -2 -16 2759.20 495.402   3
   5   2 -16 3292.39 656.714   3
   5  -2 -15-62.8037 158.336   3
   5   2 -15 451.033 225.495   3
   5  -2 -14 5516.18 703.892   3
   5   2 -14 5604.73 794.147   3
   5  -2 -13 148.470 180.171   3
   5   2 -13-3.80341 116.497   3
   5  -2 -12 2443.11 413.039   3
   5   2 -12 2760.41 530.650   3
   5  -2 -11-34.1482 91.5467   3
   5   2 -11 161.491 175.681   3
   5  -2 -10-39.4337 98.3669   3
   5   2 -10 83.6134 139.582   3
   5  -2  -9 1723.84 330.156   3
   5   2  -9 1568.04 343.236   3
   5  -2  -8 37111.4 1457.09   3
   5   2  -8 36995.7 1697.17   3
   5  -2  -7 24183.0 1177.37   3
   5   2  -7 23372.3 1328.23   3
   5   2  -6 10703.1 874.555   3
   5  -2  -6 12302.7 812.340   3
   5  -2  -5 7601.77 637.219   3
   5   2  -5 6865.58 698.304   3
   5  -2  -4 7702.01 507.698   1
   5  -2  -4 7136.06 629.269   3
   5   2  -4 7281.23 725.059   3
   5  -2  -3 18.6157 63.9584   3
   5   2  -3-164.550 183.889   3
   5  -2  -3 130.317 147.606   2
   5  -2  -3 48.9237 105.604   1
   5   2  -2 582.186 218.814   3
   5  -2  -2 801.445 281.125   2
   5  -2  -2 364.999 90.1556   1
   5   2  -1 320.168 181.365   3
   5  -2  -1 62.1823 162.148   2
   5   2   0 2128.66 421.531   3
   5  -2   0 2106.42 422.701   2
   5  -2   1 778.881 260.373   2
   5   2   1 689.779 236.123   3
   5  -2   2 3535.82 533.892   2
   5   2   3 7159.21 817.857   1
   5  -2   3 4597.28 640.227   2
   5  -2   4 15284.7 1169.28   2
   5   2   4 14348.9 1175.19   1
   5   2   5 1619.76 415.056   1
   5  -2   5 1313.13 387.192   2
   5   2   6 5072.63 724.454   1
   5  -2   6 5425.02 774.100   2
   5   2   7 2133.57 501.351   1
   5  -2   7 2023.27 536.218   2
   5   2   8 196.919 207.316   1
   5  -2   8-660.973 443.686   2
   5  -2   9 2341.58 617.678   2
   5   2   9 1118.51 356.718   1
   5  -2  10 555.424 490.825   2
   5   2  10 906.227 427.971   1
   5  -2  11 3186.97 769.215   2
   5   2  11 3254.19 737.730   1
   5  -2  12 394.163 387.325   2
   5   2  12 833.280 471.982   1
   5   2  13 6499.91 988.694   1
   5   3 -15-41.2695 192.106   3
   5   3 -14 248.504 143.975   3
   5   3 -13 1658.02 453.657   3
   5   3 -12-115.873 106.325   3
   5   3 -11 3364.94 583.803   3
   5   3 -10 6331.65 776.120   3
   5   3  -9 16288.2 1221.02   3
   5   3  -8 9270.67 893.166   3
   5   3  -7 1462.33 356.977   3
   5   3  -6 1610.49 356.512   3
   5   3  -5 482.099 241.000   3
   5   3  -4 813.557 252.742   3
   5   3  -3 4774.09 610.915   3
   5   3  -2 1761.64 388.593   3
   5  -3  -1 4646.12 654.742   2
   5   3  -1 4124.62 604.984   3
   5   3   0 2140.02 433.098   3
   5  -3   0 2019.62 473.455   2
   5  -3   1-84.4610 138.563   2
   5   3   1 100.733 118.961   1
   5   3   2 1354.79 381.115   1
   5  -3   2 2106.21 449.818   2
   5   3   3-62.7925 149.060   1
   5  -3   3 696.829 303.171   2
   5  -3   4 140.963 252.315   2
   5   3   4 15.9161 152.605   1
   5   3   5 3626.83 696.706   1
   5  -3   5 2683.64 558.761   2
   5   3   6 3477.11 649.174   1
   5  -3   6 3868.18 728.440   2
   5   3   7 580.128 284.887   1
   5  -3   7 91.1936 219.193   2
   5   3   8 755.493 398.562   1
   5  -3   8-439.426 395.335   2
   5   3   9 399.877 311.404   1
   5  -3   9-343.815 345.974   2
   5   4  -1 145.619 202.458   1
   5   4   0 2476.80 574.607   1
   5   4   1 1719.90 501.800   1
   5   4   2-14.9195 176.507   1
   5  -4   2 28.1791 145.013   2
   5   4   3 259.712 248.343   1
   5  -4   3-145.885 211.463   2
   5   4   4-37.4430 171.512   1
   5  -4   4 946.702 378.543   2
   6   0 -18 254.577 180.802   3
   6   0 -17 274.952 217.057   3
   6   0 -16 2814.98 602.516   3
   6   0 -15 17.9596 156.419   3
   6   0 -14 3118.00 609.999   3
   6   0 -13 164.102 139.464   3
   6   0 -12 38057.1 1984.49   3
   6   0 -11 110.529 105.367   3
   6   0 -10 8377.56 847.920   3
   6   0  -9 90.4861 85.1219   3
   6   0  -8 58.1946 130.404   3
   6   0  -7 136.977 155.275   3
   6   0  -6 29986.3 1513.62   3
   6   0  -5 125.946 195.784   3
   6   0  -4 139662. 1674.04   2
   6   0  -4 132893. 3198.71   3
   6   0  -3 21.0402 132.730   3
   6   0  -3-11.9719 112.163   2
   6   0  -2 1081.39 286.953   3
   6   0  -2 1353.73 267.171   2
   6   0  -1 152.168 128.730   3
   6   0  -1 30.1790 189.837   2
   6   0   0 183.738 140.158   3
   6   0   0 11.8122 251.164   2
   6   0   1-41.9008 108.194   3
   6   0   2 7913.73 690.315   1
   6   0   3 207.380 109.775   1
   6   0   4 1535.10 321.362   1
   6   0   5-393.679 195.292   1
   6   0   6 207.869 131.428   1
   6   0   7-72.9908 160.954   1
   6   0   8 737.344 268.735   1
   6   0   9-495.074 311.687   1
   6   0  10 2299.60 490.544   1
   6   0  11-269.425 235.854   1
   6   0  12 1397.72 459.025   1
   6  -1 -18 951.710 371.543   3
   6  -1 -17 215.971 123.836   3
   6   1 -17 24.1262 152.881   3
   6  -1 -16 428.791 264.971   3
   6   1 -16 705.273 369.114   3
   6  -1 -15 670.085 318.050   3
   6   1 -15-1.03659 253.148   3
   6  -1 -14 3067.99 568.900   3
   6   1 -14 3031.38 594.778   3
   6  -1 -13 1201.61 345.527   3
   6   1 -13 1345.34 409.179   3
   6  -1 -12 1334.00 364.475   3
   6   1 -12 1127.34 340.486   3
   6  -1 -11 18871.7 1258.33   3
   6   1 -11 19580.0 1403.04   3
   6  -1 -10 1902.68 368.242   3
   6   1 -10 2028.47 429.520   3
   6  -1  -9 2591.07 442.098   3
   6   1  -9 2787.06 501.352   3
   6  -1  -8 6874.87 721.756   3
   6   1  -8 6431.99 731.769   3
   6  -1  -7 59958.4 2091.26   3
   6   1  -7 56921.4 2149.01   3
   6  -1  -6 44750.5 1817.60   3
   6   1  -6 41628.3 1817.06   3
   6  -1  -5 25044.1 1355.44   3
   6   1  -5 22918.3 1336.76   3
   6  -1  -4 1274.02 333.007   3
   6   1  -4 1015.09 306.430   3
   6  -1  -4 982.170 204.051   2
   6  -1  -3 842.646 270.526   3
   6   1  -3 876.021 312.934   3
   6  -1  -3 372.891 121.227   2
   6  -1  -2 11180.5 733.551   2
   6  -1  -2 12638.8 954.201   3
   6   1  -2 11636.1 971.136   3
   6  -1  -1 248.961 94.1483   3
   6   1  -1 254.159 186.345   3
   6  -1  -1 493.932 214.548   2
   6   1   0 9.52909 113.305   3
   6  -1   0 356.525 213.053   2
   6  -1   1-54.4104 75.8067   1
   6  -1   1 80.1123 200.657   2
   6   1   1-72.5083 144.526   3
   6  -1   2 3450.79 541.460   2
   6  -1   2 3045.82 339.970   1
   6  -1   3 193.556 313.809   2
   6   1   3 594.249 259.183   1
   6  -1   3 300.701 150.631   1
   6   1   4 3290.40 523.899   1
   6  -1   4 3539.73 627.905   2
   6  -1   4 3020.44 358.031   1
   6  -1   5 1041.60 395.595   2
   6   1   5 1494.27 357.592   1
   6  -1   5 1721.18 280.692   1
   6   1   6 545.375 219.676   1
   6  -1   6 773.295 414.948   2
   6  -1   6 765.511 230.601   1
   6  -1   7 1259.29 397.104   2
   6   1   7 962.192 334.685   1
   6  -1   8 8380.78 1067.12   2
   6   1   8 8330.48 950.055   1
   6  -1   9 10362.3 1192.30   2
   6   1   9 8512.67 992.326   1
   6   1  10-89.4454 272.399   1
   6  -1  10 281.127 512.805   2
   6  -1  11 591.138 516.249   2
   6   1  11 383.143 276.272   1
   6  -1  12 740.164 551.648   2
   6   1  12 413.030 319.170   1
   6   1  13 556.862 376.759   1
   6   1  14 166.436 420.970   1
   6  -2 -16 190.818 120.174   3
   6   2 -16 173.808 199.860   3
   6  -2 -15 275.281 180.840   3
   6   2 -15 1059.86 444.187   3
   6  -2 -14 619.568 235.022   3
   6   2 -14 278.418 236.035   3
   6  -2 -13 115.227 107.603   3
   6   2 -13 87.3021 159.317   3
   6  -2 -12 839.328 273.077   3
   6   2 -12 839.915 307.136   3
   6  -2 -11-169.753 175.876   3
   6   2 -11-50.1743 141.704   3
   6  -2 -10 14.2004 111.236   3
   6   2 -10-59.8194 192.538   3
   6  -2  -9 19506.1 1179.63   3
   6   2  -9 21083.6 1399.94   3
   6  -2  -8 8611.95 783.326   3
   6   2  -8 8818.65 887.489   3
   6  -2  -7 7697.47 723.788   3
   6   2  -7 6982.74 770.887   3
   6  -2  -6 1373.46 314.643   3
   6   2  -6 1927.18 412.279   3
   6   2  -5 3240.76 539.093   3
   6  -2  -5 3682.54 519.538   3
   6  -2  -4 116.905 133.255   3
   6   2  -4 331.364 187.848   3
   6   2  -3-17.1193 103.309   3
   6  -2  -3 84.9962 117.880   2
   6  -2  -3 108.116 128.911   3
   6  -2  -2 2639.32 458.289   2
   6   2  -2 3729.20 585.972   3
   6   2  -1 1148.73 336.931   3
   6  -2  -1 691.880 247.017   2
   6   2   0 3199.56 545.550   3
   6  -2   0 3861.34 529.033   2
   6   2   1 1435.50 401.053   3
   6  -2   1 1219.14 332.772   2
   6   2   2 2050.68 469.329   1
   6  -2   2 1887.96 439.879   2
   6  -2   3 617.905 283.376   2
   6   2   3 850.380 316.295   1
   6   2   4-339.686 255.203   1
   6  -2   4-135.464 206.595   2
   6   2   5 384.650 233.555   1
   6  -2   5 442.655 364.220   2
   6   2   6-173.774 257.076   1
   6  -2   6-624.840 368.538   2
   6   2   7-419.163 234.938   1
   6  -2   7 678.550 424.149   2
   6   2   8 607.641 328.368   1
   6  -2   8 65.7791 316.855   2
   6   2   9 1357.38 477.660   1
   6  -2   9 1640.96 580.230   2
   6   2  10 4572.47 803.781   1
   6  -2  10 5785.79 1002.80   2
   6   2  11 7515.92 1086.99   1
   6   3 -14 132.973 168.931   3
   6   3 -13 840.097 302.651   3
   6   3 -12-236.314 221.113   3
   6   3 -11 211.063 186.791   3
   6   3 -10 964.109 323.722   3
   6   3  -9 435.400 226.798   3
   6   3  -8 290.587 203.360   3
   6   3  -7 162.950 112.182   3
   6   3  -6-94.5239 109.202   3
   6   3  -5 114.308 108.693   3
   6   3  -4 101.571 134.055   3
   6   3  -3 2072.88 486.226   3
   6  -3  -2 3286.20 565.223   2
   6   3  -2 4095.08 649.064   3
   6   3  -1 1191.13 333.704   3
   6  -3  -1 1161.49 388.442   2
   6  -3   0 132.855 146.647   2
   6   3   0 10.7864 162.457   3
   6   3   1 429.246 245.234   1
   6  -3   1 261.583 198.008   2
   6   3   2 1346.59 449.408   1
   6  -3   2 1497.08 455.766   2
   6   3   3 365.581 318.812   1
   6  -3   3-133.587 166.702   2
   6   3   4 2260.78 571.904   1
   6  -3   4 1483.30 480.262   2
   6   3   5 5077.39 851.516   1
   6  -3   5 4217.42 754.944   2
   6   3   6-168.751 286.076   1
   6  -3   6-212.110 268.818   2
   6  -3   7 2593.87 617.462   2
   6   3   7 2187.76 594.193   1
   6  -4   1-112.647 207.299   2
   7   0 -17 416.478 261.357   3
   7   0 -16 788.787 348.396   3
   7   0 -15 76.4081 123.251   3
   7   0 -14 175.919 192.839   3
   7   0 -13 57.8777 114.361   3
   7   0 -12 686.470 252.384   3
   7   0 -11-107.193 142.292   3
   7   0 -10 3012.94 506.038   3
   7   0  -9 169.465 198.698   3
   7   0  -8 1047.13 307.010   3
   7   0  -7-20.6127 144.624   3
   7   0  -6 107992. 3150.34   3
   7   0  -5-169.844 206.842   3
   7   0  -4 61180.2 1232.39   2
   7   0  -4 55012.8 2251.12   3
   7   0  -3 58.9492 123.532   3
   7   0  -3-13.2336 137.699   2
   7   0  -2 4431.98 438.226   2
   7   0  -2 6039.42 733.310   3
   7   0  -1 149.362 131.807   3
   7   0  -1-32.5970 210.294   2
   7   0   0 2142.73 406.186   2
   7   0   0 1675.14 410.442   3
   7   0   1 47.6554 331.426   2
   7   0   2 5135.61 683.285   2
   7   0   2 6937.84 691.701   1
   7   0   3-72.8226 151.214   1
   7   0   4 5588.36 645.196   1
   7   0   5 27.7133 135.875   1
   7   0   6 630.417 250.064   1
   7   0   7-258.269 274.486   1
   7   0   8 647.615 256.964   1
   7   0   9-283.445 265.425   1
   7  -1 -17 147.793 145.213   3
   7  -1 -16 234.000 186.493   3
   7   1 -16 220.578 154.899   3
   7  -1 -15 1062.10 340.921   3
   7   1 -15 642.673 259.114   3
   7  -1 -14 486.904 244.038   3
   7   1 -14 257.925 249.022   3
   7  -1 -13 764.523 309.965   3
   7   1 -13 765.427 291.665   3
   7  -1 -12 2246.04 458.942   3
   7   1 -12 2429.15 515.841   3
   7  -1 -11 4636.28 672.117   3
   7   1 -11 4527.66 698.033   3
   7  -1 -10 55.3956 97.5845   3
   7   1 -10 285.571 235.621   3
   7  -1  -9 1805.08 410.663   3
   7   1  -9 1444.17 371.796   3
   7  -1  -8 6121.14 731.240   3
   7   1  -8 5498.31 733.136   3
   7  -1  -7 774.792 269.207   3
   7   1  -7 563.161 229.117   3
   7  -1  -6 447.275 179.834   3
   7   1  -6 205.989 181.102   3
   7  -1  -5 8292.18 850.764   3
   7   1  -5 9127.02 925.386   3
   7  -1  -4 31725.2 1201.19   2
   7  -1  -4 34169.0 1727.56   3
   7   1  -4 32022.3 1759.34   3
   7  -1  -3 33905.6 1303.49   2
   7  -1  -3 38946.7 1889.20   3
   7   1  -3 35821.5 1858.43   3
   7  -1  -2 12141.6 809.220   2
   7  -1  -2 10067.6 942.746   3
   7   1  -2 11429.0 1045.86   3
   7   1  -1 44.3808 189.715   3
   7  -1  -1-151.127 164.497   3
   7  -1  -1 179.296 158.840   2
   7   1   0 1698.94 397.305   3
   7  -1   0 1162.57 290.942   2
   7  -1   1 8139.59 778.967   2
   7  -1   1 9069.64 646.913   1
   7   1   1 8907.24 980.877   3
   7   1   2 2718.03 514.910   1
   7  -1   2 2383.25 486.652   2
   7  -1   3-216.483 343.739   2
   7   1   3-292.232 223.382   1
   7  -1   4 593.606 274.997   2
   7   1   4 613.307 214.016   1
   7  -1   5-107.555 334.733   2
   7   1   5-350.595 230.092   1
   7  -1   6 1367.51 515.727   2
   7   1   6 1029.93 336.360   1
   7  -1   7 161.744 422.205   2
   7   1   7 131.996 239.999   1
   7  -1   8-316.706 367.673   2
   7   1   8-76.6461 212.093   1
   7  -1   9 4553.49 840.193   2
   7   1   9 3649.17 695.189   1
   7   1  10 37.3092 279.650   1
   7  -1  10-331.740 575.059   2
   7   1  11 1059.17 472.604   1
   7   1  12-600.251 393.910   1
   7  -2 -15-82.9098 187.196   3
   7  -2 -14 1049.75 330.022   3
   7   2 -14 788.698 305.444   3
   7  -2 -13 196.135 109.293   3
   7   2 -13 563.838 266.323   3
   7  -2 -12 998.102 326.694   3
   7   2 -12 605.763 290.216   3
   7  -2 -11 133.049 114.286   3
   7   2 -11 198.984 219.733   3
   7  -2 -10 9069.56 900.867   3
   7   2 -10 8202.22 959.193   3
   7  -2  -9 2101.53 442.036   3
   7   2  -9 1833.35 434.638   3
   7  -2  -8 7243.97 792.052   3
   7   2  -8 6254.13 810.209   3
   7  -2  -7 274.352 122.655   3
   7   2  -7 291.051 197.076   3
   7  -2  -6 148.704 107.384   3
   7   2  -6 79.8776 162.700   3
   7  -2  -5 1100.32 303.287   3
   7   2  -5 929.512 325.781   3
   7  -2  -4 1158.05 311.109   3
   7   2  -4 1313.44 396.166   3
   7   2  -3 1534.46 411.687   3
   7  -2  -3 1306.05 311.305   2
   7   2  -2 1916.70 438.750   3
   7  -2  -2 1631.20 371.769   2
   7  -2  -1 17498.7 1197.84   2
   7   2  -1 20785.7 1478.92   3
   7  -2   0 1189.15 320.585   2
   7   2   0 704.173 301.140   3
   7  -2   1 406.867 213.342   2
   7   2   2 561.804 277.121   1
   7  -2   2 811.725 244.849   2
   7   2   3 1279.80 396.523   1
   7  -2   3 702.898 328.763   2
   7  -2   4 1836.04 479.809   2
   7   2   4 1987.22 502.798   1
   7   2   5-137.176 238.984   1
   7  -2   5 54.1439 228.174   2
   7   2   6 920.172 399.946   1
   7  -2   6 1487.70 482.191   2
   7   2   7 3055.00 677.409   1
   7  -2   7 2427.74 615.897   2
   7   2   8 1406.90 400.810   1
   7  -2   8 2760.83 673.222   2
   7   2   9 1554.97 499.733   1
   7  -2   9 3009.42 734.679   2
   7   3 -12 1315.38 405.616   3
   7   3 -11-37.7164 156.793   3
   7   3 -10 294.765 224.695   3
   7   3  -9 2421.48 518.701   3
   7   3  -8 992.328 336.627   3
   7   3  -7 1258.31 388.143   3
   7   3  -6 968.484 325.435   3
   7   3  -5-437.826 306.273   3
   7   3  -4 71.5355 220.426   3
   7   3  -3 197.379 169.757   3
   7   3  -2 282.404 201.914   3
   7  -3  -2-34.2847 181.912   2
   7  -3  -1 225.367 221.435   2
   7   3  -1 41.2535 96.2539   3
   7  -3   0-411.379 322.086   2
   7   3   1 249.440 151.984   1
   7  -3   1 621.338 277.279   2
   7  -3   2 492.861 327.768   2
   7   3   2 70.8087 216.495   1
   7   3   3 84.0531 265.260   1
   7  -3   3 290.648 190.701   2
   7   3   4 649.742 364.800   1
   7  -3   4 477.543 329.422   2
   7  -3   5 1297.42 539.874   2
   8   0 -15-32.8151 113.939   3
   8   0 -14 176.144 148.838   3
   8   0 -13-70.0900 168.057   3
   8   0 -12 6211.42 825.881   3
   8   0 -11 219.108 201.427   3
   8   0 -10 198.215 165.334   3
   8   0  -9 103.410 170.876   3
   8   0  -8 4144.79 655.045   3
   8   0  -7-137.552 264.061   3
   8   0  -6 937.749 335.978   3
   8   0  -5 79.8879 177.771   3
   8   0  -4 1199.94 360.695   3
   8   0  -3 0.61488 156.151   3
   8   0  -2 3428.86 587.000   3
   8   0  -1 105.220 141.243   3
   8   0   0 181.363 259.547   2
   8   0   1-348.625 269.864   2
   8   0   1 45.3902 136.857   1
   8   0   2 11220.6 1064.50   2
   8   0   2 12878.5 1017.17   1
   8   0   3 130.793 405.200   2
   8   0   3-196.645 216.085   1
   8   0   4 13.6298 180.003   1
   8   0   4-224.952 388.289   2
   8   0   5-14.4661 464.794   2
   8   0   5-72.1604 130.153   1
   8   0   6 3419.01 818.206   2
   8   0   7 386.994 502.805   2
   8   0   8-386.313 541.063   2
   8   0   9-306.743 620.343   2
   8  -1 -16 948.395 322.808   3
   8  -1 -15 407.312 239.789   3
   8  -1 -14-3.24892 165.151   3
   8   1 -14 147.663 134.437   3
   8  -1 -13 284.679 229.430   3
   8   1 -13 320.034 168.841   3
   8  -1 -12 217.051 149.460   3
   8   1 -12 696.838 255.749   3
   8  -1 -11-146.223 170.717   3
   8   1 -11 142.255 230.379   3
   8  -1 -10 3396.70 609.436   3
   8   1 -10 3078.11 611.617   3
   8  -1  -9 1607.75 407.360   3
   8   1  -9 1543.10 428.380   3
   8  -1  -8 472.585 220.356   3
   8   1  -8 271.287 244.631   3
   8  -1  -7 3957.95 631.955   3
   8   1  -7 4114.66 665.928   3
   8  -1  -6 2981.36 558.217   3
   8   1  -6 3371.02 594.150   3
   8  -1  -5 5180.87 751.481   3
   8   1  -5 4778.96 729.926   3
   8  -1  -4 2643.77 551.677   3
   8   1  -4 1663.77 417.290   3
   8  -1  -3 4990.59 704.837   3
   8   1  -3 5458.95 799.045   3
   8   1  -2-128.049 238.692   3
   8  -1  -2 10.5475 148.812   3
   8   1  -1 897.440 363.010   3
   8  -1  -1 572.929 211.823   2
   8   1   0 282.007 243.057   3
   8  -1   0-176.213 202.899   2
   8  -1   1-58.9468 224.043   2
   8   1   2 639.766 228.049   1
   8  -1   2 1331.28 359.391   2
   8   1   3 996.400 345.657   1
   8  -1   3 259.773 235.092   2
   8  -1   4 3123.43 617.666   2
   8   1   4 4169.74 674.668   1
   8  -1   5 630.028 287.846   2
   8   1   5 1151.32 397.506   1
   8  -1   6 234.289 333.057   2
   8   1   6-197.582 291.026   1
   8  -1   7 1556.46 587.631   2
   8   1   7 1244.08 439.052   1
   8  -1   8 2264.75 626.119   2
   8   1   8 1864.98 498.655   1
   8   1   9 1385.96 514.636   1
   8   1  10-33.8667 459.966   1
   8  -2 -13 1806.94 457.048   3
   8  -2 -12 616.405 269.277   3
   8   2 -12-149.128 240.405   3
   8  -2 -11 43.3914 108.577   3
   8   2 -11 266.940 189.393   3
   8  -2 -10 102.202 118.292   3
   8   2 -10 202.107 211.482   3
   8  -2  -9-44.3787 101.681   3
   8   2  -9-77.7872 117.728   3
   8  -2  -8 653.090 256.841   3
   8   2  -8 344.102 126.977   3
   8  -2  -7 60.0132 147.803   3
   8   2  -7-154.207 197.850   3
   8  -2  -6 1595.77 426.393   3
   8   2  -6 1430.36 420.187   3
   8  -2  -5 732.432 299.964   3
   8   2  -5 802.584 293.758   3
   8   2  -4 2889.39 618.739   3
   8  -2  -4 2930.55 561.929   3
   8   2  -3 10400.8 1147.00   3
   8  -2  -2 15170.2 1137.11   2
   8   2  -2 18418.1 1485.75   3
   8   2  -1 1777.44 480.063   3
   8  -2  -1 1298.58 334.979   2
   8  -2   0 151.327 182.251   2
   8   2   0 15.3970 149.214   3
   8   2   1 440.806 331.891   1
   8  -2   1-447.358 298.234   2
   8   2   2 803.837 284.142   1
   8  -2   2 593.003 277.843   2
   8   2   3 195.581 193.046   1
   8  -2   3 279.462 283.711   2
   8   2   4 271.017 202.942   1
   8  -2   4-18.4697 282.450   2
   8   2   5 565.214 227.734   1
   8  -2   5 435.824 362.079   2
   8   2   6 1590.42 498.036   1
   8  -2   6 2149.40 596.824   2
   8  -2   7 315.226 389.093   2
   8   3  -9 1956.02 546.841   3
   8   3  -8-65.2100 118.628   3
   8   3  -7 4318.11 749.256   3
   8   3  -6 302.280 224.088   3
   8   3  -5 429.484 192.548   3
   8   3  -4 15.8577 218.079   3
   8   3  -3 312.501 190.833   3
   8   3  -2 1363.60 423.312   3
   8  -3  -2 648.566 252.840   2
   8  -3  -1 3668.81 663.137   2
   8   3  -1 4129.99 771.772   3
   8  -3   0 5335.06 803.159   2
   8  -3   1 2229.58 509.739   2
   8  -3   2 454.767 225.268   2
   8  -3   3-284.446 318.660   2
   9   0 -12 806.095 351.772   3
   9   0 -11-188.109 262.675   3
   9   0 -10 2247.74 557.458   3
   9   0  -9-136.206 152.926   3
   9   0  -8 1210.29 347.553   3
   9   0  -7 106.011 153.492   3
   9   0  -6 2996.08 599.452   3
   9   0  -5-295.033 221.668   3
   9   0  -4 578.652 214.739   3
   9   0  -3 166.841 186.517   3
   9   0  -2-26.1540 175.329   3
   9   0   1-225.511 280.746   1
   9   0   5-422.750 535.698   2
   9   0   6 848.575 517.686   2
   9   0   7-154.607 482.786   2
   9  -1 -13 954.360 356.678   3
   9  -1 -12 906.400 347.292   3
   9  -1 -11 239.497 228.010   3
   9  -1 -10-31.7353 281.746   3
   9   1 -10 151.915 193.393   3
   9  -1  -9 264.332 202.609   3
   9   1  -9-12.6814 221.143   3
   9  -1  -8 1786.02 431.923   3
   9   1  -8 1716.61 473.363   3
   9  -1  -7 1596.43 449.718   3
   9   1  -7 1288.08 406.693   3
   9  -1  -6-116.008 116.443   3
   9   1  -6-93.6154 254.448   3
   9  -1  -5 6877.92 912.117   3
   9   1  -5 5793.74 870.188   3
   9  -1  -4 125.388 129.744   3
   9   1  -4 232.348 258.511   3
   9   1  -3 1533.15 435.772   3
   9  -1  -3 1984.81 508.766   3
   9   1  -2-147.658 292.068   3
   9   1  -1 2720.69 610.994   3
   9   1   1-47.6174 314.314   1
   9   1   2-239.014 251.774   1
   9   1   3 490.543 330.221   1
   9   1   4-117.018 272.343   1
   9  -1   4-45.1963 284.463   2
   9   1   5-9.91276 200.063   1
   9  -1   5-191.739 410.077   2
   9  -1   6 230.472 345.118   2
   9   1   6 67.5902 285.986   1
   9  -1   7-1193.92 567.164   2
   9   1   7-38.4580 297.206   1
   9  -2 -11 267.986 190.783   3
   9  -2 -10 1168.60 369.393   3
   9  -2  -9-176.439 247.461   3
   9  -2  -8 304.523 208.796   3
   9  -2  -7 1546.13 409.199   3
   9   2  -7 1361.95 455.708   3
   9  -2  -6 5245.16 775.751   3
   9   2  -6 7009.68 983.969   3
   9   2  -5 2450.82 593.955   3
   9  -2  -5 1613.06 431.006   3
   9   2  -4 339.369 213.327   3
   9   2  -3 53.9748 224.512   3
   9   2  -2-204.185 207.278   3
   9   2  -1 319.289 229.672   3
   9   2   1-71.9860 239.059   1
   9  -2   3 1749.04 497.228   2
   9  -2   4 90.8540 268.295   2
   9  -2   5 1668.62 460.222   2
  10  -1  -7 233.557 152.360   3
  10  -1  -6 2288.14 567.013   3
  10  -1  -5 3025.77 638.913   3
  10  -1  -4 895.000 317.615   3
  10   1   0 282.257 282.114   1
  10   1   1-64.0496 307.404   1
  10   1   2 129.743 324.454   1
  10  -2  -7-61.6266 267.839   3
   0   0   0    0.00    0.00   0
TITL BKS-SS-DI-ANTH-238K-SS in P2(1)/c
REM P2(1)/c (#14 in standard setting)
CELL 0.71073   7.886358   3.948778  15.773956  90.0000 102.6244  90.0000
ZERR    2.00   0.000665   0.000465   0.001968   0.0000   0.0100   0.0000
LATT  1
SYMM -x, y+1/2,-z+1/2
SFAC C H O
UNIT 24.00 16.00 4.00
TREF
HKLF 4
END
;
_shelx_hkl_checksum              25806
_olex2_submission_special_instructions 'No special instructions were received'
loop_
_space_group_symop_operation_xyz
'x, y, z'
'-x, y+1/2, -z+1/2'
'-x, -y, -z'
'x, -y-1/2, z-1/2'
loop_
_atom_site_label
_atom_site_type_symbol
_atom_site_fract_x
_atom_site_fract_y
_atom_site_fract_z
_atom_site_U_iso_or_equiv
_atom_site_adp_type
_atom_site_occupancy
_atom_site_site_symmetry_order
_atom_site_calc_flag
_atom_site_refinement_flags_posn
_atom_site_refinement_flags_adp
_atom_site_refinement_flags_occupancy
_atom_site_disorder_assembly
_atom_site_disorder_group
C2 C 0.4358(2) 0.6537(4) 0.41492(10) 0.0354(4) Uani 1 1 d . . . . .
C7 C 0.32656(19) 0.6394(4) 0.47398(10) 0.0351(4) Uani 1 1 d . . . . .
C1 C 0.6151(2) 0.5130(4) 0.43860(11) 0.0386(5) Uani 1 1 d . . . . .
C5 C 0.1010(2) 0.9141(4) 0.36851(13) 0.0480(5) Uani 1 1 d . . . . .
H5 H -0.012107 1.002964 0.352796 0.058 Uiso 1 1 calc R U . . .
O1 O 0.71120(16) 0.5233(3) 0.38719(9) 0.0620(5) Uani 1 1 d . . . . .
C3 C 0.3759(2) 0.7981(4) 0.33349(12) 0.0445(5) Uani 1 1 d . . . . .
H3 H 0.449213 0.808032 0.293908 0.053 Uiso 1 1 calc R U . . .
C6 C 0.1580(2) 0.7715(4) 0.44936(11) 0.0433(5) Uani 1 1 d . . . . .
H6 H 0.083319 0.762654 0.488316 0.052 Uiso 1 1 calc R U . . .
C4 C 0.2087(2) 0.9277(4) 0.31023(12) 0.0491(5) Uani 1 1 d . . . . .
H4 H 0.168818 1.024549 0.255027 0.059 Uiso 1 1 calc R U . . .
loop_
_atom_site_aniso_label
_atom_site_aniso_U_11
_atom_site_aniso_U_22
_atom_site_aniso_U_33
_atom_site_aniso_U_23
_atom_site_aniso_U_13
_atom_site_aniso_U_12
C2 0.0369(9) 0.0348(9) 0.0342(10) -0.0034(7) 0.0070(7) -0.0034(7)
C7 0.0330(8) 0.0348(9) 0.0373(10) -0.0053(7) 0.0071(7) -0.0034(7)
C1 0.0353(9) 0.0452(11) 0.0372(10) -0.0032(7) 0.0119(8) -0.0031(7)
C5 0.0371(10) 0.0464(11) 0.0547(13) -0.0037(9) -0.0028(8) 0.0036(8)
O1 0.0472(8) 0.0977(12) 0.0474(9) 0.0111(7) 0.0238(7) 0.0098(7)
C3 0.0488(10) 0.0468(11) 0.0383(11) -0.0005(8) 0.0103(8) -0.0014(8)
C6 0.0346(9) 0.0451(11) 0.0505(12) -0.0025(8) 0.0098(8) 0.0017(7)
C4 0.0542(11) 0.0477(11) 0.0398(12) 0.0026(8) -0.0024(9) 0.0023(8)
loop_
_atom_type_symbol
_atom_type_description
_atom_type_scat_dispersion_real
_atom_type_scat_dispersion_imag
_atom_type_scat_source
C C 0.0033 0.0016 'International Tables Vol C Tables 4.2.6.8 and 6.1.1.4'
H H 0.0000 0.0000 'International Tables Vol C Tables 4.2.6.8 and 6.1.1.4'
O O 0.0106 0.0060 'International Tables Vol C Tables 4.2.6.8 and 6.1.1.4'
loop_
_geom_angle_atom_site_label_1
_geom_angle_atom_site_label_2
_geom_angle_atom_site_label_3
_geom_angle
_geom_angle_site_symmetry_1
_geom_angle_site_symmetry_3
_geom_angle_publ_flag
C7 C2 C1 120.42(15) . . ?
C3 C2 C7 119.74(15) . . ?
C3 C2 C1 119.84(14) . . ?
C2 C7 C1 121.57(15) . 3_666 ?
C2 C7 C6 118.98(16) . . ?
C6 C7 C1 119.45(15) . 3_666 ?
C7 C1 C2 118.02(13) 3_666 . ?
O1 C1 C2 120.81(16) . . ?
O1 C1 C7 121.17(15) . 3_666 ?
C6 C5 H5 119.7 . . ?
C6 C5 C4 120.56(16) . . ?
C4 C5 H5 119.7 . . ?
C2 C3 H3 119.7 . . ?
C4 C3 C2 120.50(16) . . ?
C4 C3 H3 119.7 . . ?
C7 C6 H6 119.8 . . ?
C5 C6 C7 120.44(16) . . ?
C5 C6 H6 119.8 . . ?
C5 C4 C3 119.77(18) . . ?
C5 C4 H4 120.1 . . ?
C3 C4 H4 120.1 . . ?
loop_
_geom_bond_atom_site_label_1
_geom_bond_atom_site_label_2
_geom_bond_distance
_geom_bond_site_symmetry_2
_geom_bond_publ_flag
C2 C7 1.402(2) . ?
C2 C1 1.488(2) . ?
C2 C3 1.390(2) . ?
C7 C1 1.483(2) 3_666 ?
C7 C6 1.402(2) . ?
C1 O1 1.2258(18) . ?
C5 H5 0.9400 . ?
C5 C6 1.377(2) . ?
C5 C4 1.383(2) . ?
C3 H3 0.9400 . ?
C3 C4 1.387(2) . ?
C6 H6 0.9400 . ?
C4 H4 0.9400 . ?
loop_
_geom_torsion_atom_site_label_1
_geom_torsion_atom_site_label_2
_geom_torsion_atom_site_label_3
_geom_torsion_atom_site_label_4
_geom_torsion
_geom_torsion_site_symmetry_1
_geom_torsion_site_symmetry_2
_geom_torsion_site_symmetry_3
_geom_torsion_site_symmetry_4
_geom_torsion_publ_flag
C2 C7 C6 C5 -0.2(2) . . . . ?
C2 C3 C4 C5 0.2(3) . . . . ?
C7 C2 C1 C7 -0.3(2) . . . 3_666 ?
C7 C2 C1 O1 179.71(15) . . . . ?
C7 C2 C3 C4 -0.1(3) . . . . ?
C1 C2 C7 C1 0.3(2) . . . 3_666 ?
C1 C2 C7 C6 -179.45(13) . . . . ?
C1 C2 C3 C4 179.48(14) . . . . ?
C1 C7 C6 C5 -179.98(15) 3_666 . . . ?
C3 C2 C7 C1 179.86(14) . . . 3_666 ?
C3 C2 C7 C6 0.1(2) . . . . ?
C3 C2 C1 C7 -179.85(14) . . . 3_666 ?
C3 C2 C1 O1 0.1(2) . . . . ?
C6 C5 C4 C3 -0.3(3) . . . . ?
C4 C5 C6 C7 0.3(3) . . . . ?
