#------------------------------------------------------------------------------
#$Date: 2021-04-05 17:35:19 +0300 (Mon, 05 Apr 2021) $
#$Revision: 263730 $
#$URL: file:///home/coder/svn-repositories/cod/cif/7/24/21/7242176.cif $
#------------------------------------------------------------------------------
#
# This file is available in the Crystallography Open Database (COD),
# http://www.crystallography.net/
#
# All data on this site have been placed in the public domain by the
# contributors.
#
data_7242176
loop_
_publ_author_name
'da Cunha, Tamyris T.'
'da Silveira, Cleverton O. C.'
'Barbosa, Vitor M. M.'
'Oliveira, Willian X. C.'
'da Silva J\'unior, Eufr\^anio N.'
'Ferreira, Fabio F.'
'Pedroso, Emerson F.'
'Pereira, Cynthia L. M.'
_publ_section_title
;
 Ferromagnetic coupling in a dicopper(ii) oxamate complex bridged by
 carboxylate groups
;
_journal_issue                   9
_journal_name_full               CrystEngComm
_journal_page_first              1885
_journal_page_last               1897
_journal_paper_doi               10.1039/D0CE01742F
_journal_volume                  23
_journal_year                    2021
_chemical_compound_source        UFMG
_chemical_formula_moiety         'C16 H12 Cu N2 O8'
_chemical_formula_sum            'C16 H12 Cu N2 O8'
_chemical_formula_weight         423.821
_chemical_name_common            Cufenox
_chemical_name_mineral           ??
_space_group_crystal_system      monoclinic
_space_group_IT_number           14
_space_group_name_Hall           '-P 2ybc'
_space_group_name_H-M_alt        'P 1 21/c 1'
_atom_sites_solution_hydrogens   geom
_audit_creation_method           'TOPAS-Academic 7 + PLATON'
_audit_update_record
;
2021-01-16 deposited with the CCDC.	2021-01-22 downloaded from the CCDC.
;
_cell_angle_alpha                90
_cell_angle_beta                 95.931(6)
_cell_angle_gamma                90
_cell_formula_units_Z            2
_cell_length_a                   9.3282(5)
_cell_length_b                   9.0226(5)
_cell_length_c                   9.2963(5)
_cell_measurement_pressure       100
_cell_measurement_temperature    298(2)
_cell_volume                     778.23(7)
_computing_cell_refinement       'TOPAS-Academic v.7'
_computing_data_collection       WinXPOW
_computing_data_reduction        'TOPAS-Academic v.7'
_computing_molecular_graphics    'Mercury 2020.2'
_computing_publication_material  'Mercury 2020.2'
_computing_structure_refinement  'TOPAS-Academic 6'
_computing_structure_solution    'ab initio algorithm (DASH)'
_diffrn_ambient_pressure         100
_diffrn_ambient_temperature      298
_diffrn_measurement_device_type  'Stoe STADI-P diffractometer'
_diffrn_radiation_monochromator  none
_diffrn_radiation_probe          x-ray
_diffrn_radiation_type           'Cu K\a~1~'
_diffrn_radiation_wavelength     1.54056
_diffrn_source                   'sealed X-ray tube'
_diffrn_source_type              'Stoe STADI-P'
_exptl_absorpt_coefficient_mu    2.48805
_exptl_absorpt_process_details
;
;
_exptl_crystal_colour            white
_exptl_crystal_density_diffrn    1.8086
_exptl_crystal_description       powder
_exptl_crystal_F_000             430
_exptl_crystal_recrystallization_method ethanol
_pd_calc_method                  'Rietveld Refinement'
_pd_char_colour                  white
_pd_meas_number_of_points        2132
_pd_meas_scan_method             step
_pd_proc_2theta_range_inc        0.015
_pd_proc_2theta_range_max        90.185
_pd_proc_2theta_range_min        2
_pd_proc_info_excluded_regions   none
_pd_proc_ls_background_function  '20-term Chebyschev polynomial'
_pd_proc_ls_pref_orient_corr     none
_pd_proc_ls_profile_function     'Fundamental parameters approach'
_pd_proc_ls_prof_R_factor        0.03595
_pd_proc_ls_prof_wR_expected     0.01851
_pd_proc_ls_prof_wR_factor       0.04951
_pd_proc_number_of_points        2132
_pd_spec_mounting                'cellulose acetate foil'
_pd_spec_mount_mode              transmission
_refine_ls_extinction_method     none
_refine_ls_goodness_of_fit_all   2.674
_refine_ls_hydrogen_treatment    refall
_refine_ls_matrix_type           full
_refine_ls_number_constraints    0
_refine_ls_number_parameters     106
_refine_ls_number_restraints     31
_refine_ls_R_I_factor            0.01457
_refine_ls_shift/su_max          0.0001
_refine_ls_shift/su_mean         0.0001
_refine_ls_weighting_scheme      sigma
_reflns_d_resolution_high        9.2783
_reflns_d_resolution_low         1.53102
_reflns_limit_h_max              6
_reflns_limit_h_min              0
_reflns_limit_k_max              5
_reflns_limit_k_min              0
_reflns_limit_l_max              6
_reflns_limit_l_min              -6
_reflns_number_total             224
_cod_data_source_file            d0ce01742f2.cif
_cod_data_source_block           Cufenox-V4
_cod_depositor_comments
'Adding full bibliography for 7242174--7242176.cif.'
_cod_original_sg_symbol_H-M      'P 21/c'
_cod_database_code               7242176
loop_
_symmetry_equiv_pos_as_xyz
'x, y, z '
'-x, y+1/2, -z+1/2 '
'x, -y+1/2, z+1/2 '
'-x, -y, -z '
loop_
_atom_site_label
_atom_site_type_symbol
_atom_site_symmetry_multiplicity
_atom_site_fract_x
_atom_site_fract_y
_atom_site_fract_z
_atom_site_occupancy
_atom_site_B_iso_or_equiv
_atom_site_U_iso_or_equiv
Cu1 Cu 2 0.5 0.5 0.5 1 4.07(8) 0.05155
C2 C 4 0.3623(2) 0.3148(3) 0.6462(3) 1 4.07(8) 0.05155
N1 N 4 0.2729(2) 0.2113(2) 0.6916(2) 1 4.07(8) 0.05155
O3 O 4 0.3335(5) 0.3879(4) 0.5335(3) 1 4.07(8) 0.05155
C1 C 4 0.5181(2) 0.3116(3) 0.7187(3) 1 4.07(8) 0.05155
C3 C 4 0.12611(19) 0.18827(15) 0.64737(13) 1 4.07(8) 0.05155
O2 O 4 0.5457(5) 0.2430(6) 0.8311(4) 1 4.07(8) 0.05155
O1 O 4 0.6016(4) 0.4065(4) 0.6675(5) 1 4.07(8) 0.05155
C4 C 4 0.0422(2) 0.2759(2) 0.54768(16) 1 4.07(8) 0.05155
C8 C 4 0.0653(2) 0.06661(16) 0.71152(16) 1 4.07(8) 0.05155
C5 C 4 -0.1041(2) 0.24331(19) 0.51073(16) 1 4.07(8) 0.05155
C7 C 4 -0.0804(2) 0.0313(2) 0.67680(16) 1 4.07(8) 0.05155
C6 C 4 -0.16550(19) 0.12027(17) 0.57575(14) 1 4.07(8) 0.05155
O4 O 4 -0.3069(3) 0.0863(3) 0.5422(2) 1 4.07(8) 0.05155
H4 H 4 0.0844(2) 0.3602(2) 0.50508(16) 1 4.88(10) 0.06186
H5 H 4 -0.1620(2) 0.30321(19) 0.44193(16) 1 4.88(10) 0.06186
H8 H 4 0.1245(2) 0.00701(16) 0.77953(16) 1 4.88(10) 0.06186
H1 H 4 0.3108(2) 0.1533(2) 0.7600(2) 1 4.88(10) 0.06186
H4A H 4 -0.3241(3) 0.0663(3) 0.4368(2) 1 4.88(10) 0.06186
H7 H 4 -0.1219(2) -0.0527(2) 0.72050(16) 1 4.88(10) 0.06186
loop_
_atom_type_symbol
_atom_type_description
_atom_type_scat_dispersion_real
_atom_type_scat_dispersion_imag
_atom_type_scat_source
C C 0.0181 0.0091 'International Tables Vol C Tables 4.2.6.8'
O O 0.0492 0.0322 'International Tables Vol C Tables 4.2.6.8'
N N 0.0311 0.0180 'International Tables Vol C Tables 4.2.6.8'
Cu Cu -1.9646 0.5888 'International Tables Vol C Tables 4.2.6.8'
loop_
_geom_angle_atom_site_label_1
_geom_angle_atom_site_label_2
_geom_angle_atom_site_label_3
_geom_angle
_geom_angle_site_symmetry_1
_geom_angle_site_symmetry_2
_geom_angle_site_symmetry_3
_geom_angle_publ_flag
O1 Cu1 O3 88.67(15) 1_555 . 1_555 n
loop_
_geom_bond_atom_site_label_1
_geom_bond_atom_site_label_2
_geom_bond_distance
_geom_bond_site_symmetry_1
_geom_bond_site_symmetry_2
_geom_bond_publ_flag
Cu1 O3 1.906(4) . 1_555 n
loop_
_refln_index_h
_refln_index_k
_refln_index_l
_refln_F_squared_calc
_refln_F_squared_meas
_refln_F_squared_sigma
_refln_observed_status
0 0 2 11.52 11.92 0.02 o
0 0 4 18.89 17.24 0.09 o
0 0 6 26.21 26.11 0.44 o
0 1 1 19.78 19.98 0.04 o
0 1 2 105.34 105.57 0.13 o
0 1 3 30.51 30.86 0.12 o
0 1 4 0.43 0.44 0.00 o
0 1 5 12.44 11.72 0.13 o
0 2 0 1.67 1.88 0.01 o
0 2 1 0.44 0.43 0.00 o
0 2 2 28.43 27.96 0.10 o
0 2 3 0.37 0.39 0.01 o
0 2 4 19.94 19.47 0.12 o
0 2 5 1.01 1.05 0.01 o
0 3 1 6.91 7.01 0.02 o
0 3 2 25.48 26.34 0.13 o
0 3 3 20.98 22.12 0.16 o
0 3 4 0.15 0.15 0.00 o
0 3 5 1.80 1.79 0.03 o
0 4 0 9.40 9.25 0.07 o
0 4 1 0.38 0.36 0.01 o
0 4 2 0.95 0.96 0.00 o
0 4 3 0.00 0.00 0.00 o
0 4 4 7.35 7.11 0.09 o
0 5 1 13.08 12.16 0.13 o
0 5 2 0.29 0.27 0.01 o
0 5 3 20.43 20.95 0.26 o
1 0 -6 10.26 10.24 0.15 o
1 0 -4 14.01 14.23 0.13 o
1 0 -2 0.06 0.06 0.00 o
1 0 0 26.72 26.31 0.03 o
1 0 2 6.81 6.74 0.04 o
1 0 4 0.01 0.01 0.00 o
1 1 -5 7.59 7.13 0.07 o
1 1 -4 0.98 1.01 0.01 o
1 1 -3 24.30 25.33 0.07 o
1 1 -2 34.51 34.53 0.04 o
1 1 -1 111.26 112.20 0.09 o
1 1 0 4.78 4.81 0.01 o
1 1 1 93.41 94.07 0.10 o
1 1 2 1.13 1.10 0.00 o
1 1 3 14.71 14.48 0.07 o
1 1 4 0.02 0.02 0.00 o
1 1 5 63.67 63.63 0.46 o
1 2 -5 3.29 3.32 0.04 o
1 2 -4 6.63 6.40 0.06 o
1 2 -3 29.45 28.56 0.14 o
1 2 -2 368.57 368.06 0.32 o
1 2 -1 169.86 169.08 0.16 o
1 2 0 8.76 8.51 0.04 o
1 2 1 0.90 0.88 0.00 o
1 2 2 58.93 57.23 0.18 o
1 2 3 33.56 33.46 0.20 o
1 2 4 51.72 52.47 0.33 o
1 2 5 0.11 0.11 0.00 o
1 3 -5 18.89 18.62 0.29 o
1 3 -4 5.79 6.02 0.03 o
1 3 -3 60.07 61.18 0.24 o
1 3 -2 16.61 17.78 0.10 o
1 3 -1 4.44 4.67 0.04 o
1 3 0 15.44 15.75 0.05 o
1 3 1 21.03 20.66 0.10 o
1 3 2 5.52 5.28 0.04 o
1 3 3 9.05 8.93 0.05 o
1 3 4 1.57 1.44 0.01 o
1 3 5 2.02 2.02 0.02 o
1 4 -4 4.01 4.06 0.07 o
1 4 -3 0.29 0.29 0.01 o
1 4 -2 0.23 0.23 0.00 o
1 4 -1 9.54 9.78 0.08 o
1 4 0 2.23 2.14 0.03 o
1 4 1 2.02 1.99 0.03 o
1 4 2 11.94 11.35 0.10 o
1 4 3 0.90 0.92 0.01 o
1 4 4 0.72 0.74 0.02 o
1 5 -3 9.47 9.26 0.15 o
1 5 -2 9.73 9.85 0.10 o
1 5 -1 11.84 11.90 0.09 o
1 5 0 3.90 3.62 0.04 o
1 5 1 3.70 3.49 0.03 o
1 5 2 0.99 1.01 0.01 o
2 0 -4 3.81 3.48 0.03 o
2 0 -2 0.79 0.93 0.01 o
2 0 0 36.41 38.17 0.07 o
2 0 2 0.76 0.76 0.00 o
2 0 4 8.94 9.09 0.12 o
2 1 -5 0.63 0.61 0.01 o
2 1 -4 8.20 8.47 0.12 o
2 1 -3 21.84 21.07 0.17 o
2 1 -2 1.74 1.71 0.01 o
2 1 -1 80.58 80.43 0.10 o
2 1 0 0.18 0.18 0.00 o
2 1 1 35.73 34.96 0.11 o
2 1 2 40.51 38.96 0.14 o
2 1 3 34.56 35.51 0.19 o
2 1 4 0.16 0.17 0.00 o
2 1 5 20.33 21.58 0.31 o
2 2 -5 1.62 1.69 0.02 o
2 2 -4 2.91 2.90 0.02 o
2 2 -3 8.79 8.34 0.03 o
2 2 -2 7.80 8.06 0.07 o
2 2 -1 20.74 20.78 0.02 o
2 2 0 6.53 6.44 0.03 o
2 2 1 0.00 0.00 0.00 o
2 2 2 0.39 0.38 0.01 o
2 2 3 2.83 2.87 0.02 o
2 2 4 14.96 15.18 0.09 o
2 2 5 0.23 0.24 0.00 o
2 3 -5 0.24 0.24 0.00 o
2 3 -4 41.63 41.06 0.33 o
2 3 -3 48.55 50.06 0.30 o
2 3 -2 4.85 4.83 0.06 o
2 3 -1 19.10 20.23 0.11 o
2 3 0 2.65 2.77 0.02 o
2 3 1 2.55 2.47 0.02 o
2 3 2 0.17 0.16 0.00 o
2 3 3 23.65 24.16 0.24 o
2 3 4 17.36 18.17 0.17 o
2 4 -4 41.37 40.84 0.41 o
2 4 -3 29.72 28.31 0.24 o
2 4 -2 19.60 19.53 0.17 o
2 4 -1 6.52 6.66 0.08 o
2 4 0 64.35 65.11 0.33 o
2 4 1 7.28 6.93 0.06 o
2 4 2 46.56 48.56 0.25 o
2 4 3 2.34 2.46 0.02 o
2 5 -2 0.00 0.00 0.00 o
2 5 -1 3.89 3.90 0.04 o
2 5 0 3.53 3.27 0.07 o
2 5 1 18.93 19.12 0.16 o
2 5 2 0.22 0.22 0.00 o
3 0 -4 0.30 0.29 0.00 o
3 0 -2 0.01 0.01 0.00 o
3 0 0 1.86 1.81 0.01 o
3 0 2 0.32 0.33 0.00 o
3 0 4 8.30 8.37 0.11 o
3 1 -5 15.98 16.59 0.16 o
3 1 -4 0.29 0.30 0.00 o
3 1 -3 18.57 18.98 0.12 o
3 1 -2 0.07 0.07 0.00 o
3 1 -1 24.19 25.11 0.08 o
3 1 0 10.55 10.78 0.04 o
3 1 1 2.61 2.63 0.02 o
3 1 2 28.81 29.90 0.16 o
3 1 3 17.06 17.10 0.09 o
3 1 4 0.07 0.06 0.00 o
3 2 -5 0.00 0.00 0.00 o
3 2 -4 2.66 2.53 0.04 o
3 2 -3 3.34 3.25 0.02 o
3 2 -2 57.59 56.01 0.23 o
3 2 -1 5.57 5.55 0.02 o
3 2 0 1.57 1.63 0.02 o
3 2 1 0.07 0.07 0.00 o
3 2 2 2.32 2.27 0.02 o
3 2 3 18.34 18.68 0.16 o
3 2 4 13.38 13.23 0.13 o
3 3 -4 1.32 1.37 0.01 o
3 3 -3 13.82 13.41 0.09 o
3 3 -2 0.06 0.06 0.00 o
3 3 -1 45.98 46.87 0.18 o
3 3 0 5.58 5.59 0.04 o
3 3 1 44.64 43.66 0.27 o
3 3 2 0.00 0.00 0.00 o
3 3 3 11.79 13.08 0.20 o
3 4 -3 4.30 4.23 0.06 o
3 4 -2 9.86 9.28 0.08 o
3 4 -1 2.05 2.01 0.03 o
3 4 0 37.51 38.85 0.19 o
3 4 1 4.22 4.15 0.05 o
3 4 2 19.89 20.99 0.16 o
3 5 -1 0.21 0.20 0.00 o
3 5 0 3.25 3.33 0.04 o
4 0 -4 14.39 13.95 0.13 o
4 0 -2 5.58 5.11 0.06 o
4 0 0 0.01 0.01 0.00 o
4 0 2 0.24 0.25 0.00 o
4 0 4 6.63 6.76 0.07 o
4 1 -4 0.49 0.51 0.01 o
4 1 -3 29.89 30.76 0.29 o
4 1 -2 0.66 0.71 0.01 o
4 1 -1 18.43 18.82 0.11 o
4 1 0 42.02 43.86 0.23 o
4 1 1 4.28 4.37 0.02 o
4 1 2 17.49 18.52 0.20 o
4 1 3 3.72 3.55 0.04 o
4 1 4 0.02 0.02 0.00 o
4 2 -4 1.79 1.74 0.02 o
4 2 -3 2.81 2.74 0.05 o
4 2 -2 42.35 40.54 0.27 o
4 2 -1 21.77 21.15 0.13 o
4 2 0 3.41 3.37 0.02 o
4 2 1 6.91 6.97 0.06 o
4 2 2 36.31 37.74 0.18 o
4 2 3 1.03 0.99 0.01 o
4 3 -3 5.46 5.66 0.05 o
4 3 -2 2.26 2.19 0.02 o
4 3 -1 16.16 15.65 0.11 o
4 3 0 1.14 1.11 0.02 o
4 3 1 11.20 10.51 0.13 o
4 3 2 1.05 1.11 0.01 o
4 4 -2 0.15 0.14 0.00 o
4 4 -1 2.65 2.61 0.04 o
4 4 0 26.13 25.47 0.32 o
4 4 1 0.10 0.10 0.00 o
5 0 -2 4.86 4.55 0.08 o
5 0 0 38.13 39.00 0.36 o
5 0 2 11.15 11.52 0.10 o
5 1 -3 30.89 31.52 0.25 o
5 1 -2 4.59 4.57 0.04 o
5 1 -1 7.25 7.26 0.05 o
5 1 0 1.78 1.74 0.01 o
5 1 1 0.18 0.18 0.00 o
5 1 2 0.47 0.49 0.01 o
5 2 -3 0.12 0.12 0.00 o
5 2 -2 23.50 24.80 0.19 o
5 2 -1 20.18 20.42 0.24 o
5 2 0 4.99 4.99 0.06 o
5 2 1 0.02 0.02 0.00 o
5 2 2 6.06 5.90 0.06 o
5 3 -2 5.27 5.27 0.07 o
5 3 -1 2.76 2.70 0.05 o
5 3 0 0.77 0.74 0.01 o
5 3 1 15.32 15.34 0.19 o
6 0 0 4.12 4.15 0.06 o
