#------------------------------------------------------------------------------
#$Date: 2021-12-07 04:56:03 +0200 (Tue, 07 Dec 2021) $
#$Revision: 271163 $
#$URL: file:///home/coder/svn-repositories/cod/cif/7/24/36/7243612.cif $
#------------------------------------------------------------------------------
#
# This file is available in the Crystallography Open Database (COD),
# http://www.crystallography.net/
#
# All data on this site have been placed in the public domain by the
# contributors.
#
data_7243612
loop_
_publ_author_name
'Fang, Lan'
'Xiao, Yuntian'
'Zhang, Chengtian'
'Gao, Zhenguo'
'Wu, Songgu'
'Gong, Junbo'
'Rohani, Sohrab'
_publ_section_title
;
 Intermolecular interactions and solubility behavior of multicomponent
 crystal forms of 2,4-D: design, structure analysis, and solid-state
 characterization
;
_journal_issue                   43
_journal_name_full               CrystEngComm
_journal_page_first              7615
_journal_page_last               7627
_journal_paper_doi               10.1039/D1CE01080H
_journal_volume                  23
_journal_year                    2021
_chemical_formula_sum            'C14 H12 Cl2 N2 O4'
_chemical_formula_weight         343.16
_space_group_crystal_system      triclinic
_space_group_IT_number           2
_space_group_name_Hall           '-P 1'
_space_group_name_H-M_alt        'P -1'
_atom_sites_solution_hydrogens   geom
_audit_creation_method           SHELXL-2018/3
_audit_update_record
;
2021-03-01 deposited with the CCDC.	2021-09-23 downloaded from the CCDC.
;
_cell_angle_alpha                79.048(5)
_cell_angle_beta                 84.886(4)
_cell_angle_gamma                85.843(4)
_cell_formula_units_Z            2
_cell_length_a                   3.9581(2)
_cell_length_b                   10.5180(6)
_cell_length_c                   17.6996(10)
_cell_measurement_temperature    113(2)
_cell_volume                     719.39(7)
_computing_structure_refinement  'SHELXL-2018/3 (Sheldrick, 2018)'
_computing_structure_solution    'SHELXT 2018/2 (Sheldrick, 2018)'
_diffrn_ambient_temperature      113(2)
_diffrn_measured_fraction_theta_full 1.000
_diffrn_measured_fraction_theta_max 0.904
_diffrn_radiation_type           MoK\a
_diffrn_radiation_wavelength     0.71073
_diffrn_reflns_av_R_equivalents  0.0342
_diffrn_reflns_av_unetI/netI     0.0453
_diffrn_reflns_Laue_measured_fraction_full 1.000
_diffrn_reflns_Laue_measured_fraction_max 0.904
_diffrn_reflns_limit_h_max       5
_diffrn_reflns_limit_h_min       -5
_diffrn_reflns_limit_k_max       15
_diffrn_reflns_limit_k_min       -16
_diffrn_reflns_limit_l_max       26
_diffrn_reflns_limit_l_min       -26
_diffrn_reflns_number            10809
_diffrn_reflns_point_group_measured_fraction_full 1.000
_diffrn_reflns_point_group_measured_fraction_max 0.904
_diffrn_reflns_theta_full        25.242
_diffrn_reflns_theta_max         32.879
_diffrn_reflns_theta_min         1.975
_exptl_absorpt_coefficient_mu    0.471
_exptl_crystal_density_diffrn    1.584
_exptl_crystal_F_000             352
_exptl_crystal_size_max          0.100
_exptl_crystal_size_mid          0.080
_exptl_crystal_size_min          0.060
_refine_diff_density_max         0.428
_refine_diff_density_min         -0.370
_refine_diff_density_rms         0.072
_refine_ls_extinction_coef       0.031(3)
_refine_ls_extinction_expression Fc^*^=kFc[1+0.001xFc^2^\l^3^/sin(2\q)]^-1/4^
_refine_ls_extinction_method     'SHELXL-2018/3 (Sheldrick 2018)'
_refine_ls_goodness_of_fit_ref   1.047
_refine_ls_hydrogen_treatment    constr
_refine_ls_matrix_type           full
_refine_ls_number_parameters     201
_refine_ls_number_reflns         4831
_refine_ls_number_restraints     0
_refine_ls_restrained_S_all      1.047
_refine_ls_R_factor_all          0.0520
_refine_ls_R_factor_gt           0.0412
_refine_ls_shift/su_max          0.001
_refine_ls_shift/su_mean         0.000
_refine_ls_structure_factor_coef Fsqd
_refine_ls_weighting_details
'w=1/[\s^2^(Fo^2^)+(0.0476P)^2^+0.1786P] where P=(Fo^2^+2Fc^2^)/3'
_refine_ls_weighting_scheme      calc
_refine_ls_wR_factor_gt          0.0987
_refine_ls_wR_factor_ref         0.1073
_reflns_Friedel_coverage         0.000
_reflns_number_gt                3967
_reflns_number_total             4831
_reflns_threshold_expression     'I > 2\s(I)'
_cod_data_source_file            d1ce01080h2.cif
_cod_data_source_block           r20210226a
_cod_depositor_comments
'Adding full bibliography for 7243608--7243612.cif.'
_cod_database_code               7243612
_shelx_shelxl_version_number     2018/3
_shelx_space_group_comment
;
The symmetry employed for this shelxl refinement is uniquely defined
by the following loop, which should always be used as a source of
symmetry information in preference to the above space-group names.
They are only intended as comments.
;
_shelx_estimated_absorpt_t_min   0.954
_shelx_estimated_absorpt_t_max   0.972
_shelx_res_file
;
TITL r20210226a_a.res in P-1
    r20210226a.res
    created by SHELXL-2018/3 at 15:32:32 on 27-Feb-2021
REM Old TITL r20210226a in P-1
REM SHELXT solution in P-1: R1 0.101, Rweak 0.005, Alpha 0.021
REM <I/s> 0.000 for 0 systematic absences, Orientation as input
REM Formula found by SHELXT: C14 N2 O4 Cl2
CELL 0.71073 3.9581 10.518 17.6996 79.048 84.886 85.843
ZERR 2 0.0002 0.0006 0.001 0.005 0.004 0.004
LATT 1
SFAC C H Cl N O
UNIT 28 24 4 4 8

L.S. 20
PLAN  20
SIZE 0.1 0.08 0.06
TEMP -160
list 4
conf
htab
bond $h
fmap 2
acta
REM <olex2.extras>
REM <HklSrc "%.\\r20210226a.hkl">
REM </olex2.extras>

WGHT    0.047600    0.178600
EXTI    0.031103
FVAR       1.01000
CL1   3    0.385911    1.009897    0.373949    11.00000    0.02591    0.01669 =
         0.02438   -0.00780   -0.00256   -0.00295
CL2   3   -0.197584    0.659200    0.603228    11.00000    0.03987    0.02725 =
         0.01530   -0.00201    0.00341    0.00395
O1    5    0.214423    0.842255    0.274680    11.00000    0.02044    0.01717 =
         0.01382   -0.00628    0.00069   -0.00307
O2    5    0.138239    0.654126    0.128214    11.00000    0.02931    0.02098 =
         0.01555   -0.00749   -0.00531    0.00422
O3    5    0.401285    0.602269    0.237879    11.00000    0.02280    0.01787 =
         0.01649   -0.00751   -0.00389    0.00475
AFIX 147
H3    2    0.482666    0.539241    0.217931    11.00000   -1.50000
AFIX   0
C1    1    0.184375    0.865741    0.404767    11.00000    0.01595    0.01378 =
         0.01931   -0.00559   -0.00144    0.00173
C2    1    0.097243    0.825428    0.482777    11.00000    0.02205    0.01917 =
         0.01677   -0.00783   -0.00365    0.00509
AFIX  43
H2    2    0.155982    0.873207    0.519700    11.00000   -1.20000
AFIX   0
C3    1   -0.078924    0.712853    0.505501    11.00000    0.02122    0.02077 =
         0.01464   -0.00318    0.00097    0.00550
C4    1   -0.164460    0.642795    0.452171    11.00000    0.01960    0.01734 =
         0.02004   -0.00292    0.00080    0.00086
AFIX  43
H4    2   -0.286199    0.566569    0.468749    11.00000   -1.20000
AFIX   0
C5    1   -0.072289    0.683914    0.374265    11.00000    0.01894    0.01604 =
         0.01830   -0.00611   -0.00090    0.00032
AFIX  43
H5    2   -0.131186    0.635678    0.337586    11.00000   -1.20000
AFIX   0
C6    1    0.105637    0.795267    0.349774    11.00000    0.01472    0.01400 =
         0.01503   -0.00453   -0.00015    0.00258
C7    1    0.055152    0.801420    0.214884    11.00000    0.01849    0.01512 =
         0.01566   -0.00505   -0.00191    0.00022
AFIX  23
H7A   2    0.063172    0.872096    0.169106    11.00000   -1.20000
H7B   2   -0.187064    0.789359    0.232266    11.00000   -1.20000
AFIX   0
C8    1    0.206707    0.677543    0.190144    11.00000    0.01729    0.01409 =
         0.01341   -0.00386    0.00154   -0.00189
O4    5    1.388826    0.038912    0.096272    11.00000    0.02634    0.01651 =
         0.01733   -0.00186   -0.00124    0.00511
N1    4    0.666752    0.403621    0.181419    11.00000    0.01957    0.01798 =
         0.01755   -0.00723   -0.00021   -0.00011
N2    4    1.217400    0.147272   -0.018020    11.00000    0.02957    0.01882 =
         0.01580   -0.00568   -0.00223    0.00907
AFIX  93
H2A   2    1.337331    0.093738   -0.043991    11.00000   -1.20000
H2B   2    1.094756    0.212765   -0.042572    11.00000   -1.20000
AFIX   0
C9    1    0.808526    0.291652    0.218534    11.00000    0.02466    0.02137 =
         0.01515   -0.00584   -0.00084    0.00131
AFIX  43
H9    2    0.786283    0.273886    0.273357    11.00000   -1.20000
AFIX   0
C10   1    0.985647    0.201065    0.180292    11.00000    0.02175    0.01726 =
         0.01657   -0.00391   -0.00229    0.00253
AFIX  43
H10   2    1.082820    0.123110    0.208503    11.00000   -1.20000
AFIX   0
C11   1    1.019217    0.225995    0.099753    11.00000    0.01677    0.01331 =
         0.01506   -0.00510   -0.00045   -0.00125
C12   1    0.868861    0.341342    0.061084    11.00000    0.02065    0.01565 =
         0.01561   -0.00445   -0.00057    0.00122
AFIX  43
H12   2    0.884024    0.361000    0.006279    11.00000   -1.20000
AFIX   0
C13   1    0.696813    0.426931    0.103890    11.00000    0.02257    0.01644 =
         0.01757   -0.00556   -0.00128    0.00221
AFIX  43
H13   2    0.595879    0.505447    0.077188    11.00000   -1.20000
AFIX   0
C14   1    1.221501    0.129197    0.058346    11.00000    0.01777    0.01250 =
         0.01619   -0.00441    0.00057   -0.00029
HKLF 4




REM  r20210226a_a.res in P-1
REM wR2 = 0.1073, GooF = S = 1.047, Restrained GooF = 1.047 for all data
REM R1 = 0.0412 for 3967 Fo > 4sig(Fo) and 0.0520 for all 4831 data
REM 201 parameters refined using 0 restraints

END

WGHT      0.0476      0.1786

REM Instructions for potential hydrogen bonds
HTAB O3 N1
EQIV $1 x-1, y+1, z
HTAB C7 O4_$1
EQIV $2 x-1, y, z
HTAB C7 O3_$2
EQIV $3 -x+3, -y, -z
HTAB N2 O4_$3
EQIV $4 -x+1, -y+1, -z
HTAB N2 O2_$4
HTAB C12 O2_$4
HTAB C13 O2

REM Highest difference peak  0.428,  deepest hole -0.370,  1-sigma level  0.072
Q1    1   1.0007  0.2180  0.1399  11.00000  0.05    0.43
Q2    1   1.1315  0.1799  0.0820  11.00000  0.05    0.42
Q3    1   0.0153  0.7469  0.3614  11.00000  0.05    0.42
Q4    1   0.9499  0.2636  0.1969  11.00000  0.05    0.40
Q5    1   0.5606  0.4543  0.2005  11.00000  0.05    0.38
Q6    1   0.1426  0.7447  0.2026  11.00000  0.05    0.38
Q7    1   0.1642  0.8264  0.3812  11.00000  0.05    0.37
Q8    1   0.9115  0.2846  0.0890  11.00000  0.05    0.37
Q9    1   0.8014  0.3812  0.0880  11.00000  0.05    0.36
Q10   1   0.1512  0.6639  0.6075  11.00000  0.05    0.36
Q11   1  -0.1465  0.6936  0.4720  11.00000  0.05    0.34
Q12   1   0.6786  0.4057  0.1483  11.00000  0.05    0.34
Q13   1   0.7631  0.3439  0.1919  11.00000  0.05    0.32
Q14   1   0.6741  1.0007  0.3787  11.00000  0.05    0.32
Q15   1   0.8244  0.2326  0.1927  11.00000  0.05    0.30
Q16   1   0.0157  0.7656  0.4905  11.00000  0.05    0.30
Q17   1  -0.4511  0.6611  0.5987  11.00000  0.05    0.29
Q18   1   0.8108  0.9989  0.3701  11.00000  0.05    0.28
Q19   1   0.5124  1.0162  0.4245  11.00000  0.05    0.25
Q20   1   0.1466  0.8156  0.3160  11.00000  0.05    0.25
;
_shelx_res_checksum              20643
loop_
_space_group_symop_operation_xyz
'x, y, z'
'-x, -y, -z'
loop_
_atom_site_label
_atom_site_type_symbol
_atom_site_fract_x
_atom_site_fract_y
_atom_site_fract_z
_atom_site_U_iso_or_equiv
_atom_site_adp_type
_atom_site_occupancy
_atom_site_site_symmetry_order
_atom_site_calc_flag
_atom_site_refinement_flags_posn
_atom_site_refinement_flags_adp
_atom_site_refinement_flags_occupancy
_atom_site_disorder_assembly
_atom_site_disorder_group
Cl1 Cl 0.38591(9) 1.00990(3) 0.37395(2) 0.02167(10) Uani 1 1 d . . . . .
Cl2 Cl -0.19758(11) 0.65920(4) 0.60323(2) 0.02835(11) Uani 1 1 d . . . . .
O1 O 0.2144(3) 0.84226(9) 0.27468(5) 0.0167(2) Uani 1 1 d . . . . .
O2 O 0.1382(3) 0.65413(10) 0.12821(6) 0.0215(2) Uani 1 1 d . . . . .
O3 O 0.4013(3) 0.60227(10) 0.23788(6) 0.0186(2) Uani 1 1 d . . . . .
H3 H 0.482666 0.539241 0.217931 0.028 Uiso 1 1 calc R U . . .
C1 C 0.1844(4) 0.86574(13) 0.40477(8) 0.0161(3) Uani 1 1 d . . . . .
C2 C 0.0972(4) 0.82543(14) 0.48278(8) 0.0189(3) Uani 1 1 d . . . . .
H2 H 0.155982 0.873207 0.519700 0.023 Uiso 1 1 calc R U . . .
C3 C -0.0789(4) 0.71285(14) 0.50550(8) 0.0194(3) Uani 1 1 d . . . . .
C4 C -0.1645(4) 0.64280(14) 0.45217(8) 0.0193(3) Uani 1 1 d . . . . .
H4 H -0.286199 0.566569 0.468749 0.023 Uiso 1 1 calc R U . . .
C5 C -0.0723(4) 0.68391(13) 0.37427(8) 0.0175(3) Uani 1 1 d . . . . .
H5 H -0.131186 0.635678 0.337586 0.021 Uiso 1 1 calc R U . . .
C6 C 0.1056(3) 0.79527(13) 0.34977(8) 0.0146(2) Uani 1 1 d . . . . .
C7 C 0.0552(4) 0.80142(13) 0.21488(8) 0.0162(3) Uani 1 1 d . . . . .
H7A H 0.063172 0.872096 0.169106 0.019 Uiso 1 1 calc R U . . .
H7B H -0.187064 0.789359 0.232266 0.019 Uiso 1 1 calc R U . . .
C8 C 0.2067(4) 0.67754(13) 0.19014(7) 0.0149(2) Uani 1 1 d . . . . .
O4 O 1.3888(3) 0.03891(10) 0.09627(6) 0.0206(2) Uani 1 1 d . . . . .
N1 N 0.6668(3) 0.40362(12) 0.18142(7) 0.0180(2) Uani 1 1 d . . . . .
N2 N 1.2174(3) 0.14727(12) -0.01802(7) 0.0216(3) Uani 1 1 d . . . . .
H2A H 1.337331 0.093738 -0.043991 0.026 Uiso 1 1 calc R U . . .
H2B H 1.094756 0.212765 -0.042572 0.026 Uiso 1 1 calc R U . . .
C9 C 0.8085(4) 0.29165(14) 0.21853(8) 0.0202(3) Uani 1 1 d . . . . .
H9 H 0.786283 0.273886 0.273357 0.024 Uiso 1 1 calc R U . . .
C10 C 0.9856(4) 0.20106(14) 0.18029(8) 0.0185(3) Uani 1 1 d . . . . .
H10 H 1.082820 0.123110 0.208503 0.022 Uiso 1 1 calc R U . . .
C11 C 1.0192(3) 0.22600(12) 0.09975(8) 0.0148(2) Uani 1 1 d . . . . .
C12 C 0.8689(4) 0.34134(13) 0.06108(8) 0.0173(3) Uani 1 1 d . . . . .
H12 H 0.884024 0.361000 0.006279 0.021 Uiso 1 1 calc R U . . .
C13 C 0.6968(4) 0.42693(14) 0.10389(8) 0.0187(3) Uani 1 1 d . . . . .
H13 H 0.595879 0.505447 0.077188 0.022 Uiso 1 1 calc R U . . .
C14 C 1.2215(4) 0.12920(12) 0.05835(8) 0.0154(3) Uani 1 1 d . . . . .
loop_
_atom_site_aniso_label
_atom_site_aniso_U_11
_atom_site_aniso_U_22
_atom_site_aniso_U_33
_atom_site_aniso_U_23
_atom_site_aniso_U_13
_atom_site_aniso_U_12
Cl1 0.0259(2) 0.01669(16) 0.02438(18) -0.00780(12) -0.00256(14) -0.00295(13)
Cl2 0.0399(2) 0.02725(19) 0.01530(16) -0.00201(13) 0.00341(15) 0.00395(16)
O1 0.0204(5) 0.0172(4) 0.0138(4) -0.0063(3) 0.0007(4) -0.0031(4)
O2 0.0293(6) 0.0210(5) 0.0156(5) -0.0075(4) -0.0053(4) 0.0042(4)
O3 0.0228(5) 0.0179(5) 0.0165(5) -0.0075(4) -0.0039(4) 0.0048(4)
C1 0.0160(6) 0.0138(5) 0.0193(6) -0.0056(5) -0.0014(5) 0.0017(5)
C2 0.0221(7) 0.0192(6) 0.0168(6) -0.0078(5) -0.0036(5) 0.0051(5)
C3 0.0212(7) 0.0208(6) 0.0146(6) -0.0032(5) 0.0010(5) 0.0055(5)
C4 0.0196(7) 0.0173(6) 0.0200(6) -0.0029(5) 0.0008(5) 0.0009(5)
C5 0.0189(7) 0.0160(6) 0.0183(6) -0.0061(5) -0.0009(5) 0.0003(5)
C6 0.0147(6) 0.0140(5) 0.0150(6) -0.0045(4) -0.0001(5) 0.0026(5)
C7 0.0185(6) 0.0151(6) 0.0157(6) -0.0051(5) -0.0019(5) 0.0002(5)
C8 0.0173(6) 0.0141(5) 0.0134(5) -0.0039(4) 0.0015(5) -0.0019(5)
O4 0.0263(6) 0.0165(5) 0.0173(5) -0.0019(4) -0.0012(4) 0.0051(4)
N1 0.0196(6) 0.0180(5) 0.0175(5) -0.0072(4) -0.0002(4) -0.0001(4)
N2 0.0296(7) 0.0188(5) 0.0158(5) -0.0057(4) -0.0022(5) 0.0091(5)
C9 0.0247(8) 0.0214(7) 0.0151(6) -0.0058(5) -0.0008(5) 0.0013(6)
C10 0.0217(7) 0.0173(6) 0.0166(6) -0.0039(5) -0.0023(5) 0.0025(5)
C11 0.0168(6) 0.0133(5) 0.0151(6) -0.0051(4) -0.0005(5) -0.0013(5)
C12 0.0207(7) 0.0157(6) 0.0156(6) -0.0044(5) -0.0006(5) 0.0012(5)
C13 0.0226(7) 0.0164(6) 0.0176(6) -0.0056(5) -0.0013(5) 0.0022(5)
C14 0.0178(6) 0.0125(5) 0.0162(6) -0.0044(4) 0.0006(5) -0.0003(5)
loop_
_atom_type_symbol
_atom_type_description
_atom_type_scat_dispersion_real
_atom_type_scat_dispersion_imag
_atom_type_scat_source
C C 0.0033 0.0016 'International Tables Vol C Tables 4.2.6.8 and 6.1.1.4'
H H 0.0000 0.0000 'International Tables Vol C Tables 4.2.6.8 and 6.1.1.4'
Cl Cl 0.1484 0.1585 'International Tables Vol C Tables 4.2.6.8 and 6.1.1.4'
N N 0.0061 0.0033 'International Tables Vol C Tables 4.2.6.8 and 6.1.1.4'
O O 0.0106 0.0060 'International Tables Vol C Tables 4.2.6.8 and 6.1.1.4'
loop_
_geom_angle_atom_site_label_1
_geom_angle_atom_site_label_2
_geom_angle_atom_site_label_3
_geom_angle
_geom_angle_site_symmetry_1
_geom_angle_site_symmetry_3
_geom_angle_publ_flag
C6 O1 C7 118.45(11) . . ?
C8 O3 H3 109.5 . . ?
C2 C1 C6 121.72(13) . . ?
C2 C1 Cl1 119.29(11) . . ?
C6 C1 Cl1 118.97(10) . . ?
C1 C2 C3 118.07(13) . . ?
C1 C2 H2 121.0 . . ?
C3 C2 H2 121.0 . . ?
C4 C3 C2 121.27(13) . . ?
C4 C3 Cl2 119.08(12) . . ?
C2 C3 Cl2 119.65(11) . . ?
C3 C4 C5 119.90(14) . . ?
C3 C4 H4 120.0 . . ?
C5 C4 H4 120.0 . . ?
C4 C5 C6 120.25(13) . . ?
C4 C5 H5 119.9 . . ?
C6 C5 H5 119.9 . . ?
O1 C6 C5 124.74(12) . . ?
O1 C6 C1 116.49(12) . . ?
C5 C6 C1 118.77(12) . . ?
O1 C7 C8 116.07(11) . . ?
O1 C7 H7A 108.3 . . ?
C8 C7 H7A 108.3 . . ?
O1 C7 H7B 108.3 . . ?
C8 C7 H7B 108.3 . . ?
H7A C7 H7B 107.4 . . ?
O2 C8 O3 124.57(12) . . ?
O2 C8 C7 118.83(12) . . ?
O3 C8 C7 116.60(11) . . ?
C13 N1 C9 117.98(12) . . ?
C14 N2 H2A 120.0 . . ?
C14 N2 H2B 120.0 . . ?
H2A N2 H2B 120.0 . . ?
N1 C9 C10 122.87(13) . . ?
N1 C9 H9 118.6 . . ?
C10 C9 H9 118.6 . . ?
C9 C10 C11 119.06(13) . . ?
C9 C10 H10 120.5 . . ?
C11 C10 H10 120.5 . . ?
C12 C11 C10 118.19(12) . . ?
C12 C11 C14 122.87(12) . . ?
C10 C11 C14 118.93(12) . . ?
C13 C12 C11 119.00(13) . . ?
C13 C12 H12 120.5 . . ?
C11 C12 H12 120.5 . . ?
N1 C13 C12 122.89(13) . . ?
N1 C13 H13 118.6 . . ?
C12 C13 H13 118.6 . . ?
O4 C14 N2 123.12(12) . . ?
O4 C14 C11 119.05(12) . . ?
N2 C14 C11 117.80(12) . . ?
loop_
_geom_bond_atom_site_label_1
_geom_bond_atom_site_label_2
_geom_bond_distance
_geom_bond_site_symmetry_2
_geom_bond_publ_flag
Cl1 C1 1.7368(14) . ?
Cl2 C3 1.7475(14) . ?
O1 C6 1.3695(16) . ?
O1 C7 1.4258(17) . ?
O2 C8 1.2251(16) . ?
O3 C8 1.3066(16) . ?
O3 H3 0.8400 . ?
C1 C2 1.3853(19) . ?
C1 C6 1.3985(19) . ?
C2 C3 1.392(2) . ?
C2 H2 0.9500 . ?
C3 C4 1.381(2) . ?
C4 C5 1.3886(19) . ?
C4 H4 0.9500 . ?
C5 C6 1.3885(19) . ?
C5 H5 0.9500 . ?
C7 C8 1.5185(18) . ?
C7 H7A 0.9900 . ?
C7 H7B 0.9900 . ?
O4 C14 1.2397(16) . ?
N1 C13 1.3433(18) . ?
N1 C9 1.3451(18) . ?
N2 C14 1.3301(17) . ?
N2 H2A 0.8800 . ?
N2 H2B 0.8800 . ?
C9 C10 1.3860(19) . ?
C9 H9 0.9500 . ?
C10 C11 1.3956(18) . ?
C10 H10 0.9500 . ?
C11 C12 1.3953(18) . ?
C11 C14 1.5085(18) . ?
C12 C13 1.3880(19) . ?
C12 H12 0.9500 . ?
C13 H13 0.9500 . ?
loop_
_geom_torsion_atom_site_label_1
_geom_torsion_atom_site_label_2
_geom_torsion_atom_site_label_3
_geom_torsion_atom_site_label_4
_geom_torsion
_geom_torsion_site_symmetry_1
_geom_torsion_site_symmetry_2
_geom_torsion_site_symmetry_3
_geom_torsion_site_symmetry_4
_geom_torsion_publ_flag
C6 C1 C2 C3 -1.2(2) . . . . ?
Cl1 C1 C2 C3 176.90(11) . . . . ?
C1 C2 C3 C4 0.1(2) . . . . ?
C1 C2 C3 Cl2 -179.40(10) . . . . ?
C2 C3 C4 C5 0.5(2) . . . . ?
Cl2 C3 C4 C5 -179.99(11) . . . . ?
C3 C4 C5 C6 0.0(2) . . . . ?
C7 O1 C6 C5 20.11(19) . . . . ?
C7 O1 C6 C1 -160.32(12) . . . . ?
C4 C5 C6 O1 178.51(13) . . . . ?
C4 C5 C6 C1 -1.0(2) . . . . ?
C2 C1 C6 O1 -177.90(12) . . . . ?
Cl1 C1 C6 O1 3.95(17) . . . . ?
C2 C1 C6 C5 1.7(2) . . . . ?
Cl1 C1 C6 C5 -176.45(10) . . . . ?
C6 O1 C7 C8 -87.97(14) . . . . ?
O1 C7 C8 O2 -162.70(13) . . . . ?
O1 C7 C8 O3 17.91(17) . . . . ?
C13 N1 C9 C10 0.7(2) . . . . ?
N1 C9 C10 C11 -0.2(2) . . . . ?
C9 C10 C11 C12 -0.6(2) . . . . ?
C9 C10 C11 C14 178.09(13) . . . . ?
C10 C11 C12 C13 0.8(2) . . . . ?
C14 C11 C12 C13 -177.84(13) . . . . ?
C9 N1 C13 C12 -0.5(2) . . . . ?
C11 C12 C13 N1 -0.3(2) . . . . ?
C12 C11 C14 O4 169.40(14) . . . . ?
C10 C11 C14 O4 -9.3(2) . . . . ?
C12 C11 C14 N2 -9.0(2) . . . . ?
C10 C11 C14 N2 172.37(13) . . . . ?
