#------------------------------------------------------------------------------
#$Date: 2021-08-21 01:40:42 +0300 (Sat, 21 Aug 2021) $
#$Revision: 268153 $
#$URL: file:///home/coder/svn-repositories/cod/cif/7/24/34/7243403.cif $
#------------------------------------------------------------------------------
#
# This file is available in the Crystallography Open Database (COD),
# http://www.crystallography.net/
#
# All data on this site have been placed in the public domain by the
# contributors.
#
data_7243403
loop_
_publ_author_name
'Sanda Bawa, Ali'
'Meunier-Prest, Rita'
'Rousselin, Yoann'
'Couvercelle, Jean-Pierre'
'Christine, Stern'
'Mal\'ezieux, Bernard'
'Bouvet, Marcel'
_publ_section_title
;
 Series of charge transfer complexes obtained as crystals in a confined
 environment
;
_journal_name_full               CrystEngComm
_journal_paper_doi               10.1039/D1CE00929J
_journal_year                    2021
_chemical_formula_moiety         'C10 H2 N4, C6 H6 O2'
_chemical_formula_sum            'C16 H8 N4 O2'
_chemical_formula_weight         288.26
_space_group_crystal_system      triclinic
_space_group_IT_number           2
_space_group_name_Hall           '-P 1'
_space_group_name_H-M_alt        'P -1'
_atom_sites_solution_hydrogens   geom
_atom_sites_solution_primary     dual
_audit_creation_date             2019-11-19
_audit_creation_method
;
Olex2 1.2
(compiled May 18 2018 14:05:52 for OlexSys, GUI svn.r5506)
;
_audit_update_record
;
2020-04-01 deposited with the CCDC.	2021-08-19 downloaded from the CCDC.
;
_cell_angle_alpha                108.309(5)
_cell_angle_beta                 109.791(4)
_cell_angle_gamma                92.810(5)
_cell_formula_units_Z            1
_cell_length_a                   6.3120(4)
_cell_length_b                   7.4057(5)
_cell_length_c                   8.1661(5)
_cell_measurement_reflns_used    1700
_cell_measurement_temperature    100.0(1)
_cell_measurement_theta_max      66.59
_cell_measurement_theta_min      6.15
_cell_volume                     335.79(4)
_computing_cell_refinement       'SAINT V8.40A (Bruker, 2016)'
_computing_data_collection       'APEX3 (Bruker, 2015)'
_computing_data_reduction        'SAINT V8.40A (Bruker, 2016)'
_computing_molecular_graphics    'Olex2 (Dolomanov et al., 2009)'
_computing_publication_material  'Olex2 (Dolomanov et al., 2009)'
_computing_structure_refinement  'ShelXL (Sheldrick, 2015)'
_computing_structure_solution    'ShelXT (Sheldrick, 2015)'
_diffrn_ambient_temperature      100.0(1)
_diffrn_detector                 CMOS
_diffrn_detector_area_resol_mean '1024 x 1024'
_diffrn_detector_type            'Photon 100'
_diffrn_measured_fraction_theta_full 0.978
_diffrn_measured_fraction_theta_max 0.978
_diffrn_measurement_device       '\k-geometry diffractometer'
_diffrn_measurement_device_type  'Bruker D8 Venture'
_diffrn_measurement_method       '\f and \w scans''
_diffrn_radiation_collimation    'focusing mirrors'
_diffrn_radiation_monochromator  'QUAZAR MX multilayer optics'
_diffrn_radiation_probe          x-ray
_diffrn_radiation_type           CuK\a
_diffrn_radiation_wavelength     1.54178
_diffrn_reflns_av_R_equivalents  0.0615
_diffrn_reflns_av_unetI/netI     0.0734
_diffrn_reflns_Laue_measured_fraction_full 0.978
_diffrn_reflns_Laue_measured_fraction_max 0.978
_diffrn_reflns_limit_h_max       7
_diffrn_reflns_limit_h_min       -7
_diffrn_reflns_limit_k_max       8
_diffrn_reflns_limit_k_min       -8
_diffrn_reflns_limit_l_max       9
_diffrn_reflns_limit_l_min       -9
_diffrn_reflns_number            2906
_diffrn_reflns_point_group_measured_fraction_full 0.978
_diffrn_reflns_point_group_measured_fraction_max 0.978
_diffrn_reflns_theta_full        66.706
_diffrn_reflns_theta_max         66.706
_diffrn_reflns_theta_min         6.153
_diffrn_source                   'sealed X-ray tube'
_diffrn_source_target            Cu
_diffrn_source_type              'high brilliance microfocus sealed tube, Cu'
_diffrn_standards_number         0
_exptl_absorpt_coefficient_mu    0.817
_exptl_absorpt_correction_T_max  0.9287
_exptl_absorpt_correction_T_min  0.7394
_exptl_absorpt_correction_type   multi-scan
_exptl_absorpt_process_details
;
SADABS-2016/2 (Bruker,2016) was used for absorption correction.
wR2(int) was 0.1231 before and 0.0720 after correction.
The Ratio of minimum to maximum transmission is 0.7962.
The \l/2 correction factor is Not present.
;
_exptl_crystal_colour            'clear light orange'
_exptl_crystal_colour_lustre     clear
_exptl_crystal_colour_modifier   light
_exptl_crystal_colour_primary    orange
_exptl_crystal_density_diffrn    1.425
_exptl_crystal_description       plate
_exptl_crystal_F_000             148
_exptl_crystal_recrystallization_method
'The material was recrystallised by sublimation'
_exptl_crystal_size_max          0.158
_exptl_crystal_size_mid          0.089
_exptl_crystal_size_min          0.061
_refine_diff_density_max         0.279
_refine_diff_density_min         -0.313
_refine_diff_density_rms         0.070
_refine_ls_extinction_method     none
_refine_ls_goodness_of_fit_ref   1.290
_refine_ls_hydrogen_treatment    constr
_refine_ls_matrix_type           full
_refine_ls_number_parameters     101
_refine_ls_number_reflns         1163
_refine_ls_number_restraints     0
_refine_ls_restrained_S_all      1.290
_refine_ls_R_factor_all          0.1149
_refine_ls_R_factor_gt           0.0934
_refine_ls_shift/su_max          0.000
_refine_ls_shift/su_mean         0.000
_refine_ls_structure_factor_coef Fsqd
_refine_ls_weighting_details
'w=1/[\s^2^(Fo^2^)+0.9100P] where P=(Fo^2^+2Fc^2^)/3'
_refine_ls_weighting_scheme      calc
_refine_ls_wR_factor_gt          0.1831
_refine_ls_wR_factor_ref         0.1915
_reflns_Friedel_coverage         0.000
_reflns_number_gt                927
_reflns_number_total             1163
_reflns_threshold_expression     'I > 2\s(I)'
_iucr_refine_instructions_details
;
TITL TCNB-H2Q in P-1
    TCNB-H2Q.res
    created by SHELXL-2018/3 at 12:09:32 on 19-Nov-2019
CELL 1.54178 6.312 7.4057 8.1661 108.309 109.7906 92.8103
ZERR 1 0.0004 0.0005 0.0005 0.0045 0.0042 0.0048
LATT 1
SFAC C H N O
UNIT 16 8 4 2

L.S. 10
PLAN  20
SIZE 0.061 0.089 0.158
TEMP -173.15(10)
HTAB O1 N1
BOND $H
HTAB
CONF
list 4
fmap 2
acta
REM <olex2.extras>
REM <HklSrc "%./TCNB-H2Q.hkl">
REM </olex2.extras>

WGHT    0.000000    0.910000
FVAR       2.35326
O1    4    0.168774    0.387483    0.117214    11.00000    0.02920    0.02848 =
         0.03614    0.00918    0.01844    0.00406
AFIX 147
H1A   2    0.185578    0.463717    0.223347    11.00000   -1.50000
AFIX   0
C6    1    0.530011    0.585327    0.186027    11.00000    0.02204    0.02051 =
         0.02481    0.00679    0.00617    0.00502
AFIX  43
H6    2    0.548905    0.645633    0.312543    11.00000   -1.20000
AFIX   0
C7    1    0.335171    0.447439    0.063759    11.00000    0.01835    0.02160 =
         0.02840    0.00959    0.01078    0.00491
C8    1    0.304106    0.365299   -0.123940    11.00000    0.02152    0.02494 =
         0.02592    0.00939    0.00508    0.00541
AFIX  43
H8    2    0.169270    0.275597   -0.209014    11.00000   -1.20000
AFIX   0

N1    3    0.214568    0.632379    0.480132    11.00000    0.03087    0.03394 =
         0.03175    0.01172    0.01683    0.00740
N2    3    0.797976    0.958538    0.634386    11.00000    0.03037    0.03385 =
         0.03563    0.00911    0.01332    0.00000
C1    1    0.286869    0.885205    0.945238    11.00000    0.02024    0.02034 =
         0.03326    0.01223    0.00531    0.00451
AFIX  43
H1    2    0.142580    0.807905    0.908293    11.00000   -1.20000
AFIX   0
C2    1    0.391909    0.872513    0.818221    11.00000    0.02553    0.01878 =
         0.02631    0.00961    0.00965    0.00755
C3    1    0.604061    0.987525    0.873209    11.00000    0.02336    0.02867 =
         0.02724    0.01358    0.01510    0.01398
C4    1    0.287287    0.740181    0.629675    11.00000    0.02953    0.02277 =
         0.03189    0.01297    0.01236    0.00233
C5    1    0.712935    0.974056    0.740310    11.00000    0.02284    0.02317 =
         0.02980    0.00850    0.00680    0.00152
HKLF 4




REM  TCNB-H2Q in P-1
REM wR2 = 0.1915, GooF = S = 1.290, Restrained GooF = 1.290 for all data
REM R1 = 0.0934 for 927 Fo > 4sig(Fo) and 0.1149 for all 1163 data
REM 101 parameters refined using 0 restraints

END  
     
WGHT      0.0000      0.9100 

REM Instructions for potential hydrogen bonds
HTAB O1 N1

REM Highest difference peak  0.279,  deepest hole -0.313,  1-sigma level  0.070
Q1    1   0.5626  0.9398  1.0172  11.00000  0.05    0.28
Q2    1   0.4937  0.7020  0.5368  11.00000  0.05    0.28
Q3    1   0.6254  0.9817  0.5617  11.00000  0.05    0.27
Q4    1   0.4661  0.6609  0.5063  11.00000  0.05    0.27
Q5    1   0.1777  0.1196 -0.3808  11.00000  0.05    0.25
Q6    1   0.1737  0.5203 -0.0593  11.00000  0.05    0.25
Q7    1   0.1060  0.6145  0.6777  11.00000  0.05    0.24
Q8    1   0.0086  0.1038 -0.2605  11.00000  0.05    0.24
Q9    1   0.0780  0.7638  0.7790  11.00000  0.05    0.24
Q10   1   0.1820  0.2665 -0.0723  11.00000  0.05    0.24
Q11   1   0.9340  1.1208  0.6238  11.00000  0.05    0.22
Q12   1   0.8324  1.0056  0.8785  11.00000  0.05    0.21
Q13   1   1.0003  0.9340  0.7140  11.00000  0.05    0.20
Q14   1   1.0046  0.9608  0.6611  11.00000  0.05    0.19
Q15   1   0.6056  0.7936  0.4441  11.00000  0.05    0.19
Q16   1   0.2516  0.5560 -0.1759  11.00000  0.05    0.19
Q17   1   0.3535  0.2546  0.1335  11.00000  0.05    0.19
Q18   1   0.7224  1.0665  0.4998  11.00000  0.05    0.18
Q19   1   0.1402  0.7976  0.9849  11.00000  0.05    0.18
Q20   1   0.4766  0.6637  0.2643  11.00000  0.05    0.18

  REM The information below was added by Olex2.
  REM
  REM R1 = 0.0934 for 927 Fo > 4sig(Fo) and 0.1149 for all 2906 data
  REM n/a parameters refined using n/a restraints
  REM Highest difference peak 0.28, deepest hole -0.31
  REM Mean Shift 0, Max Shift 0.000.

  REM +++ Tabular Listing of Refinement Information +++
  REM R1_all = 0.1149
  REM R1_gt = 0.0934
  REM wR_ref = 0.1915
  REM GOOF = 1.290
  REM Shift_max = 0.000
  REM Shift_mean = 0
  REM Reflections_all = 2906
  REM Reflections_gt = 927
  REM Parameters = n/a
  REM Hole = -0.31
  REM Peak = 0.28
  REM Flack = n/a

  
;
_cod_data_source_file            d1ce00929j2.cif
_cod_data_source_block           TCNB-H2Q
_cod_database_code               7243403
_publcif_datablock.id            {0bb0e9a7-9b7e-4a94-8f6c-62024d4e67ff}
_shelx_shelxl_version_number     2018/3
_shelx_space_group_comment
;
The symmetry employed for this shelxl refinement is uniquely defined
by the following loop, which should always be used as a source of
symmetry information in preference to the above space-group names.
They are only intended as comments.
;
_shelx_estimated_absorpt_t_max   0.952
_shelx_estimated_absorpt_t_min   0.882
_olex2_refinement_description
;
1. Fixed Uiso
 At 1.2 times of:
  All C(H) groups
 At 1.5 times of:
  All O(H) groups
2.a Aromatic/amide H refined with riding coordinates:
 C6(H6), C8(H8), C1(H1)
2.b Idealised tetrahedral OH refined as rotating group:
 O1(H1A)
;
_olex2_diffrn_ambient_temperature_device 'Oxford Cryosystems'
_olex2_exptl_crystal_mounting_method
'The crystal was mounted on a MITIGEN holder oil'
_olex2_submission_special_instructions 'No special instructions were received'
loop_
_space_group_symop_operation_xyz
'x, y, z'
'-x, -y, -z'
loop_
_atom_site_label
_atom_site_type_symbol
_atom_site_fract_x
_atom_site_fract_y
_atom_site_fract_z
_atom_site_U_iso_or_equiv
_atom_site_adp_type
_atom_site_occupancy
_atom_site_site_symmetry_order
_atom_site_calc_flag
_atom_site_refinement_flags_posn
_atom_site_refinement_flags_adp
_atom_site_refinement_flags_occupancy
_atom_site_disorder_assembly
_atom_site_disorder_group
O1 O 0.1688(5) 0.3875(5) 0.1172(5) 0.0301(8) Uani 1 1 d . . . . .
H1A H 0.185578 0.463717 0.223347 0.045 Uiso 1 1 calc GR . . . .
C6 C 0.5300(7) 0.5853(6) 0.1860(6) 0.0234(10) Uani 1 1 d . . . . .
H6 H 0.548905 0.645633 0.312543 0.028 Uiso 1 1 calc R . . . .
C7 C 0.3352(7) 0.4474(6) 0.0638(6) 0.0220(10) Uani 1 1 d . . . . .
C8 C 0.3041(7) 0.3653(7) -0.1239(6) 0.0250(10) Uani 1 1 d . . . . .
H8 H 0.169270 0.275597 -0.209014 0.030 Uiso 1 1 calc R . . . .
N1 N 0.2146(7) 0.6324(6) 0.4801(6) 0.0307(10) Uani 1 1 d . . . . .
N2 N 0.7980(7) 0.9585(6) 0.6344(6) 0.0340(11) Uani 1 1 d . . . . .
C1 C 0.2869(8) 0.8852(6) 0.9452(7) 0.0252(10) Uani 1 1 d . . . . .
H1 H 0.142580 0.807905 0.908293 0.030 Uiso 1 1 calc R . . . .
C2 C 0.3919(8) 0.8725(6) 0.8182(6) 0.0230(10) Uani 1 1 d . . . . .
C3 C 0.6041(7) 0.9875(7) 0.8732(7) 0.0236(10) Uani 1 1 d . . . . .
C4 C 0.2873(8) 0.7402(7) 0.6297(7) 0.0270(11) Uani 1 1 d . . . . .
C5 C 0.7129(8) 0.9741(7) 0.7403(7) 0.0264(10) Uani 1 1 d . . . . .
loop_
_atom_site_aniso_label
_atom_site_aniso_U_11
_atom_site_aniso_U_22
_atom_site_aniso_U_33
_atom_site_aniso_U_23
_atom_site_aniso_U_13
_atom_site_aniso_U_12
O1 0.0292(18) 0.0285(18) 0.036(2) 0.0092(15) 0.0184(16) 0.0041(14)
C6 0.022(2) 0.021(2) 0.025(2) 0.0068(19) 0.0062(19) 0.0050(18)
C7 0.018(2) 0.022(2) 0.028(2) 0.0096(19) 0.0108(19) 0.0049(17)
C8 0.022(2) 0.025(2) 0.026(2) 0.009(2) 0.0051(19) 0.0054(18)
N1 0.031(2) 0.034(2) 0.032(2) 0.012(2) 0.0168(19) 0.0074(18)
N2 0.030(2) 0.034(2) 0.036(2) 0.0091(19) 0.013(2) 0.0000(19)
C1 0.020(2) 0.020(2) 0.033(3) 0.012(2) 0.0053(19) 0.0045(17)
C2 0.026(2) 0.019(2) 0.026(2) 0.0096(19) 0.0097(19) 0.0075(18)
C3 0.023(2) 0.029(2) 0.027(2) 0.014(2) 0.0151(19) 0.0140(19)
C4 0.030(2) 0.023(2) 0.032(3) 0.013(2) 0.012(2) 0.0023(19)
C5 0.023(2) 0.023(2) 0.030(3) 0.0085(19) 0.007(2) 0.0015(18)
loop_
_atom_type_symbol
_atom_type_description
_atom_type_scat_dispersion_real
_atom_type_scat_dispersion_imag
_atom_type_scat_source
C C 0.0181 0.0091 'International Tables Vol C Tables 4.2.6.8 and 6.1.1.4'
H H 0.0000 0.0000 'International Tables Vol C Tables 4.2.6.8 and 6.1.1.4'
N N 0.0311 0.0180 'International Tables Vol C Tables 4.2.6.8 and 6.1.1.4'
O O 0.0492 0.0322 'International Tables Vol C Tables 4.2.6.8 and 6.1.1.4'
loop_
_geom_angle_atom_site_label_1
_geom_angle_atom_site_label_2
_geom_angle_atom_site_label_3
_geom_angle
_geom_angle_site_symmetry_1
_geom_angle_site_symmetry_3
_geom_angle_publ_flag
C7 O1 H1A 109.5 . . ?
C7 C6 H6 119.7 . . ?
C8 C6 H6 119.7 2_665 . ?
C8 C6 C7 120.5(4) 2_665 . ?
O1 C7 C6 123.5(4) . . ?
O1 C7 C8 117.2(4) . . ?
C8 C7 C6 119.4(4) . . ?
C6 C8 C7 120.1(4) 2_665 . ?
C6 C8 H8 120.0 2_665 . ?
C7 C8 H8 120.0 . . ?
C2 C1 H1 120.5 . . ?
C3 C1 H1 120.5 2_677 . ?
C3 C1 C2 119.0(4) 2_677 . ?
C1 C2 C3 120.2(4) . . ?
C1 C2 C4 121.0(4) . . ?
C3 C2 C4 118.8(4) . . ?
C1 C3 C2 120.7(4) 2_677 . ?
C1 C3 C5 119.2(4) 2_677 . ?
C2 C3 C5 120.1(4) . . ?
N1 C4 C2 176.5(5) . . ?
N2 C5 C3 178.3(5) . . ?
loop_
_geom_bond_atom_site_label_1
_geom_bond_atom_site_label_2
_geom_bond_distance
_geom_bond_site_symmetry_2
_geom_bond_publ_flag
O1 H1A 0.8400 . ?
O1 C7 1.370(5) . ?
C6 H6 0.9500 . ?
C6 C7 1.399(6) . ?
C6 C8 1.388(6) 2_665 ?
C7 C8 1.399(6) . ?
C8 H8 0.9500 . ?
N1 C4 1.145(6) . ?
N2 C5 1.143(6) . ?
C1 H1 0.9500 . ?
C1 C2 1.391(7) . ?
C1 C3 1.388(7) 2_677 ?
C2 C3 1.400(6) . ?
C2 C4 1.438(7) . ?
C3 C5 1.450(7) . ?
loop_
_geom_hbond_atom_site_label_D
_geom_hbond_atom_site_label_H
_geom_hbond_atom_site_label_A
_geom_hbond_distance_DH
_geom_hbond_distance_HA
_geom_hbond_distance_DA
_geom_hbond_angle_DHA
_geom_hbond_site_symmetry_A
_geom_hbond_publ_flag
O1 H1A N1 0.84 2.02 2.854(5) 176.2 . yes
loop_
_geom_torsion_atom_site_label_1
_geom_torsion_atom_site_label_2
_geom_torsion_atom_site_label_3
_geom_torsion_atom_site_label_4
_geom_torsion
_geom_torsion_site_symmetry_1
_geom_torsion_site_symmetry_2
_geom_torsion_site_symmetry_3
_geom_torsion_site_symmetry_4
_geom_torsion_publ_flag
O1 C7 C8 C6 -177.8(4) . . . 2_665 ?
C6 C7 C8 C6 2.6(7) . . . 2_665 ?
C8 C6 C7 O1 177.8(4) 2_665 . . . ?
C8 C6 C7 C8 -2.7(7) 2_665 . . . ?
C1 C2 C3 C1 0.3(7) . . . 2_677 ?
C1 C2 C3 C5 -179.9(4) . . . . ?
C3 C1 C2 C3 -0.3(7) 2_677 . . . ?
C3 C1 C2 C4 178.8(4) 2_677 . . . ?
C4 C2 C3 C1 -178.9(4) . . . 2_677 ?
C4 C2 C3 C5 0.9(7) . . . . ?
loop_
_refln_index_h
_refln_index_k
_refln_index_l
_refln_F_squared_meas
_refln_F_squared_sigma
_refln_scale_group_code
-1 0 0 4140.05 243.804 8
-1 0 0 4084.92 244.008 11
-1 0 0 3830.38 243.028 4
1 0 0 3902.04 243.023 5
1 0 0 4102.6 244.157 11
1 0 0 4076.24 243.894 8
-2 0 0 9278.92 566.306 8
-2 0 0 9546.03 567.034 11
2 0 0 9729.43 567.365 8
2 0 0 8866.21 564.618 5
-3 0 0 7.3868 11.8466 8
4 0 0 96.5087 17.3394 3
4 0 0 165.445 27.9609 10
5 0 0 47.2864 20.277 10
-6 0 0 63.372 15.5586 2
6 0 0 92.1146 21.2276 9
6 0 0 76.7051 14.369 3
7 -1 0 297.335 24.6419 9
7 -1 0 322.496 21.9502 3
6 -1 0 370.421 29.4481 10
5 -1 0 76.5824 58.1135 1
5 -1 0 73.9699 21.6678 10
5 -1 0 5.38338 22.2853 9
5 -1 0 26.8973 14.9768 3
4 -1 0 180.175 19.325 3
-4 1 0 165.997 33.679 8
3 -1 0 1126.39 74.3432 5
-3 1 0 1243.47 76.0071 8
-3 1 0 1127.99 75.5703 11
2 -1 0 53.1088 11.1407 5
-2 1 0 55.0286 10.6666 8
-2 1 0 46.3674 7.03634 11
-2 1 0 42.7369 6.36086 11
0 -1 0 4.31779 5.48066 5
0 1 0 4.79558 4.32411 11
-1 -1 0 82.9886 12.3134 8
-1 -1 0 69.34 12.4883 11
1 1 0 76.5914 13.6644 8
1 1 0 64.6027 11.4788 4
1 1 0 77.697 13.9432 11
-2 -1 0 500.906 35.9666 8
-2 -1 0 493.592 40.0206 11
2 1 0 486.329 40.0511 8
2 1 0 515.038 35.0193 4
3 1 0 180.48 29.3438 6
3 1 0 124.848 23.9778 7
4 1 0 42.1536 32.6635 6
4 1 0 43.833 23.6249 3
4 1 0 32.5092 29.6168 10
-5 -1 0 311.872 27.2496 2
5 1 0 284.201 24.508 3
-6 -1 0 220.152 20.3366 2
6 1 0 263.72 20.3665 3
6 1 0 230.781 23.2962 9
7 -2 0 89.936 9.32185 3
7 -2 0 87.4835 13.1871 9
6 -2 0 233.982 24.9841 10
6 -2 0 215.219 45.4538 1
6 -2 0 279.262 22.3642 3
5 -2 0 345.12 27.621 3
5 -2 0 253.31 57.8778 1
5 -2 0 343.168 30.7828 9
5 -2 0 421.399 34.0411 10
4 -2 0 154.454 41.5638 5
4 -2 0 230.381 28.747 9
4 -2 0 219.82 20.7817 3
4 -2 0 270.39 27.8776 10
3 -2 0 363.832 28.106 5
-3 2 0 341.461 29.504 8
2 -2 0 562.04 39.4535 5
1 -2 0 4843.17 286.548 11
1 -2 0 4596.2 288.427 5
1 -2 0 4764.51 286.514 11
0 -2 0 4212.73 249.138 5
0 2 0 3856.09 250.003 11
0 2 0 4194.32 252.435 4
-1 -2 0 372.071 32.1011 11
1 2 0 335.858 29.1974 4
1 2 0 331.418 31.7944 8
1 2 0 369.734 31.3442 11
2 2 0 1352.1 81.0131 6
2 2 0 1040.02 81.3861 7
2 2 0 1266 81.5426 4
-3 -2 0 179.33 20.2629 2
3 2 0 217.05 30.4514 6
3 2 0 204.785 20.3586 3
-4 -2 0 51.181 16.8482 2
4 2 0 36.5179 15.8515 3
4 2 0 11.2688 28.1376 6
-5 -2 0 19.1592 13.589 2
5 2 0 31.8352 14.2055 3
-6 -2 0 100.405 12.1836 2
6 2 0 77.819 14.8089 9
6 -3 0 122.232 19.1877 9
6 -3 0 145.495 20.3624 10
6 -3 0 109.68 12.5515 3
6 -3 0 112.623 36.7989 1
5 -3 0 11.0627 14.1163 3
5 -3 0 50.0684 40.5143 1
5 -3 0 26.4149 22.4568 9
4 -3 0 143.004 27.0051 5
3 -3 0 368.079 32.9473 10
3 -3 0 414.34 35.072 5
3 -3 0 520.099 66.7797 1
3 -3 0 410.175 40.0384 9
3 -3 0 421.189 31.941 3
-3 3 0 370.469 38.0656 8
-3 3 0 454.105 44.2029 4
2 -3 0 1069.71 70.6487 5
-2 3 0 1039.28 74.7819 4
1 -3 0 2348.15 147.289 5
-1 3 0 2356.15 152.03 4
-1 -3 0 937.202 96.7179 11
1 3 0 1212.06 79.5004 4
-2 -3 0 642.933 45.2613 2
2 3 0 734.719 49.5795 6
2 3 0 686.154 56.9393 4
2 3 0 642.507 47.8699 2
-3 -3 0 87.0336 28.877 2
3 3 0 72.3461 25.607 6
3 3 0 30.9214 19.1143 2
-4 -3 0 94.068 15.8202 2
4 3 0 52.4686 27.4445 6
-5 -3 0 68.421 13.3323 2
-6 -3 0 72.3715 9.57403 2
6 3 0 75.2709 12.2739 9
6 -4 0 -3.649 7.23457 3
5 -4 0 27.6365 17.1446 10
5 -4 0 28.587 13.8965 3
5 -4 0 49.6833 21.0048 9
4 -4 0 100.597 20.4071 10
4 -4 0 86.9722 49.1451 1
4 -4 0 79.86 25.0354 9
4 -4 0 67.888 17.0465 3
3 -4 0 106.127 22.6884 5
3 -4 0 127.905 19.232 3
3 -4 0 119.471 18.6586 10
-3 4 0 48.0707 40.0022 4
-3 4 0 104.086 38.8105 8
2 -4 0 223.496 26.1711 5
2 -4 0 239.412 28.9052 10
-2 4 0 161.112 35.7157 4
0 -4 0 485.781 65.203 1
0 4 0 660.963 54.1645 4
1 4 0 51.3196 18.1975 2
-2 -4 0 22.7992 15.1245 2
2 4 0 4.98354 20.345 6
-3 -4 0 265.795 22.5063 2
3 4 0 237.79 31.119 6
3 4 0 268.169 24.967 2
-4 -4 0 8.35709 10.7987 2
4 4 0 -31.091 22.6522 6
4 4 0 38.445 13.0652 2
-5 -4 0 20.8898 8.10692 2
6 -5 0 206.118 16.3396 3
5 -5 0 84.9524 52.6984 1
5 -5 0 39.9348 19.7749 9
5 -5 0 40.14 15.2278 10
5 -5 0 65.5558 14.2836 3
4 -5 0 143.872 18.5776 3
4 -5 0 142.815 25.3375 10
-3 5 0 -14.109 126.783 4
2 -5 0 228.753 25.949 3
2 -5 0 277.171 65.7909 1
2 -5 0 195.223 37.982 10
-2 5 0 178.154 51.2789 4
1 -5 0 449.964 67.6255 1
-1 5 0 404.449 61.312 4
0 5 0 762.319 50.4268 2
0 5 0 655.931 75.6511 4
-1 -5 0 408.921 48.4725 1
1 5 0 444.303 34.233 2
1 5 0 398.055 79.8958 4
2 5 0 16.9483 17.1147 2
2 5 0 29.0034 21.9695 6
-3 -5 0 188.909 17.1797 2
3 5 0 180.603 28.4997 6
3 5 0 163.858 20.3544 2
-4 -5 0 61.2185 10.0828 2
4 5 0 76.7665 10.7779 2
4 5 0 32.8188 21.658 6
5 -6 0 115.354 15.8614 3
4 -6 0 -22.859 25.558 9
4 -6 0 63.222 37.242 1
4 -6 0 51.359 18.1048 10
4 -6 0 23.556 17.7195 3
3 -6 0 130.305 39.5324 1
3 -6 0 179.591 23.2403 3
2 -6 0 287.457 45.1737 1
1 -6 0 639.281 60.5711 1
-1 6 0 739.458 52.5475 2
0 -6 0 129.188 42.0061 1
0 6 0 126.133 21.0252 2
1 6 0 442.831 37.0572 2
1 6 0 587.22 46.9599 6
2 6 0 43.8799 23.2887 6
2 6 0 62.9778 17.4117 2
3 6 0 60.8528 12.0224 2
3 6 0 93.3987 23.8632 6
4 -7 0 34.2752 14.2626 10
4 -7 0 73.2577 30.4371 1
3 -7 0 28.1881 27.0069 1
3 -7 0 5.07534 12.2768 10
2 -7 0 30.3727 23.0182 10
2 -7 0 78.6289 36.7899 1
1 -7 0 60.6578 29.948 10
-1 7 0 23.5972 23.4943 6
-1 7 0 10.5404 25.1636 2
0 7 0 127.809 23.1722 6
0 7 0 82.3063 17.9929 2
1 7 0 915.062 55.8715 2
1 7 0 735.03 60.7277 6
2 7 0 237.876 30.74 6
2 7 0 245.382 20.5413 2
3 -8 0 24.8708 16.964 10
3 -8 0 4.8796 49.4584 1
2 -8 0 87.1898 12.1856 10
2 -8 0 107.175 23.9234 1
1 -8 0 34.2588 12.7905 10
-1 8 0 44.422 25.7875 6
-1 8 0 21.5448 29.5045 2
0 -8 0 394.504 26.5356 10
0 8 0 329.133 25.95 2
0 8 0 312.383 33.0893 6
1 8 -1 -9.5472 21.7586 6
1 8 -1 17.6189 10.3295 2
0 8 -1 179.393 37.3214 6
0 8 -1 133.681 17.9339 2
0 -8 1 177.295 18.173 10
-1 8 -1 52.8829 37.107 6
1 -8 1 65.6699 14.4627 10
2 -8 1 277.946 21.5888 10
3 -8 1 3.43576 10.6474 10
3 7 -1 26.5879 16.9958 6
3 7 -1 17.0944 8.20173 2
2 7 -1 42.9828 22.1504 6
2 7 -1 35.2331 10.0572 2
1 7 -1 24.4991 22.7944 6
1 7 -1 16.4423 20.2807 2
0 7 -1 208.067 25.7798 2
0 7 -1 243.304 29.8485 6
-1 7 -1 312.607 47.1192 2
1 -7 1 294.422 27.6126 3
1 -7 1 362.757 43.6799 1
1 -7 1 283.496 28.9225 10
2 -7 1 117.651 21.7812 10
2 -7 1 175.358 62.4986 1
2 -7 1 87.4099 25.3474 3
3 -7 1 95.9844 47.1222 1
3 -7 1 51.2366 22.7937 3
4 -7 1 11.6215 12.4109 10
4 -7 1 40.8135 14.5721 3
4 6 -1 5.96149 22.1747 6
4 6 -1 22.4925 8.26334 2
-4 -6 1 20.4963 15.2378 2
3 6 -1 2.7609 20.2814 6
3 6 -1 13.366 10.8022 2
2 6 -1 173.977 21.73 2
2 6 -1 180.054 29.7214 6
1 6 -1 22.7825 21.5481 6
1 6 -1 26.374 15.8151 2
0 6 -1 141.923 25.0554 2
0 -6 1 158.609 41.7188 1
1 -6 1 271.563 44.3257 1
2 -6 1 55.446 18.8778 10
2 -6 1 119.341 44.9999 1
2 -6 1 9.92877 18.612 3
3 -6 1 121.103 18.0094 3
3 -6 1 123.837 19.9244 10
4 -6 1 -40.793 50.4312 1
4 -6 1 43.3083 16.4176 10
4 -6 1 10.9649 13.3453 3
5 -6 1 -4.8369 12.5257 10
5 -6 1 3.50201 9.67559 3
5 5 -1 28.8753 25.6462 6
-5 -5 1 80.4731 9.3665 2
4 5 -1 127.336 25.4249 6
-4 -5 1 145.403 14.4708 2
3 5 -1 84.1217 43.487 6
3 5 -1 53.2553 15.0276 2
-3 -5 1 50.9721 13.6995 2
2 5 -1 -65.808 78.6637 4
2 5 -1 72.743 17.4473 2
2 5 -1 40.6365 21.4236 6
-2 -5 1 29.3591 15.2924 2
1 5 -1 507.581 70.4668 4
1 5 -1 567.502 42.465 6
1 5 -1 482.837 39.7589 2
0 5 -1 600.451 44.5274 2
0 5 -1 521.093 64.9496 4
0 -5 1 575.222 58.1674 1
-1 5 -1 705.32 71.9046 4
1 -5 1 780.317 55.7208 5
1 -5 1 650.438 68.8546 1
-2 5 -1 936.611 89.2747 4
2 -5 1 932.677 64.0004 3
2 -5 1 1012.26 70.9051 5
2 -5 1 1076.62 85.0282 1
2 -5 1 881.978 74.4059 10
3 -5 1 270.229 25.6462 10
3 -5 1 275.777 24.2937 3
3 -5 1 300.946 36.174 5
4 -5 1 444.332 42.0918 9
5 -5 1 3.35672 10.9466 3
5 -5 1 19.7937 25.3834 9
5 -5 1 4.42257 13.0336 10
6 -5 1 23.172 8.1823 3
6 -5 1 54.2289 22.4054 10
-5 -4 1 106.6 13.2034 2
4 4 -1 40.2508 13.9074 2
4 4 -1 109.802 25.2784 6
-4 -4 1 66.1492 12.8178 2
3 4 -1 47.142 14.8257 2
3 4 -1 42.3392 22.7435 6
-3 -4 1 23.9644 13.1674 2
2 4 -1 233.706 46.7204 4
2 4 -1 258.015 25.6159 2
2 4 -1 297.07 29.5027 6
-2 -4 1 249.007 23.3386 2
1 4 -1 493.918 50.8307 4
1 4 -1 539.106 40.9907 2
-1 -4 1 656.347 63.1462 1
0 4 -1 116.902 27.242 4
0 -4 1 100.219 17.6402 5
1 -4 1 1719.08 111.365 5
2 -4 1 2394.41 141.434 5
2 -4 1 2018.49 136.504 10
2 -4 1 2173.26 135.766 3
-3 4 -1 319.361 82.3097 4
3 -4 1 301.744 24.0129 3
3 -4 1 305.409 32.0783 5
3 -4 1 293.416 25.3301 10
4 -4 1 40.6739 15.9433 10
4 -4 1 76.4966 29.0246 9
4 -4 1 9.56766 28.7389 5
5 -4 1 138.302 15.9978 3
5 -4 1 177.183 22.6001 10
6 -4 1 33.0521 16.7757 9
6 -4 1 31.0452 12.6793 10
6 -4 1 46.612 9.70895 3
6 3 -1 36.7905 15.639 9
-6 -3 1 20.4604 9.86814 2
5 3 -1 313.373 38.1629 6
-5 -3 1 363.007 27.1278 2
4 3 -1 531.764 45.3043 6
-4 -3 1 503.196 36.7865 2
3 3 -1 84.4614 17.9249 2
-3 -3 1 68.3688 15.3498 2
2 3 -1 133.405 23.5121 4
-2 -3 1 122.68 36.4217 11
1 3 -1 1154.9 79.2623 4
-1 -3 1 1116.91 79.9096 11
0 3 -1 10.7921 19.608 8
0 -3 1 0.75383 11.1465 5
0 -3 1 12.3019 12.9405 11
0 -3 1 -1.9566 11.4809 11
-1 3 -1 112.912 20.7286 8
1 -3 1 118.478 17.1444 5
2 -3 1 96.7858 16.556 5
3 -3 1 78.2248 16.2353 3
3 -3 1 61.2857 16.6988 10
4 -3 1 368.563 29.6538 10
4 -3 1 361.924 26.6764 3
4 -3 1 302.362 38.9721 5
4 -3 1 405.816 36.9234 9
5 -3 1 33.145 21.6448 9
5 -3 1 49.6946 17.3251 10
5 -3 1 24.9792 13.8386 3
6 -3 1 -2.898 7.638 3
6 -3 1 19.8855 12.6757 10
6 -3 1 8.59374 14.6472 9
6 2 -1 50.3004 15.4045 9
-6 -2 1 34.5254 11.3078 2
5 2 -1 264.319 23.2297 3
-5 -2 1 277.846 24.102 2
4 2 -1 21.8948 24.6423 6
4 2 -1 6.04122 15.4774 3
3 2 -1 23.9366 21.4547 6
3 2 -1 55.1068 17.211 3
3 2 -1 43.9988 14.0065 4
-3 -2 1 33.0893 17.67 8
-2 -2 1 78.2268 17.9431 11
-2 -2 1 123.919 22.4309 11
-2 -2 1 84.1295 16.2118 8
1 2 -1 7117.39 451.277 8
-1 -2 1 7433.35 450.588 8
-1 -2 1 7413.84 452.255 11
-1 -2 1 7705.83 452.306 11
0 2 -1 7995.63 482.947 8
0 -2 1 7739.16 483.236 11
0 -2 1 8182.83 482.811 5
-2 2 -1 136.94 12.3503 8
2 -2 1 136.714 17.286 5
3 -2 1 2753.05 194.521 10
3 -2 1 3488.1 198.101 5
3 -2 1 3312.82 194.856 3
4 -2 1 32.6112 34.3653 10
4 -2 1 -12.862 25.0107 5
4 -2 1 35.412 13.6949 3
5 -2 1 122.012 22.7386 10
5 -2 1 84.4455 23.5188 9
6 -2 1 -12.635 13.4842 9
6 -2 1 13.197 13.0927 10
6 -2 1 14.2753 9.05524 3
7 1 -1 -4.1037 10.3806 9
6 1 -1 569.082 50.06 9
-6 -1 1 533.497 38.5304 2
5 1 -1 691.946 47.4959 3
-5 -1 1 729.724 49.954 2
-4 -1 1 146.814 25.3838 2
3 1 -1 360.279 35.3532 6
-3 -1 1 456.999 34.9498 8
2 1 -1 1663.91 101.868 4
2 1 -1 1585.81 106.242 8
-2 -1 1 1711.15 106.842 11
-2 -1 1 1617.49 106.545 11
-2 -1 1 1712.35 105.178 8
1 1 -1 612.499 41.2479 8
-1 -1 1 619.381 38.003 5
-1 -1 1 626.413 41.5588 11
-1 -1 1 595.35 40.944 8
0 1 -1 375.91 26.4657 8
0 1 -1 419.057 27.8623 11
0 -1 1 421.362 27.7121 5
0 -1 1 397.955 26.4195 8
0 -1 1 449.223 27.9064 11
-1 1 -1 170.231 14.2992 11
1 -1 1 172.496 16.0263 5
1 -1 1 164.365 14.1714 11
-2 1 -1 52.4071 10.9805 11
-2 1 -1 87.4142 17.3976 4
-2 1 -1 64.8531 8.03024 8
2 -1 1 62.8197 11.2707 5
3 -1 1 76.9827 24.727 7
3 -1 1 90.69 14.9481 3
3 -1 1 98.7002 17.8474 5
4 -1 1 138.398 24.9834 3
5 -1 1 49.7869 19.7645 10
5 -1 1 27.7595 13.7939 3
6 -1 1 96.438 16.1535 10
6 -1 1 85.7485 11.8653 3
6 -1 1 129.642 18.7614 9
7 0 -1 64.7254 13.72 9
7 0 -1 91.4549 10.2707 3
6 0 -1 524.255 38.0358 3
6 0 -1 556.896 41.3198 9
-6 0 1 544.544 46.3482 2
5 0 -1 462.519 34.738 3
5 0 -1 463.491 39.0694 9
-5 0 1 546.443 42.6079 2
4 0 -1 1350.51 91.242 3
4 0 -1 1506.28 100.416 6
-4 0 1 1527.61 100.201 8
-3 0 1 115.748 18.5822 8
-3 0 1 141.719 19.7474 11
-3 0 1 89.2019 19.1273 11
2 0 -1 2435.12 149.339 8
-2 0 1 2390.85 147.688 11
-2 0 1 2325.43 147.95 8
-2 0 1 2409.08 148.054 11
1 0 -1 483.148 31.2003 4
-1 0 1 515.908 32.0306 8
-1 0 1 450.743 30.4705 4
-1 0 1 412.822 31.7719 11
0 0 -1 4111.74 252.604 11
0 0 -1 4213.99 253.788 4
0 0 1 4147.24 253.434 4
0 0 1 4173.63 252.81 11
-1 0 -1 3796.78 235.549 4
-1 0 -1 3860.05 234.675 11
1 0 1 3698 232.781 8
1 0 1 3795.92 235.164 4
1 0 1 4038.72 235.043 11
-2 0 -1 575.513 43.3324 4
-2 0 -1 510.73 42.7619 11
2 0 1 600.554 39.2416 5
2 0 1 607.718 41.4191 8
2 0 1 587.852 44.3304 11
3 0 1 1067.84 67.0487 3
3 0 1 1003.11 68.6089 10
3 0 1 1077.33 70.4778 5
4 0 1 115.345 23.2482 10
4 0 1 88.7171 16.6109 3
5 0 1 13.3901 12.1717 3
5 0 1 4.98208 18.4857 10
-6 0 -1 25.7059 12.5723 2
6 0 1 22.3648 10.691 3
6 0 1 0.76656 14.8331 9
7 -1 -1 85.1787 14.4993 9
7 -1 -1 58.524 9.85493 3
6 -1 -1 532.507 40.5706 9
6 -1 -1 499.155 56.5812 1
6 -1 -1 545.183 36.6654 3
5 -1 -1 142.105 16.9667 3
5 -1 -1 169.696 22.2761 9
4 -1 -1 111.598 21.5928 9
4 -1 -1 83.8027 14.9509 3
-4 1 1 124.573 27.8848 8
3 -1 -1 272.127 35.6295 6
-3 1 1 280.266 24.2256 11
-3 1 1 332.925 27.1202 8
-3 1 1 300.806 23.3487 11
-2 1 1 481.197 35.7515 8
-2 1 1 499.635 32.2118 11
-2 1 1 504.002 34.3523 4
1 -1 -1 2396.51 150.91 4
1 -1 -1 2419.32 148.272 11
-1 1 1 2427.38 150.698 4
-1 1 1 2472.99 148.493 11
0 -1 -1 2839.76 171.78 4
0 -1 -1 2824.28 169.35 11
0 1 1 2720.79 169.18 11
0 1 1 2618.75 170.512 4
-1 -1 -1 4846.41 292.763 11
-1 -1 -1 4697.46 293.846 4
1 1 1 4774.94 291.108 8
1 1 1 4864.2 293.031 11
1 1 1 4653.13 293.358 4
-2 -1 -1 1164.29 80.9091 4
-2 -1 -1 1183.78 80.4187 11
2 1 1 1024.99 76.1646 7
2 1 1 1139.31 75.7825 4
-3 -1 -1 361.634 34.0039 2
3 1 1 453.294 47.2915 6
3 1 1 424.079 35.4864 10
3 1 1 338.068 35.7197 7
3 1 1 422.983 30.5026 3
-4 -1 -1 99.1683 20.029 2
4 1 1 57.4122 16.1472 3
4 1 1 112.343 22.2439 10
-5 -1 -1 117.23 17.3315 2
5 1 1 97.6372 15.3937 3
6 1 1 36.9487 15.5368 9
7 -2 -1 75.6218 9.55636 3
7 -2 -1 73.8514 14.4991 9
6 -2 -1 151.079 56.6355 1
6 -2 -1 71.1454 30.1742 10
6 -2 -1 70.6849 12.3661 3
6 -2 -1 105.174 20.618 9
5 -2 -1 186.469 51.8568 1
4 -2 -1 239.885 58.5153 1
4 -2 -1 149.799 26.703 9
-3 2 1 253.781 26.8413 8
-3 2 1 250.965 28.0818 4
-2 2 1 273.118 26.4286 4
1 -2 -1 177.042 17.0866 11
-1 2 1 174.965 17.3456 11
-1 2 1 177.383 21.7941 4
0 -2 -1 212.716 22.7068 11
0 2 1 233.817 25.6418 4
0 2 1 217.141 22.959 11
-1 -2 -1 1455.64 92.7854 11
1 2 1 1265.88 89.3001 4
1 2 1 1292.73 91.3828 11
-2 -2 -1 26.0043 39.1767 11
-2 -2 -1 15.7733 17.829 2
2 2 1 26 18.4141 4
2 2 1 -8.2297 20.3115 7
2 2 1 -9.1647 43.0761 11
2 2 1 5.23257 21.5973 6
-3 -2 -1 57.9165 15.662 2
3 2 1 57.9947 18.6983 2
3 2 1 7.71823 31.3248 6
3 2 1 54.5588 19.2148 3
3 2 1 24.9119 23.38 7
-4 -2 -1 267.664 24.8159 2
4 2 1 282.392 24.374 3
-5 -2 -1 4.62405 12.6912 2
6 2 1 8.57552 11.1173 9
7 -3 -1 48.1367 8.65824 3
6 -3 -1 127.476 13.3705 3
6 -3 -1 179.176 32.5189 1
6 -3 -1 128.266 19.7762 9
5 -3 -1 655.288 44.1186 3
5 -3 -1 621.089 61.4597 1
5 -3 -1 646.055 51.3482 10
5 -3 -1 659.734 48.0955 9
4 -3 -1 344.793 27.013 3
4 -3 -1 288.188 37.9633 9
-4 3 1 312.072 59.8679 8
3 -3 -1 317.079 54.9467 1
3 -3 -1 320.713 31.0735 9
-3 3 1 205.846 38.1358 4
-3 3 1 250.279 32.6662 8
-2 3 1 1582.88 108.308 4
1 -3 -1 433.787 36.7122 11
-1 3 1 448.023 40.4363 11
-1 3 1 416.958 38.9868 4
0 3 1 1297.41 91.7787 4
1 3 1 1802.25 122.466 4
1 3 1 1984.12 124.883 7
1 3 1 1631.71 112.305 2
-2 -3 -1 614.033 42.3477 2
2 3 1 655.685 64.079 4
2 3 1 651.618 44.1831 2
2 3 1 535.938 52.9688 7
2 3 1 666.784 48.1367 6
-3 -3 -1 11.9562 13.6513 2
3 3 1 31.2043 15.3952 2
3 3 1 53.5476 28.4976 6
-4 -3 -1 317.6 25.6757 2
4 3 1 323.96 28.1349 2
-5 -3 -1 37.2133 9.89496 2
6 -4 -1 29.6832 31.2074 1
6 -4 -1 11.8735 14.566 9
6 -4 -1 -14.037 9.67247 3
5 -4 -1 545.969 41.952 9
5 -4 -1 543.732 39.0552 3
5 -4 -1 519.953 56.0331 1
5 -4 -1 668.215 44.5062 10
4 -4 -1 191.364 29.6469 3
4 -4 -1 118.485 23.4861 9
3 -4 -1 189.407 26.4127 9
3 -4 -1 244.04 69.2156 1
-3 4 1 118.592 51.8432 4
2 -4 -1 266.254 55.5582 1
2 -4 -1 310.464 33.4949 9
1 -4 -1 224.423 48.3905 1
1 -4 -1 231.48 27.0152 9
-1 4 1 165.066 35.6148 4
0 -4 -1 1212.93 77.9932 9
0 4 1 1172.41 78.5788 2
0 4 1 1217.44 103.776 4
-1 -4 -1 120.352 21.165 2
1 4 1 28.3725 35.4167 4
1 4 1 73.2605 17.8769 2
-2 -4 -1 1006.02 66.9957 2
2 4 1 1043.55 68.7912 2
2 4 1 1062.93 72.6551 6
-3 -4 -1 69.4057 13.666 2
3 4 1 23.705 24.4262 6
3 4 1 59.3797 15.554 2
-4 -4 -1 168.809 16.0054 2
-5 -4 -1 22.1873 6.9161 2
6 -5 -1 33.3868 31.4754 1
6 -5 -1 24.5377 14.0427 9
5 -5 -1 7.96169 21.7239 3
5 -5 -1 47.4444 17.3878 9
5 -5 -1 12.3622 37.1009 1
5 -5 -1 12.6323 23.0988 10
4 -5 -1 72.386 23.7866 9
3 -5 -1 206.743 30.0358 10
3 -5 -1 170.125 26.4243 9
3 -5 -1 163.946 47.8662 1
2 -5 -1 72.4206 26.2024 9
2 -5 -1 87.7365 47.8459 1
-2 5 1 48.0961 61.6476 4
1 -5 -1 355.607 51.1223 1
1 -5 -1 396.755 41.7564 9
-1 5 1 424.014 42.6175 2
0 5 1 99.4336 20.3889 2
0 5 1 104.36 60.4314 4
-1 -5 -1 310.758 43.8221 1
1 5 1 347.469 28.5255 2
-2 -5 -1 1292 83.4114 2
2 5 1 1333.61 85.7181 2
2 5 1 1347.56 91.1792 6
-3 -5 -1 242.14 18.1919 2
3 5 1 242.269 21.1186 2
3 5 1 189.83 29.3184 6
-4 -5 -1 231.571 17.7127 2
4 5 1 357.703 65.4794 6
5 -6 -1 107.18 29.9034 1
4 -6 -1 149.965 35.5208 1
4 -6 -1 130.806 19.8241 9
3 -6 -1 293.796 25.753 10
3 -6 -1 254.951 40.3579 1
3 -6 -1 248.958 26.4541 9
2 -6 -1 128.773 35.8266 9
2 -6 -1 127.413 38.9947 1
1 -6 -1 95.7179 36.4032 1
0 -6 -1 120.773 36.6929 1
1 6 1 786.217 60.0209 6
1 6 1 743.385 52.2843 2
2 6 1 110.873 27.8018 6
2 6 1 85.5096 14.25 2
3 6 1 150.419 14.6853 2
4 -7 -1 153.91 26.4583 1
3 -7 -1 22.8733 26.2337 1
2 -7 -1 153.321 32.3854 1
2 -7 -1 220 20.8329 10
1 -7 -1 77.5062 27.7418 1
1 -7 -1 22.317 17.7082 10
-1 7 1 51.7972 19.9528 2
0 7 1 58.3826 15.0604 2
0 7 1 28.8756 21.0719 6
1 7 1 10.8348 22.5804 6
1 7 1 3.83256 10.0743 2
2 7 1 115.808 12.668 2
2 -8 -1 211.14 24.0423 1
1 -8 -1 75.6589 14.9533 10
-1 8 1 52.2488 21.1173 6
-1 8 1 45.3996 18.1448 2
2 8 -2 7.5356 18.5291 6
2 8 -2 27.7969 9.87158 2
1 8 -2 42.574 11.4148 2
1 8 -2 24.2871 22.3408 6
0 8 -2 15.7896 13.8135 2
0 8 -2 -17.361 31.7843 6
0 -8 2 35.0592 14.6436 10
0 -8 2 30.2093 14.9731 3
1 -8 2 22.3762 14.1126 10
1 -8 2 -2.979 20.5706 3
2 -8 2 25.6461 23.0487 3
2 -8 2 36.6668 10.9673 10
3 -8 2 32.7007 13.9105 3
3 -8 2 37.9526 10.4867 10
3 7 -2 86.4981 12.7523 2
2 7 -2 38.6763 24.6386 6
2 7 -2 -3.9558 9.94361 2
1 7 -2 24.453 22.3268 6
1 7 -2 10.9981 14.5248 2
0 7 -2 186.328 23.7211 2
0 7 -2 197.547 30.6653 6
1 -7 2 180.782 20.6953 3
1 -7 2 183.464 24.5057 10
1 -7 2 247.81 44.5462 1
2 -7 2 124.651 20.1872 3
2 -7 2 136.442 24.6401 10
3 -7 2 337.586 25.7471 3
3 -7 2 387.973 28.9194 10
4 -7 2 72.5385 12.4844 3
4 -7 2 71.7958 14.5483 10
4 6 -2 71.0367 11.941 2
4 6 -2 38.4141 18.8887 6
-4 -6 2 77.0734 10.3206 2
3 6 -2 127.609 17.9313 2
3 6 -2 165.459 26.4441 6
-3 -6 2 199.233 22.6595 2
2 6 -2 4.66758 33.4121 6
2 6 -2 65.5244 15.7777 2
1 6 -2 170.248 21.4332 2
1 6 -2 121.082 25.2194 6
0 6 -2 335.984 32.9258 2
0 -6 2 308.586 50.4381 1
-1 6 -2 52.3187 32.2929 6
1 -6 2 90.3465 19.6441 10
2 -6 2 727.727 54.0904 10
2 -6 2 791.664 65.9887 5
2 -6 2 865.895 75.2187 1
2 -6 2 715.426 51.2212 3
3 -6 2 1077.01 70.8582 3
3 -6 2 1113.17 71.7354 10
3 -6 2 1119.05 88.3158 5
4 -6 2 104.214 14.2488 3
4 -6 2 134.425 18.0098 10
5 -6 2 31.9014 11.2807 3
5 -6 2 36.3374 12.4186 10
5 5 -2 21.1648 20.862 6
-5 -5 2 5.89029 7.57466 2
4 5 -2 477.728 43.0707 6
4 5 -2 447.758 34.9814 2
-4 -5 2 531.728 34.2623 2
3 5 -2 574.76 48.624 6
3 5 -2 532.339 40.2772 2
-3 -5 2 556.119 38.3252 2
2 5 -2 78.3884 24.5256 6
2 5 -2 106.768 95.854 4
2 5 -2 84.9667 17.063 2
-2 -5 2 64.403 14.9653 2
1 5 -2 101.516 23.4342 6
1 5 -2 104.812 21.2188 2
1 5 -2 71.3593 39.1262 4
0 5 -2 726.95 50.6011 6
0 5 -2 644.724 53.6746 2
0 -5 2 616.015 70.7348 1
0 -5 2 716.988 52.2935 5
-1 5 -2 76.0517 33.1782 6
1 -5 2 67.2848 25.3886 10
2 -5 2 223.763 24.6094 10
2 -5 2 203.14 21.5606 3
2 -5 2 149.497 25.8625 5
3 -5 2 20.5872 17.5414 10
3 -5 2 -13.139 25.2227 5
3 -5 2 57.4867 16.6634 3
4 -5 2 78.3555 14.2755 3
4 -5 2 58.8864 49.0799 5
5 -5 2 83.979 11.4724 3
5 -5 2 126.012 17.3714 10
6 4 -2 102.495 36.7232 6
-6 -4 2 120.621 11.8728 2
5 4 -2 30.9136 23.5915 6
-5 -4 2 18.4827 20.4972 2
4 4 -2 319.645 35.9923 6
4 4 -2 313.245 26.6705 2
-4 -4 2 308.078 24.8072 2
3 4 -2 58.1712 23.8658 6
3 4 -2 55.245 15.0326 2
-3 -4 2 53.6284 13.8064 2
2 4 -2 13.9403 26.9382 4
2 4 -2 8.14761 18.2365 2
2 4 -2 16.0054 19.8282 6
-2 -4 2 12.3303 13.791 2
1 4 -2 338.89 29.3565 6
-1 -4 2 274.327 27.872 5
0 4 -2 1813.21 114.507 6
0 -4 2 1750.73 114.155 5
1 -4 2 3788.53 213.206 5
1 -4 2 3018.1 208.627 10
2 -4 2 8140.89 551.445 10
2 -4 2 9999.99 558.03 5
2 -4 2 9206.71 551.839 3
3 -4 2 23.7602 20.5853 5
3 -4 2 46.4947 15.7272 3
3 -4 2 65.7364 17.4255 10
4 -4 2 1030.69 68.018 10
4 -4 2 984.234 72.1176 9
4 -4 2 1155.65 83.5928 5
4 -4 2 1032.1 67.2009 3
5 -4 2 1.21342 18.0158 10
5 -4 2 -3.8323 23.255 9
5 -4 2 10.5548 18.1904 3
6 -4 2 -4.0622 11.1905 10
6 -4 2 6.24854 7.43767 3
6 3 -2 71.1555 18.7707 9
-6 -3 2 47.3043 11.2813 2
5 3 -2 607.91 53.69 6
-5 -3 2 689.277 45.2983 2
4 3 -2 602.029 42.4902 2
4 3 -2 643.795 49.8524 6
-4 -3 2 551.968 40.9496 2
3 3 -2 -8.274 18.3524 6
3 3 -2 -22.007 28.9741 4
3 3 -2 60.2938 15.7925 2
-3 -3 2 24.22 13.8611 2
-3 -3 2 17.4809 23.8488 8
2 3 -2 435.729 36.4076 6
-2 -3 2 402.777 36.3732 8
-2 -3 2 461.476 55.853 11
1 3 -2 503.206 37.6941 6
-1 -3 2 374.33 43.6456 11
-1 -3 2 487.641 44.2827 11
-1 -3 2 509.221 34.3201 5
0 3 -2 684.872 50.4106 8
0 -3 2 723.287 48.4918 5
0 -3 2 685.515 51.0236 11
-1 3 -2 59.6521 14.1751 11
-1 3 -2 85.124 16.3502 8
1 -3 2 82.6521 16.2367 5
2 -3 2 108.941 18.8643 5
2 -3 2 105.271 15.6912 3
2 -3 2 101.008 17.3764 10
3 -3 2 85.0981 15.7133 3
3 -3 2 121.961 19.0202 10
3 -3 2 93.7693 22.1874 5
4 -3 2 36.0241 13.5348 3
4 -3 2 66.328 30.548 9
4 -3 2 14.8827 15.7975 10
5 -3 2 94.7824 27.817 9
5 -3 2 44.6112 16.4542 10
5 -3 2 52.1411 13.1647 3
6 -3 2 9.36093 11.596 10
6 -3 2 1.36125 15.9051 9
6 -3 2 6.03055 7.05656 3
7 2 -2 18.9879 33.9646 1
7 2 -2 11.3384 12.0065 9
-7 -2 2 9.0485 8.75949 2
6 2 -2 114.012 20.0649 9
-6 -2 2 84.326 15.3992 2
5 2 -2 1039.65 74.9216 6
5 2 -2 977.051 64.133 3
-5 -2 2 966.513 64.7671 2
4 2 -2 394.628 27.5375 3
4 2 -2 337.913 36.8303 6
-4 -2 2 352.013 28.6883 2
-4 -2 2 353.64 47.7729 8
3 2 -2 3150 183.763 4
3 2 -2 2977.62 187.686 6
3 2 -2 2856.35 183.089 3
-3 -2 2 2970.09 188.971 8
-2 -2 2 -4.0685 16.7941 11
-2 -2 2 -10.775 20.9851 11
-2 -2 2 14.7711 14.8045 8
1 2 -2 3319.88 191.752 8
1 2 -2 3052.05 192.729 11
-1 -2 2 3092.97 188.887 5
-1 -2 2 2916.88 190.119 8
-1 -2 2 3068.54 192.123 11
0 2 -2 48.0352 10.9062 8
0 2 -2 46.3711 16.9971 11
0 -2 2 42.7908 9.02668 8
0 -2 2 33.3949 9.87446 11
0 -2 2 65.3443 13.9323 5
-1 2 -2 632.023 43.7727 11
1 -2 2 608.216 43.9197 5
2 -2 2 1026.18 68.3736 5
3 -2 2 348.773 29.2679 10
3 -2 2 339.728 26.4191 3
3 -2 2 359.956 37.0991 7
4 -2 2 444.97 37.0629 10
4 -2 2 507.76 34.3717 3
5 -2 2 7.26158 17.2353 10
5 -2 2 46.8056 22.6562 9
5 -2 2 35.6119 13.2142 3
6 -2 2 9.3874 8.23225 3
6 -2 2 21.3908 13.2477 9
6 -2 2 15.063 10.3053 10
7 1 -2 33.1122 27.865 1
7 1 -2 10.8634 12.8555 9
-7 -1 2 43.3164 11.3421 2
6 1 -2 126.634 21.4193 9
6 1 -2 57.1104 36.1208 6
6 1 -2 78.7458 15.2826 3
-6 -1 2 120.982 20.9002 2
5 1 -2 831.801 67.639 6
5 1 -2 858.554 60.0521 9
5 1 -2 871.731 57.7644 3
-5 -1 2 938.225 59.7363 2
-5 -1 2 1004.54 133.425 8
4 1 -2 141.339 26.9256 6
4 1 -2 138.61 16.175 3
-4 -1 2 184.24 24.4775 2
3 1 -2 773.331 55.99 6
-3 -1 2 794.975 63.5757 11
-3 -1 2 764.347 55.8304 8
2 1 -2 509.959 34.134 4
2 1 -2 444.459 37.1999 11
-2 -1 2 442.611 34.4129 8
-2 -1 2 456.578 36.3635 11
1 1 -2 99.8147 15.8685 8
1 1 -2 109.17 16.8038 11
1 1 -2 105.205 15.771 4
-1 -1 2 110.557 15.606 11
-1 -1 2 88.115 13.364 8
0 1 -2 1039.08 70.9133 4
0 1 -2 1045.8 68.9393 11
0 -1 2 1123.78 69.3594 11
0 -1 2 1055.84 66.1251 8
-1 1 -2 588.609 45.8042 4
-1 1 -2 594.577 41.7087 11
1 -1 2 565.625 41.5422 11
-2 1 -2 1913.33 117.196 11
2 -1 2 1669.71 109.315 5
2 -1 2 1599.19 111.23 7
3 -1 2 491.599 37.5557 5
3 -1 2 451.865 40.8976 7
3 -1 2 498.878 35.5466 3
3 -1 2 499.025 38.041 10
4 -1 2 128.397 16.864 3
4 -1 2 112.842 19.6218 10
-5 1 -2 60.0081 25.4923 2
5 -1 2 83.4066 13.0041 3
6 -1 2 32.4937 9.88124 3
6 -1 2 29.2795 13.3284 9
7 0 -2 29.7014 13.0852 9
7 0 -2 93.6385 28.0822 1
7 0 -2 58.8184 10.148 3
6 0 -2 72.6567 20.3741 9
6 0 -2 84.0061 14.5942 3
5 0 -2 153.822 22.6071 9
5 0 -2 147.534 34.0157 6
5 0 -2 180.326 17.438 3
-5 0 2 103.867 61.9394 8
4 0 -2 27.971 24.7794 9
4 0 -2 13.7729 12.219 3
4 0 -2 15.3071 21.9607 6
-4 0 2 -4.8163 24.558 8
3 0 -2 309.625 32.9655 6
-3 0 2 333.908 32.7928 11
-3 0 2 374.28 36.3904 11
-3 0 2 342.145 29.6788 8
2 0 -2 1021.2 64.6366 11
2 0 -2 977.993 62.8189 4
-2 0 2 930.441 63.7264 8
-2 0 2 917.879 63.0612 11
1 0 -2 290.101 26.9837 4
1 0 -2 270.773 23.0853 11
-1 0 2 294.054 23.6481 8
-1 0 2 278.039 23.3881 11
-1 0 2 265.713 23.9 4
0 0 -2 -7.8796 14.2618 4
0 0 -2 -4.993 8.56797 11
0 0 2 -1.1138 7.93785 11
0 0 2 5.70783 12.2306 4
-1 0 -2 692.594 50.9149 11
-1 0 -2 710.835 54.7141 4
1 0 2 667.315 50.7897 4
1 0 2 732.983 46.5892 8
1 0 2 747.185 51.8698 11
2 0 2 582.14 46.1988 7
2 0 2 624.681 45.7038 8
3 0 2 91.9121 20.1149 3
3 0 2 65.239 21.171 5
3 0 2 86.2496 22.018 7
3 0 2 123.675 22.6883 10
-4 0 -2 -13.578 22.5134 2
4 0 2 6.00082 18.9217 10
4 0 2 37.5642 13.9657 3
4 0 2 12.8468 24.1426 7
-5 0 -2 158.831 31.2611 2
5 0 2 185.622 29.5291 3
5 0 2 154.755 22.7556 10
-6 0 -2 15.1616 10.5078 2
6 0 2 -2.4564 12.6262 9
6 0 2 -10.935 10.7077 3
7 -1 -2 26.8922 20.3686 1
7 -1 -2 18.618 12.6631 9
6 -1 -2 71.4136 18.5283 9
5 -1 -2 345.107 57.8563 1
5 -1 -2 423.793 29.329 3
5 -1 -2 406.26 33.3041 9
4 -1 -2 1173.04 78.9551 9
4 -1 -2 1206.07 76.7587 3
4 -1 -2 1290.02 84.0767 6
-4 1 2 1144.42 85.2525 8
3 -1 -2 1198.15 88.0138 6
-3 1 2 1446.79 87.2726 11
-3 1 2 1366.25 89.0391 8
-3 1 2 1340.97 84.6943 4
2 -1 -2 296.111 24.1016 11
-2 1 2 225.666 23.3428 11
-2 1 2 267.878 25.6107 8
-2 1 2 252.208 24.3652 4
1 -1 -2 5768.8 340.861 4
-1 1 2 5327.84 337.944 4
-1 1 2 5412.71 336.322 11
0 -1 -2 1250.73 87.791 4
0 -1 -2 1243.04 81.9539 11
0 1 2 1242.28 83.7834 4
0 1 2 1238.53 82.4604 11
-1 -1 -2 1285.87 95.5942 11
1 1 2 1595.06 99.1588 11
1 1 2 1299.83 92.969 7
1 1 2 1557.33 96.7684 4
1 1 2 1439.15 94.1761 8
-2 -1 -2 1626.06 104.247 2
2 1 2 1439.49 103.574 10
2 1 2 1662.82 109.741 7
2 1 2 1846.48 112.093 4
-3 -1 -2 411.402 35.4566 2
3 1 2 431.131 40.4596 7
3 1 2 534.13 39.8824 2
3 1 2 485.749 34.7824 3
-4 -1 -2 118.528 18.4934 2
4 1 2 99.6089 21.1084 10
4 1 2 81.0806 19.3017 3
-5 -1 -2 227.648 20.0783 2
5 1 2 242.505 20.355 3
7 -2 -2 280.231 31.7276 1
7 -2 -2 300.763 23.8976 9
7 -2 -2 245.82 19.9992 3
6 -2 -2 840.048 70.1481 1
6 -2 -2 851.107 55.7791 3
6 -2 -2 886.705 59.3333 9
5 -2 -2 220.825 47.5321 1
5 -2 -2 195.362 23.3449 9
5 -2 -2 156.09 17.8644 3
4 -2 -2 1463.56 89.3897 3
4 -2 -2 1363.79 89.1341 9
4 -2 -2 1231.12 101.939 1
-4 2 2 1497.93 102.451 8
3 -2 -2 142.006 24.8224 9
-3 2 2 93.8733 23.2347 4
-3 2 2 86.1101 22.3333 8
2 -2 -2 411.45 36.1435 11
-2 2 2 395.575 36.0345 4
-2 2 2 398.985 34.4004 11
1 -2 -2 899.8 64.8858 11
-1 2 2 966.835 68.3053 4
-1 2 2 957.089 66.2035 11
0 2 2 310.276 32.5797 4
0 2 2 243.811 37.0145 11
1 2 2 1204.47 84.2775 7
1 2 2 1266.2 87.9857 4
-2 -2 -2 18.5495 15.7794 2
2 2 2 52.4906 26.366 7
2 2 2 -16.031 28.3326 4
2 2 2 23.3102 25.8858 6
-3 -2 -2 1304.51 81.3636 2
3 2 2 1306.4 81.5724 3
3 2 2 1152.33 81.3847 2
3 2 2 1290.81 89.1554 7
-4 -2 -2 43.8818 15.0954 2
-5 -2 -2 174.288 15.8882 2
7 -3 -2 503.029 38.7365 3
7 -3 -2 589.468 45.7334 1
7 -3 -2 681.154 40.2257 9
6 -3 -2 38.2197 29.2629 1
6 -3 -2 24.2189 13.4259 3
5 -3 -2 136.116 23.0223 3
4 -3 -2 23.0695 19.6647 9
4 -3 -2 18.8093 39.5966 1
-4 3 2 53.2865 47.979 8
3 -3 -2 226.026 25.0864 9
2 -3 -2 339.049 58.6427 1
2 -3 -2 286.524 31.5284 9
-2 3 2 207.785 34.825 4
-1 3 2 93.2723 26.4691 4
0 -3 -2 760.337 53.3222 9
0 -3 -2 768.531 73.7797 1
0 3 2 730.61 63.5277 4
0 3 2 759.384 52.4711 2
0 3 2 757.799 69.1425 7
-1 -3 -2 170.288 21.0608 2
1 3 2 171.069 41.1403 7
1 3 2 174.944 20.9986 2
1 3 2 104.571 38.7199 4
-2 -3 -2 551.027 40.0923 2
2 3 2 552.896 86.9924 4
2 3 2 606.945 50.2659 7
2 3 2 560.731 40.6049 2
2 3 2 573.235 46.0327 6
-3 -3 -2 1181.49 74.9781 2
3 3 2 1139.1 74.8896 2
-4 -3 -2 76.0489 13.3961 2
-5 -3 -2 310.178 21.8261 2
6 -4 -2 29.6682 13.2796 9
6 -4 -2 13.0126 26.536 1
5 -4 -2 339.693 44.5041 1
5 -4 -2 294.066 28.0051 9
4 -4 -2 148.763 43.148 1
3 -4 -2 181.291 24.8528 9
3 -4 -2 251.426 48.7329 1
-3 4 2 97.3542 60.0234 8
2 -4 -2 809.229 54.7466 9
2 -4 -2 736.723 73.7197 1
-2 4 2 794.128 79.2159 4
1 -4 -2 168.733 47.1873 1
0 -4 -2 129.281 68.1892 1
0 -4 -2 101.842 26.4773 9
-1 -4 -2 42.1995 17.6593 2
1 4 2 10.3133 17.8315 2
1 4 2 -76.126 66.9971 4
-2 -4 -2 732.661 47.8911 2
2 4 2 701.197 49.0513 2
2 4 2 697.817 55.0159 6
3 4 2 16.2113 39.3202 6
3 4 2 33.8615 17.6016 2
-4 -4 -2 184.5 15.2379 2
6 -5 -2 53.6807 26.5438 1
6 -5 -2 55.6372 12.5439 9
5 -5 -2 106.536 17.0007 9
5 -5 -2 136.769 34.1757 1
3 -5 -2 242.885 26.1628 9
3 -5 -2 230.088 44.9604 1
2 -5 -2 86.7098 23.809 9
1 -5 -2 389.491 50.174 1
1 -5 -2 469.163 36.6503 9
-1 5 2 482.354 37.9812 2
0 -5 -2 131.253 40.4395 1
0 5 2 97.5785 19.9132 2
1 5 2 13.469 13.929 2
2 5 2 79.2901 32.7738 2
-3 -5 -2 124.351 15.1822 2
3 5 2 125.589 14.4582 2
5 -6 -2 2.51696 23.1052 1
5 -6 -2 25.6811 13.2224 9
4 -6 -2 42.5427 28.9935 1
4 -6 -2 40.8915 14.9863 9
3 -6 -2 323.149 66.0185 1
3 -6 -2 214.251 27.5443 10
2 -6 -2 28.0102 34.1295 1
2 -6 -2 61.9339 19.0322 9
1 -6 -2 659.759 54.6668 1
-1 6 2 564.685 44.202 2
0 -6 -2 247.326 66.8556 1
1 6 2 74.7284 24.2798 6
1 6 2 95.2944 15.2901 2
2 6 2 5.97156 9.50684 2
2 6 2 13.6346 24.8933 6
4 -7 -2 7.64601 20.6378 1
3 -7 -2 87.3321 22.8022 1
2 -7 -2 37.1775 25.3547 10
1 -7 -2 280.323 24.6537 10
1 -7 -2 303.85 32.6558 1
-1 7 2 269.896 26.1076 2
0 7 2 13.4989 12.2758 2
0 7 2 21.5547 20.037 6
2 8 -3 77.6837 21.9288 6
2 8 -3 67.2291 11.7878 2
1 8 -3 9.30867 10.5289 2
1 8 -3 -28.327 26.9974 6
-1 -8 3 32.7938 13.893 10
0 8 -3 84.3857 18.0832 2
0 -8 3 96.1391 13.4078 3
0 -8 3 100.614 17.2159 10
1 -8 3 81.4896 13.3732 3
1 -8 3 91.6631 16.5859 10
2 -8 3 22.0346 12.2512 10
2 -8 3 -10.07 10.9476 3
3 -8 3 385.143 25.3686 10
3 -8 3 323.771 24.4902 3
4 7 -3 -5.0323 9.9574 2
4 7 -3 1.92097 19.1491 6
3 7 -3 461.425 33.1201 2
2 7 -3 421.728 34.0769 2
2 7 -3 387.991 38.2771 6
1 7 -3 8.4979 12.5938 2
1 7 -3 19.6189 25.1064 6
0 7 -3 70.5452 17.3778 2
0 7 -3 52.8962 35.4408 6
0 -7 3 90.6625 17.1113 10
1 -7 3 292.931 28.0066 10
1 -7 3 322.685 26.3779 3
2 -7 3 28.748 17.1392 10
2 -7 3 38.534 18.5832 3
2 -7 3 4.99006 37.0807 5
3 -7 3 125.236 14.4307 3
3 -7 3 127.654 16.3986 10
4 -7 3 -3.4923 10.1164 3
4 -7 3 0.17585 9.43908 10
5 6 -3 22.6657 15.6302 6
-5 -6 3 58.0362 10.0425 2
4 6 -3 -6.0019 11.0759 2
4 6 -3 6.17343 21.5235 6
-4 -6 3 26.0711 9.17332 2
3 6 -3 305.906 25.9454 2
3 6 -3 326.472 35.4593 6
-3 -6 3 291.44 24.7792 2
2 6 -3 61.9783 28.6455 6
2 6 -3 75.5321 15.5027 2
1 6 -3 60.6093 18.6083 2
1 6 -3 32.4116 26.2132 6
0 6 -3 329.539 32.2461 2
0 6 -3 317.526 39.9874 6
0 -6 3 289.212 38.2738 5
1 -6 3 130.351 21.9382 10
2 -6 3 1354.44 89.3248 10
2 -6 3 1579.67 91.1697 3
2 -6 3 1295.03 103.055 5
3 -6 3 1944.99 139.648 5
3 -6 3 1963.03 125.519 10
3 -6 3 2095.74 125.847 3
4 -6 3 31.9372 11.6125 10
4 -6 3 26.653 11.3379 3
5 -6 3 391.437 26.8782 3
5 -6 3 394.746 28.518 10
5 5 -3 9.46659 18.9872 6
4 5 -3 388.227 41.7316 6
4 5 -3 480.526 34.2121 2
-4 -5 3 497.845 32.6413 2
3 5 -3 425.582 38.9616 6
3 5 -3 359.152 31.1162 2
-3 -5 3 407.451 29.4086 2
2 5 -3 58.0228 16.5611 2
2 5 -3 25.683 23.4847 6
-2 -5 3 44.5984 17.5948 2
1 5 -3 145.852 26.4226 6
1 5 -3 136.867 23.1616 2
-1 -5 3 157.683 28.9714 5
0 5 -3 43.5381 32.4857 6
1 -5 3 265.977 30.7678 5
2 -5 3 24.6151 15.507 10
2 -5 3 9.4757 23.9977 5
2 -5 3 43.9644 17.4897 3
3 -5 3 24.9108 32.0009 5
3 -5 3 26.0384 15.5694 3
3 -5 3 43.7694 17.4301 10
4 -5 3 83.3396 19.9321 10
4 -5 3 100.066 80.8389 5
5 -5 3 -8.0764 12.7992 10
5 -5 3 -11.992 11.0158 3
6 4 -3 -17.765 25.7394 6
-6 -4 3 5.29982 7.22034 2
5 4 -3 28.3609 23.3987 6
-5 -4 3 34.3394 10.5327 2
4 4 -3 878.667 60.2129 2
4 4 -3 960.636 68.6327 6
-4 -4 3 896.837 59.2062 2
3 4 -3 116.673 23.618 6
3 4 -3 84.8344 17.2467 2
-3 -4 3 94.9482 14.7505 2
2 4 -3 1930.1 114.991 2
-2 -4 3 1635.46 121.16 5
-2 -4 3 1859.02 112.326 2
1 4 -3 91.2716 22.4474 6
0 4 -3 869.109 83.7227 6
0 -4 3 954.138 64.0654 5
1 -4 3 179.802 24.0911 10
1 -4 3 185.743 23.2654 5
2 -4 3 102.113 17.958 10
2 -4 3 105.486 16.0384 3
2 -4 3 133.367 28.7721 5
3 -4 3 285.486 25.2215 10
3 -4 3 240.445 34.9428 5
3 -4 3 259.157 21.9653 3
4 -4 3 197.448 19.0982 3
4 -4 3 183.379 23.5094 10
5 -4 3 170.897 20.0185 10
5 -4 3 163.473 15.9388 3
6 3 -3 21.2756 20.2536 9
6 3 -3 46.9534 23.603 6
-6 -3 3 52.5828 11.1038 2
5 3 -3 35.481 24.7529 6
-5 -3 3 65.538 14.7483 2
4 3 -3 918.873 63.1863 2
4 3 -3 999.499 70.6168 6
-4 -3 3 973.203 87.2986 8
-4 -3 3 911.734 61.4833 2
3 3 -3 -8.2896 17.4042 6
3 3 -3 5.89842 25.7272 4
-3 -3 3 0.63708 23.3048 8
-3 -3 3 36.8106 13.9878 2
2 3 -3 1409.79 89.1618 6
-2 -3 3 1271.2 101.895 11
-2 -3 3 1355.57 89.8143 8
-2 -3 3 1309.65 84.8428 5
1 3 -3 67.3781 27.5959 11
-1 -3 3 87.9058 21.9308 11
-1 -3 3 89.9767 16.61 8
-1 -3 3 108.422 14.6869 5
0 3 -3 -17.7 19.8528 11
0 3 -3 -24.343 20.33 8
0 -3 3 9.27873 11.2517 5
0 -3 3 -7.6047 19.4915 11
1 -3 3 75.7583 15.9099 5
2 -3 3 86.0553 18.9441 5
2 -3 3 85.5428 15.8967 3
3 -3 3 425.235 31.0197 3
3 -3 3 384.087 45.9382 7
3 -3 3 381.581 32.2486 10
3 -3 3 453.176 42.0939 5
4 -3 3 190.26 17.9486 3
4 -3 3 208.416 25.0172 10
5 -3 3 -32.042 29.3069 9
5 -3 3 20.2404 14.2866 10
5 -3 3 18.7716 11.8615 3
7 2 -3 46.4058 16.4131 9
-7 -2 3 37.2541 11.5442 2
6 2 -3 57.2661 26.3292 6
6 2 -3 35.0908 24.1644 9
-6 -2 3 77.8684 26.5556 2
5 2 -3 5.53112 13.3849 3
5 2 -3 -4.388 23.9376 6
-5 -2 3 12.8007 14.1419 2
4 2 -3 272.752 31.6911 6
4 2 -3 326.058 24.3124 3
-4 -2 3 315.458 26.6119 2
-4 -2 3 349.557 44.0813 8
3 2 -3 35.4362 16.8457 3
-3 -2 3 18.5917 18.9771 8
-3 -2 3 62.6931 16.6544 2
2 2 -3 1221.65 86.264 4
2 2 -3 1127.38 87.7269 11
2 2 -3 1114.83 80.352 6
-2 -2 3 1281.23 77.3906 5
-2 -2 3 1308.48 87.2634 11
-2 -2 3 1249.52 81.1398 8
1 2 -3 732.102 54.5038 8
-1 -2 3 732.611 50.3621 8
-1 -2 3 768.407 55.8053 11
0 2 -3 95.0261 20.398 11
0 -2 3 73.9754 10.1812 8
0 -2 3 110.085 17.6432 5
0 -2 3 88.3037 19.7555 11
-1 2 -3 178.667 32.9288 11
1 -2 3 150.092 20.0236 5
2 -2 3 375.512 39.9254 7
2 -2 3 424.411 36.2681 5
2 -2 3 391.541 31.4556 3
2 -2 3 360.747 31.3098 10
3 -2 3 155.2 24.3753 10
3 -2 3 134.676 30.1187 7
4 -2 3 103.247 15.8945 3
4 -2 3 91.2092 21.2539 10
5 -2 3 -8.9357 9.58957 3
5 -2 3 -4.3625 12.7121 10
7 1 -3 8.01237 14.0558 9
7 1 -3 48.2984 28.9368 1
-7 -1 3 -16.247 13.2409 2
6 1 -3 126.297 20.4345 9
6 1 -3 109.373 14.2362 3
6 1 -3 56.3269 28.053 6
-6 -1 3 125.093 17.2213 2
5 1 -3 84.6013 25.3338 9
4 1 -3 799.642 53.0595 3
4 1 -3 809.86 59.0634 9
4 1 -3 785.583 60.3604 6
-4 -1 3 808.318 55.1952 2
-4 -1 3 845.898 66.6728 8
3 1 -3 1371.68 84.51 4
3 1 -3 1232.12 84.5455 6
-3 -1 3 1155.31 84.4713 8
2 1 -3 2128.98 142.621 6
2 1 -3 2405.71 146.44 4
2 1 -3 1941.21 145.532 11
-2 -1 3 2396.89 144.754 11
-2 -1 3 2409.26 142.928 8
1 1 -3 0.11127 13.2414 11
1 1 -3 19.41 19.388 4
-1 -1 3 4.55076 10.7898 8
-1 -1 3 1.76558 14.0066 11
0 1 -3 4493.11 274.995 11
0 -1 3 4312.47 270.124 8
0 -1 3 4521.93 275.263 11
-1 1 -3 911.5 67.3074 11
1 -1 3 964.148 66.9953 7
1 -1 3 896.319 67.7431 11
2 -1 3 556.548 48.042 10
2 -1 3 668.772 49.5199 5
2 -1 3 742.924 51.8275 7
-3 1 -3 821.609 59.3495 2
3 -1 3 818.58 58.0834 10
3 -1 3 877.12 57.7399 3
3 -1 3 858.164 65.0006 7
-4 1 -3 352.988 30.08 2
4 -1 3 348.042 27.5195 3
4 -1 3 286.978 30.1329 10
-5 1 -3 108.148 17.8011 2
5 -1 3 91.204 16.993 9
5 -1 3 106.439 13.1396 3
5 -1 3 89.9759 15.7294 10
7 0 -3 34.4896 12.6382 9
7 0 -3 72.3109 28.9883 1
6 0 -3 609.904 61.8502 1
6 0 -3 670.093 46.8321 9
6 0 -3 674.778 43.6538 3
-6 0 3 661.485 45.9069 2
5 0 -3 1198.54 72.5473 3
5 0 -3 1177.53 81.931 6
5 0 -3 1068.28 74.5643 9
-5 0 3 1116.3 75.8783 2
-5 0 3 1081.56 106.728 8
4 0 -3 791.408 57.8282 6
4 0 -3 792.86 54.7282 9
4 0 -3 759.128 50.4032 3
-4 0 3 721.477 61.8714 8
3 0 -3 2444.97 163.372 6
-3 0 3 2740.68 165.527 8
2 0 -3 -0.3883 22.333 11
2 0 -3 -5.4233 23.0697 4
2 0 -3 18.1437 18.2649 6
-2 0 3 9.67315 15.692 11
-2 0 3 8.85673 10.2043 4
-2 0 3 13.729 14.6138 8
1 0 -3 920.763 63.218 11
-1 0 3 869.016 62.2445 4
-1 0 3 808.676 59.0362 8
-1 0 3 963.044 63.7528 11
0 0 -3 1705.68 103.434 11
0 0 3 1633.57 104.306 4
0 0 3 1292.03 109.152 11
-1 0 -3 86.3835 25.1314 11
1 0 3 149.681 24.7201 4
1 0 3 148.205 23.9964 7
1 0 3 114.294 23.992 8
-2 0 -3 527.97 39.4022 2
2 0 3 477.089 38.8372 10
2 0 3 594.139 44.4339 2
2 0 3 494.896 43.2352 7
-3 0 -3 108.524 21.6569 2
3 0 3 69.8387 25.3323 7
3 0 3 56.7878 18.7431 10
-4 0 -3 1022.97 67.8257 2
4 0 3 1011.96 77.3868 7
4 0 3 1013.57 67.6477 10
4 0 3 1087.23 66.873 3
-5 0 -3 -6.4926 10.0525 2
5 0 3 8.26028 12.8575 3
7 -1 -3 476.282 32.7374 9
7 -1 -3 411.424 38.8989 1
6 -1 -3 1155.8 71.3789 3
6 -1 -3 1069.74 84.9199 1
6 -1 -3 1128.19 73.9798 9
5 -1 -3 50.8611 17.3299 3
5 -1 -3 44.2484 18.436 9
5 -1 -3 -9.592 46.1153 1
4 -1 -3 -15.689 20.9477 9
4 -1 -3 34.565 45.2263 1
4 -1 -3 2.87211 20.2157 6
-4 1 3 -11.591 29.1867 8
-3 1 3 13.3623 18.9495 8
-3 1 3 7.64912 15.4789 4
2 -1 -3 281.642 37.8611 11
-2 1 3 394.757 36.5786 11
-2 1 3 359.494 33.5013 8
-2 1 3 326.445 31.8969 4
1 -1 -3 269.439 34.051 11
-1 1 3 384.918 32.1007 7
-1 1 3 333.196 36.0353 11
-1 1 3 358.51 33.1533 4
0 1 3 114.369 24.4602 4
0 1 3 73.6312 23.5085 11
0 1 3 116.515 24.1089 7
-1 -1 -3 1012.44 68.4637 2
1 1 3 1009.39 68.0383 2
1 1 3 1097.35 72.5073 7
1 1 3 1101.69 78.0595 4
-2 -1 -3 120.33 21.8068 2
2 1 3 156.468 24.2513 10
2 1 3 101.893 27.1955 7
2 1 3 150.087 21.0958 2
2 1 3 121.479 44.2473 4
-3 -1 -3 701.66 48.3934 2
3 1 3 679.258 48.9043 10
3 1 3 724.342 55.9752 7
-4 -1 -3 793.043 53.0515 2
-5 -1 -3 1.07351 8.51657 2
7 -2 -3 17.7557 19.8157 1
7 -2 -3 -7.1496 11.5411 9
6 -2 -3 190.267 23.0089 9
6 -2 -3 203.656 25.379 3
6 -2 -3 193.378 37.5777 1
5 -2 -3 80.4522 39.3095 1
-4 2 3 531.47 59.5569 8
3 -2 -3 85.295 23.4601 9
-3 2 3 48.9646 26.1938 4
-3 2 3 57.6657 29.3624 8
2 -2 -3 222.016 26.2843 9
-2 2 3 192.298 31.8936 4
-1 2 3 1559.68 106.6 4
-1 2 3 1497.42 100.249 7
0 -2 -3 30.4765 22.0708 9
0 2 3 2.76691 21.7282 4
0 2 3 42.4481 18.5052 2
0 2 3 46.9167 26.3682 7
-1 -2 -3 117.309 19.0837 2
1 2 3 100.307 17.975 2
1 2 3 138.056 30.2403 7
1 2 3 90.0318 34.3544 4
-2 -2 -3 121.719 17.8366 2
2 2 3 39.6258 35.2539 6
2 2 3 177.034 31.9622 7
2 2 3 107.396 18.1766 2
2 2 3 17.063 56.5825 4
-3 -2 -3 483.575 34.7697 2
3 2 3 413.325 35.7681 2
3 2 3 519.259 67.4538 7
-4 -2 -3 -14.122 10.1278 2
7 -3 -3 95.4162 24.4521 1
7 -3 -3 72.9599 13.6504 9
6 -3 -3 113.927 32.9952 1
6 -3 -3 83.5993 16.3546 9
5 -3 -3 17.086 19.6391 9
5 -3 -3 67.0137 33.7483 1
4 -3 -3 267.619 46.1493 1
4 -3 -3 207.254 26.4022 9
-4 3 3 193.393 83.3252 8
3 -3 -3 130.956 71.1114 1
3 -3 -3 78.4261 35.6917 9
-3 3 3 23.78 45.1118 4
-3 3 3 3.59051 37.8467 8
2 -3 -3 483.147 40.2141 9
2 -3 -3 603.983 61.2834 1
-2 3 3 563.065 51.9406 7
-2 3 3 418.858 58.8672 4
1 -3 -3 141.311 22.5863 9
-1 3 3 197.741 26.3577 2
-1 3 3 202.632 41.7124 7
0 -3 -3 590.557 61.2357 1
0 -3 -3 531.384 39.2746 9
0 3 3 556.392 65.0838 4
0 3 3 492.255 38.354 2
0 3 3 508.336 52.1523 7
-1 -3 -3 99.9927 18.6619 2
1 3 3 104.388 19.1463 2
1 3 3 31.5187 58.895 4
1 3 3 157.096 40.4774 7
-2 -3 -3 28.0682 14.184 2
2 3 3 28.4553 14.9846 2
2 3 3 -5.6423 28.9139 7
-3 -3 -3 27.3975 12.5118 2
3 3 3 46.8401 17.5458 2
-4 -3 -3 148.564 13.8653 2
6 -4 -3 182.757 18.9324 9
6 -4 -3 167.881 30.8895 1
5 -4 -3 22.8712 16.0598 9
5 -4 -3 -3.9547 32.3806 1
4 -4 -3 93.3851 40.4443 1
4 -4 -3 35.0426 20.103 9
3 -4 -3 154.892 47.629 1
2 -4 -3 419.017 54.0475 1
2 -4 -3 416.283 34.6028 9
1 -4 -3 66.4898 22.5498 9
-1 4 3 106.781 21.4894 2
-1 4 3 11.3884 70.3101 4
0 -4 -3 1241.57 91.6147 1
0 4 3 1220.58 79.7625 2
-1 -4 -3 38.2555 17.8672 2
1 4 3 58.202 16.252 2
-2 -4 -3 96.9629 16.0087 2
2 4 3 55.3411 26.1063 6
2 4 3 101.334 16.5794 2
-3 -4 -3 12.7903 8.85613 2
3 4 3 -17.408 11.3496 2
6 -5 -3 78.0615 13.114 9
6 -5 -3 99.2746 26.384 1
5 -5 -3 36.4157 31.5857 1
5 -5 -3 37.387 13.5512 9
4 -5 -3 21.9213 35.257 1
4 -5 -3 20.0181 22.4045 9
3 -5 -3 85.993 20.148 9
2 -5 -3 339.098 45.8 1
2 -5 -3 265.863 27.4639 9
-2 5 3 333.599 31.7981 2
1 -5 -3 372.266 45.6253 1
1 -5 -3 401.895 32.1757 9
-1 5 3 390.392 32.5406 2
0 -5 -3 685.447 55.7865 1
0 5 3 637.842 45.7116 2
1 5 3 17.1664 21.6024 6
1 5 3 -13.774 15.3826 2
2 5 3 10.256 11.3595 2
5 -6 -3 65.6899 14.8671 9
4 -6 -3 70.3214 13.9149 9
3 -6 -3 40.5473 26.7362 1
3 -6 -3 16.9207 13.9138 9
2 -6 -3 48.7036 29.5616 1
-2 6 3 52.7158 19.7099 2
1 -6 -3 113.798 31.5237 1
0 6 3 29.6787 13.2247 2
0 6 3 10.9297 19.1664 6
1 6 3 22.1504 19.1887 6
1 6 3 13.2804 11.3971 2
2 -7 -3 379.659 34.5662 1
-1 7 3 187.53 23.1102 6
-1 7 3 244.9 18.9357 2
2 8 -4 199.968 19.1003 2
-2 -8 4 218.169 20.8807 10
1 8 -4 78.5631 16.1511 2
-1 -8 4 57.5296 16.0212 10
0 -8 4 107.448 17.8236 10
0 -8 4 71.6952 12.5283 3
1 -8 4 113.032 13.5254 3
1 -8 4 119.237 14.0851 10
2 -8 4 -4.603 9.07527 3
2 -8 4 11.7601 9.71113 10
4 7 -4 67.7196 20.7678 6
4 7 -4 56.1231 11.3013 2
3 7 -4 205.148 27.8757 6
3 7 -4 221.491 20.2726 2
2 7 -4 197.998 30.2138 6
2 7 -4 149.143 20.6339 2
1 7 -4 46.4899 30.0433 6
0 7 -4 68.8707 20.2221 2
0 -7 4 119.106 20.5928 10
-1 7 -4 35.5736 33.0036 2
1 -7 4 -7.0279 14.7638 3
1 -7 4 31.4951 12.4103 10
1 -7 4 84.1826 49.004 5
2 -7 4 97.5207 15.991 10
2 -7 4 69.4655 12.5404 3
3 -7 4 6.36884 10.137 3
3 -7 4 8.28792 10.5737 10
5 6 -4 17.2802 18.2188 6
-5 -6 4 3.5695 7.54237 2
4 6 -4 -2.8812 13.2383 2
4 6 -4 -24.027 20.5045 6
-4 -6 4 10.7273 10.0096 2
3 6 -4 466 43.6845 6
3 6 -4 505.069 36.2697 2
2 6 -4 -26.411 40.6346 6
2 6 -4 -1.5447 13.5569 2
1 6 -4 769.946 53.8076 2
1 6 -4 765.637 60.2857 6
-1 -6 4 810.653 55.3665 10
-1 -6 4 735.016 69.3087 5
0 -6 4 76.5589 28.9077 5
0 -6 4 59.4724 18.6399 10
1 -6 4 185.152 19.2284 10
1 -6 4 210.016 37.5145 5
2 -6 4 101.206 16.811 3
2 -6 4 114.334 18.2797 10
2 -6 4 85.6401 39.8556 5
3 -6 4 30.6397 16.8528 3
3 -6 4 -6.0346 12.9981 10
3 -6 4 6.31962 51.434 5
4 -6 4 22.2379 10.7529 3
4 -6 4 42.8194 11.2269 10
5 5 -4 52.3028 24.6099 2
5 5 -4 38.4925 21.7082 6
-5 -5 4 24.8902 8.74318 2
4 5 -4 50.3294 16.5772 2
4 5 -4 44.5505 22.2915 6
-4 -5 4 31.1852 11.1935 2
3 5 -4 518.908 45.6009 6
3 5 -4 489.882 38.5353 2
-3 -5 4 526.727 36.1205 2
2 5 -4 75.6899 23.2825 6
2 5 -4 81.1839 17.388 2
-2 -5 4 110.884 16.3556 2
1 5 -4 770.677 60.165 6
1 5 -4 807.922 62.3077 2
-1 -5 4 790.066 58.8 5
0 5 -4 82.3416 25.098 2
0 -5 4 10.81 19.5042 5
2 -5 4 5.89145 29.2509 5
2 -5 4 11.2633 17.5065 3
2 -5 4 12.4777 17.9626 10
3 -5 4 21.3654 14.5203 3
3 -5 4 -5.0253 38.3019 5
4 -5 4 73.2399 12.1303 3
6 4 -4 -9.8928 17.7593 6
5 4 -4 -4.3692 21.1432 6
-5 -4 4 29.4752 11.1449 2
4 4 -4 36.3924 18.9191 2
4 4 -4 29.4156 23.5491 6
-4 -4 4 8.19327 11.1768 2
3 4 -4 397.611 36.6251 6
3 4 -4 399.276 31.4605 2
-3 -4 4 312.112 57.0273 8
-3 -4 4 410.177 29.3919 2
2 4 -4 32.7457 17.7083 2
2 4 -4 23.2895 21.5923 6
-2 -4 4 32.9084 21.4546 5
-2 -4 4 -28.18 28.0146 8
-2 -4 4 50.701 16.104 2
1 4 -4 946.539 67.6579 2
1 4 -4 1034.39 73.3466 6
-1 -4 4 1084.86 71.5404 5
0 4 -4 274.896 34.5104 2
0 -4 4 187.154 23.4036 5
1 -4 4 106.16 21.4217 10
2 -4 4 184.543 30.4008 5
2 -4 4 214.337 20.7956 3
2 -4 4 192.233 22.8777 10
3 -4 4 192.684 19.6324 3
3 -4 4 162.48 38.2939 5
3 -4 4 194.36 22.8593 10
4 -4 4 -0.5429 23.2359 10
4 -4 4 32.9861 18.3303 3
5 -4 4 21.1262 9.35108 3
6 3 -4 24.4245 21.748 6
-6 -3 4 16.1208 9.34165 2
5 3 -4 265.188 35.7987 6
-5 -3 4 293.097 23.7045 2
4 3 -4 209.585 28.8365 6
-4 -3 4 165.696 17.9562 2
-4 -3 4 164.997 50.3496 8
3 3 -4 548.319 43.0616 2
3 3 -4 585.705 45.2251 6
-3 -3 4 621.37 54.3344 8
-3 -3 4 567.649 39.6199 2
2 3 -4 329.955 29.7132 2
2 3 -4 280.566 31.5867 6
-2 -3 4 327.108 34.1998 8
-2 -3 4 316.014 26.1353 2
-2 -3 4 328.749 27.0188 5
1 3 -4 1118.27 83.6171 6
-1 -3 4 1244.27 80.8685 5
-1 -3 4 1271.57 81.049 8
0 -3 4 27.4138 19.3665 5
-1 3 -4 1209.9 80.9723 2
1 -3 4 1258.27 74.9593 3
1 -3 4 1055.67 77.9582 10
1 -3 4 1147.94 81.0603 5
2 -3 4 374.998 45.0847 7
2 -3 4 332.688 34.8854 3
2 -3 4 412.685 37.0327 5
-3 3 -4 336.238 36.5181 2
3 -3 4 218.088 39.6115 7
3 -3 4 265.005 23.566 3
3 -3 4 285.835 28.4391 10
4 -3 4 330.004 28.3907 10
4 -3 4 291.154 25.5029 3
5 -3 4 171.43 15.5029 3
5 -3 4 170.353 17.8126 10
7 2 -4 415.804 35.814 9
-7 -2 4 380.302 27.8963 2
6 2 -4 42.7361 24.3733 6
6 2 -4 2.30966 19.5293 9
-6 -2 4 13.543 19.4001 2
5 2 -4 934.076 73.2973 6
5 2 -4 1013.76 68.944 9
-5 -2 4 1015.96 64.8995 2
4 2 -4 857.414 60.9278 6
-4 -2 4 697.068 59.221 2
-4 -2 4 900.771 75.4076 8
3 2 -4 1192.63 81.4703 2
3 2 -4 1308.37 84.2188 6
-3 -2 4 1360.74 88.2488 8
-3 -2 4 1109.74 78.6087 2
2 2 -4 1811.79 120.421 6
-2 -2 4 1920.25 121.412 8
1 2 -4 17.1454 33.0326 11
-1 -2 4 -23.001 26.335 11
-1 -2 4 17.8146 13.2204 8
0 2 -4 665.401 68.4536 11
0 -2 4 692.382 52.2669 7
1 -2 4 952.098 85.7826 7
1 -2 4 894.026 66.9435 5
-2 2 -4 116.213 24.8117 2
2 -2 4 104.65 20.0209 10
2 -2 4 110.548 26.8937 5
2 -2 4 108.916 23.3544 3
-3 2 -4 195.83 26.6144 2
3 -2 4 137.179 32.2423 7
3 -2 4 143.273 19.8716 3
3 -2 4 151.313 24.8038 10
4 -2 4 204.593 22.8148 10
4 -2 4 171.124 19.7264 3
-5 2 -4 382.459 34.945 2
5 -2 4 459.08 36.5345 9
5 -2 4 441.158 29.737 3
7 1 -4 152.428 31.1916 1
7 1 -4 146.959 18.4964 9
-7 -1 4 126.266 16.8814 2
6 1 -4 1277.14 86.1885 6
6 1 -4 1130.06 77.5029 9
-6 -1 4 1163.49 76.5438 2
5 1 -4 1328.93 90.5878 6
5 1 -4 1203.12 83.8351 9
-5 -1 4 1301.66 81.6624 2
-4 -1 4 208.042 22.9322 2
-4 -1 4 220.185 47.3425 8
3 1 -4 21.6607 21.1082 6
-3 -1 4 12.9009 20.5744 8
2 1 -4 -5.9837 20.1107 6
-2 -1 4 6.89618 15.921 8
1 1 -4 358.684 46.0823 6
1 1 -4 294.59 49.2874 11
-1 -1 4 365.837 32.7828 7
-1 -1 4 394.159 48.1438 11
-1 -1 4 389.791 30.5453 8
0 1 -4 287.36 47.2521 11
0 -1 4 320.518 35.4919 7
0 -1 4 334.062 26.8836 8
0 -1 4 335.891 48.6629 11
-1 1 -4 71.6033 19.9735 2
1 -1 4 58.1921 24.6417 7
-2 1 -4 884.603 59.573 2
2 -1 4 733.411 64.355 5
2 -1 4 1030.34 60.8065 3
2 -1 4 781.071 59.5873 10
2 -1 4 942.853 66.3662 7
-3 1 -4 111.535 21.0823 2
3 -1 4 111.401 22.9024 3
3 -1 4 126.996 31.7073 7
3 -1 4 154.954 22.9147 10
4 -1 4 617.051 54.8898 7
4 -1 4 661.68 48.1276 3
4 -1 4 737.178 48.5681 10
-5 1 -4 240.645 20.3331 2
5 -1 4 280.844 23.1513 3
5 -1 4 256.128 21.3489 9
7 0 -4 5.50879 12.6888 9
7 0 -4 8.62355 24.6189 1
6 0 -4 50.2113 37.15 1
6 0 -4 36.7186 17.642 9
-6 0 4 55.6363 23.8339 2
5 0 -4 250.824 51.5285 1
5 0 -4 311.537 35.9559 6
5 0 -4 270.573 28.379 9
4 0 -4 176.757 27.607 9
-4 0 4 213.669 27.5357 2
3 0 -4 994.296 131.853 1
3 0 -4 805.352 60.4728 6
-3 0 4 821.237 64.2817 8
-2 0 4 63.8232 20.6873 4
-2 0 4 83.6621 20.9819 8
-1 0 4 164.358 25.9948 4
-1 0 4 162.234 21.8714 8
-1 0 4 157.859 23.7408 7
0 0 -4 1336.3 96.6886 2
0 0 4 1548.41 139.124 11
0 0 4 1557.3 96.3605 2
0 0 4 1525.16 98.3795 8
0 0 4 1670.97 107.803 4
0 0 4 1506.93 99.4779 7
-1 0 -4 114.421 21.3176 2
1 0 4 102.157 20.0617 2
-2 0 -4 356.309 30.9825 2
2 0 4 364.626 38.6839 7
2 0 4 412.025 40.6417 10
-3 0 -4 168.746 20.9019 2
3 0 4 156.769 23.0939 10
3 0 4 179.832 39.8882 7
-4 0 -4 161.959 17.1784 2
-5 0 -4 0.3879 7.93646 2
5 0 4 8.28504 12.5095 9
7 -1 -4 10.2233 13.7653 9
7 -1 -4 27.4849 21.0839 1
6 -1 -4 102.08 19.6179 9
6 -1 -4 119.129 34.5296 1
5 -1 -4 124.057 23.7324 9
-4 1 4 -37.739 35.592 8
3 -1 -4 341.222 31.5615 9
-3 1 4 369.364 42.9696 4
-3 1 4 347.257 50.4644 8
-3 1 4 362.811 42.1447 2
2 -1 -4 32.2318 27.8969 9
-2 1 4 4.81343 19.5088 8
-2 1 4 1.49592 19.2108 4
1 -1 -4 341.692 42.8072 9
-1 1 4 426.201 32.0078 2
-1 1 4 318.973 38.0451 4
-1 1 4 354.819 37.8556 7
0 -1 -4 268.707 27.1479 9
0 -1 -4 234.215 24.149 2
0 1 4 189.498 29.1872 7
0 1 4 230.938 22.9043 2
0 1 4 211.545 36.4001 4
-1 -1 -4 354.99 27.5831 2
1 1 4 306.514 25.5281 2
1 1 4 272.576 48.7759 4
1 1 4 265.805 33.2006 7
-2 -1 -4 46.3114 16.3272 2
2 1 4 3.10208 23.3394 7
2 1 4 49.6209 19.8674 2
-3 -1 -4 45.5729 14.0669 2
3 1 4 47.4699 25.605 7
-4 -1 -4 21.5674 10.5716 2
7 -2 -4 160.936 17.1382 9
6 -2 -4 6.45579 37.7164 1
6 -2 -4 37.3781 20.4769 9
5 -2 -4 400.067 35.7705 9
5 -2 -4 476.451 49.7829 1
-4 2 4 65.7645 60.2417 8
3 -2 -4 17.502 20.0872 9
-3 2 4 32.9189 48.1946 2
-3 2 4 -12.846 39.7125 8
-2 2 4 164.875 27.4314 2
1 -2 -4 464.316 36.4963 9
-1 2 4 392.516 50.9788 4
-1 2 4 427.275 33.9022 2
-1 2 4 407.557 41.5747 7
0 -2 -4 235.533 23.4374 2
0 2 4 157.968 20.317 2
0 2 4 210.728 31.0261 7
-1 -2 -4 1239.18 79.2193 2
1 2 4 1247.16 79.5577 2
1 2 4 1299.15 85.6788 7
1 2 4 1116.54 111.849 4
-2 -2 -4 25.985 14.9884 2
2 2 4 17.0781 14.5944 2
-3 -2 -4 124.134 18.4798 2
3 2 4 146.696 30.3777 7
3 2 4 81.4288 23.111 2
-4 -2 -4 3.00885 7.28477 2
6 -3 -4 369.724 40.2158 1
6 -3 -4 378.71 29.2967 9
5 -3 -4 104.047 19.5292 9
4 -3 -4 120.412 19.52 9
3 -3 -4 98.2218 22.2988 9
-3 3 4 134.582 88.7901 4
-3 3 4 45.5018 29.6899 7
2 -3 -4 105.759 19.2253 9
-2 3 4 155.282 49.5803 2
-2 3 4 71.5072 59.5209 4
-2 3 4 84.6352 33.7624 7
1 -3 -4 388.203 33.417 9
1 -3 -4 400.919 84.9055 1
-1 3 4 369.333 32.4058 2
-1 3 4 322.208 72.6786 4
-1 3 4 427.775 47.2188 7
0 -3 -4 986.408 84.5805 1
0 3 4 777.201 66.9057 7
0 3 4 773.286 56.0951 2
-1 -3 -4 740.416 50.3325 2
1 3 4 710.022 72.7729 7
1 3 4 792.725 51.681 2
-2 -3 -4 31.8284 12.797 2
2 3 4 48.5091 30.9145 7
2 3 4 11.4908 13.4502 2
-3 -3 -4 12.1349 8.62533 2
6 -4 -4 72.6893 26.0854 1
5 -4 -4 176.352 20.2691 9
5 -4 -4 159.094 34.0991 1
4 -4 -4 93.9325 17.9826 9
3 -4 -4 204.165 24.3137 9
2 -4 -4 118.827 20.9654 9
-2 4 4 128.422 23.5114 2
1 -4 -4 28.6834 18.6056 9
-1 4 4 55.5131 18.3187 2
-1 -4 -4 42.0143 15.4266 2
1 4 4 56.4396 24.5673 6
1 4 4 37.4566 15.082 2
-2 -4 -4 5.55421 13.064 2
2 4 4 -18.054 9.76077 2
5 -5 -4 25.0569 27.6403 1
5 -5 -4 11.4217 12.4629 9
4 -5 -4 542.991 48.111 1
4 -5 -4 544.072 37.9471 9
3 -5 -4 254.965 43.7874 1
3 -5 -4 227.578 23.8991 9
2 -5 -4 50.7571 23.7551 9
-2 5 4 71.5593 19.6167 2
1 -5 -4 490.789 52.1509 1
-1 5 4 533.376 37.7883 2
0 5 4 250.497 22.4456 2
1 5 4 49.8839 26.736 6
4 -6 -4 422.787 36.3144 1
4 -6 -4 403.594 29.0464 9
3 -6 -4 35.631 22.5521 1
2 -6 -4 129.006 28.0257 1
-2 6 4 136.834 17.9801 2
-1 6 4 128.027 15.7646 2
0 6 4 46.2167 19.947 6
2 8 -5 128.304 15.4894 2
1 8 -5 18.8258 14.3824 2
-1 -8 5 -8.6875 11.5416 10
0 8 -5 210.389 20.6848 2
0 -8 5 158.867 16.6252 3
0 -8 5 211.027 17.9487 10
1 -8 5 32.4499 12.4722 10
1 -8 5 27.0428 10.0458 3
2 -8 5 46.4629 10.5294 10
4 7 -5 45.1835 10.6238 2
4 7 -5 42.1352 17.6082 6
3 7 -5 19.4846 24.0113 6
3 7 -5 8.56176 11.4522 2
2 7 -5 149.022 18.6849 2
2 7 -5 158.43 33.3837 6
-2 -7 5 150.753 29.0236 10
1 7 -5 153.334 36.8476 2
-1 -7 5 158.2 28.5513 10
0 7 -5 236.208 25.9039 2
0 -7 5 333.293 81.2982 5
0 -7 5 260.891 24.2005 10
-1 7 -5 -12.685 24.3036 2
1 -7 5 3.07407 12.2344 10
1 -7 5 2.36798 11.408 3
2 -7 5 -10.384 10.7678 3
2 -7 5 12.1137 10.494 10
3 -7 5 15.1567 10.6993 10
3 -7 5 9.09118 8.80726 3
5 6 -5 15.9515 16.3279 6
4 6 -5 11.5394 22.4781 6
4 6 -5 8.39816 12.6298 2
-4 -6 5 -2.9116 9.94051 2
3 6 -5 3.49968 15.161 2
3 6 -5 16.8068 24.5896 6
2 6 -5 321.563 27.7729 2
2 6 -5 247.878 36.8206 6
1 6 -5 108.012 20.473 2
-1 -6 5 -3.1142 51.0189 5
0 6 -5 527.417 40.3672 2
0 -6 5 491.675 35.9121 10
1 -6 5 42.8007 40.9151 5
1 -6 5 92.6591 18.3091 3
1 -6 5 119.207 18.5128 10
2 -6 5 12.5454 46.4731 5
2 -6 5 10.5389 18.6062 3
3 -6 5 122.778 15.4911 10
3 -6 5 135.251 14.4618 3
5 5 -5 41.7721 24.0912 2
5 5 -5 18.987 20.8575 6
-5 -5 5 4.26732 8.42255 2
4 5 -5 430.032 34.9794 2
4 5 -5 482.133 43.8035 6
-4 -5 5 464.749 32.3824 2
3 5 -5 339.178 30.9058 2
3 5 -5 424.714 41.7073 6
-3 -5 5 365.882 27.7692 2
2 5 -5 193.516 33.955 6
2 5 -5 182.171 25.3693 2
-2 -5 5 224.32 21.2142 2
0 5 -5 300.484 32.2355 2
0 -5 5 232.765 37.0022 5
0 -5 5 348.375 28.0837 10
-1 5 -5 152.659 29.2049 2
1 -5 5 125.976 18.4914 3
1 -5 5 172.055 26.8408 10
2 -5 5 287.485 24.926 3
2 -5 5 290.401 27.0401 10
2 -5 5 331.477 46.5364 5
3 -5 5 144.628 20.0011 10
3 -5 5 163.181 16.6121 3
4 -5 5 65.1414 11.1699 3
4 -5 5 90.4295 15.0041 10
6 4 -5 235.473 30.5976 6
-6 -4 5 268.469 19.9583 2
5 4 -5 -3.6838 20.8793 6
-5 -4 5 7.57542 12.6259 2
4 4 -5 788.888 68.2366 6
4 4 -5 836.069 57.6087 2
-4 -4 5 917.094 56.2196 2
3 4 -5 308.653 33.6593 6
3 4 -5 348.488 29.4651 2
-3 -4 5 335.067 75.5672 8
-3 -4 5 299.476 25.0774 2
2 4 -5 891.387 63.9292 6
2 4 -5 844.711 58.7272 2
-2 -4 5 801.594 62.9589 5
1 4 -5 563.494 42.6543 2
-1 -4 5 506.172 42.8827 5
-1 4 -5 324.775 34.3983 2
1 -4 5 320.877 27.463 3
1 -4 5 362.329 33.4481 10
-2 4 -5 419.261 36.1999 2
2 -4 5 329.922 44.2389 5
2 -4 5 306.86 27.5503 3
2 -4 5 343.052 30.6309 10
-3 4 -5 93.7892 42.9505 2
3 -4 5 30.904 53.7714 5
3 -4 5 42.2937 15.0838 3
4 -4 5 26.4737 12.9964 10
4 -4 5 13.5549 9.98351 3
6 3 -5 64.304 23.4977 6
-6 -3 5 64.1963 11.7636 2
5 3 -5 1505.75 103.559 6
-5 -3 5 1486.82 94.4109 2
4 3 -5 853.917 63.5257 2
4 3 -5 979.57 69.4468 6
-4 -3 5 995.153 61.5747 2
3 3 -5 264.311 29.9666 6
-3 -3 5 320.157 25.3972 2
-3 -3 5 213.059 48.9493 8
2 3 -5 8.45244 23.6946 6
2 3 -5 50.852 22.8599 2
-2 -3 5 -16.712 29.8963 8
-2 -3 5 8.22791 20.4336 5
-1 -3 5 78.7238 21.2704 2
0 3 -5 180.369 27.3566 2
0 -3 5 153.836 24.0891 5
0 -3 5 180.24 39.3579 7
1 -3 5 142.274 36.8328 7
1 -3 5 165.181 30.5944 5
1 -3 5 181.233 22.6092 3
-2 3 -5 72.1232 22.8992 2
2 -3 5 27.2307 21.1001 3
-3 3 -5 557.743 41.6859 2
3 -3 5 631.353 39.0159 3
3 -3 5 496.493 50.3188 7
3 -3 5 516.787 41.0778 10
3 -3 5 564.071 69.6122 5
-4 3 -5 45.6363 18.0436 2
4 -3 5 12.8719 14.5486 10
4 -3 5 42.739 13.4666 3
7 2 -5 42.1222 26.3461 1
-7 -2 5 21.4605 10.87 2
6 2 -5 9.5525 23.0597 6
-6 -2 5 -0.9285 12.6819 2
-5 -2 5 117.264 16.7684 2
4 2 -5 309.763 37.6492 6
-4 -2 5 354.953 26.7761 2
3 2 -5 167.761 30.5392 6
3 2 -5 184.562 24.4746 2
-3 -2 5 157.531 18.2589 2
-3 -2 5 172.029 28.9548 5
-3 -2 5 114.435 33.7243 8
2 2 -5 617.042 46.1849 2
-2 -2 5 664.332 53.8556 8
-2 -2 5 630.006 43.7501 2
1 2 -5 124.868 24.0744 2
-1 -2 5 119.653 20.1121 2
-1 -2 5 80.6379 24.8047 7
0 2 -5 109.216 22.7062 2
0 -2 5 103.616 26.668 7
-1 2 -5 626.534 48.6608 2
1 -2 5 617.703 53.9949 5
1 -2 5 789.413 56.1523 7
2 -2 5 22.0093 31.373 7
2 -2 5 52.3486 23.1517 10
-3 2 -5 459.063 35.8342 2
3 -2 5 508.257 36.6777 10
3 -2 5 520.117 47.956 7
3 -2 5 450.331 35.449 3
-4 2 -5 102.965 15.6026 2
4 -2 5 89.9499 15.07 3
4 -2 5 92.1029 17.0722 10
7 1 -5 10.0441 21.7894 1
7 1 -5 26.2758 17.2757 9
6 1 -5 4.11928 20.0991 9
6 1 -5 -12.528 21.6723 6
-6 -1 5 4.34858 16.4667 2
5 1 -5 130.956 29.8216 6
-5 -1 5 157.268 18.3537 2
4 1 -5 45.9345 23.7812 6
-4 -1 5 -38.036 51.2663 8
-4 -1 5 74.827 16.1535 2
2 1 -5 256.879 27.6781 2
2 1 -5 228.457 51.3123 6
-2 -1 5 253.255 23.7341 2
-2 -1 5 176.305 30.3689 8
-1 -1 5 19.9046 20.8889 8
-1 -1 5 46.3571 23.9321 7
-1 -1 5 48.5092 19.685 2
0 1 -5 141.237 20.4082 2
0 -1 5 169.294 22.1858 2
0 -1 5 97.2711 27.2335 7
-1 1 -5 157.762 24.3489 2
1 -1 5 225.537 24.2201 2
1 -1 5 190.976 31.469 7
-2 1 -5 157.326 21.1134 2
2 -1 5 166.135 35.2418 7
2 -1 5 180.262 37.2138 5
-3 1 -5 86.2783 17.1871 2
3 -1 5 27.8222 25.7764 7
3 -1 5 63.6429 18.4533 10
-4 1 -5 47.0933 12.3285 2
7 0 -5 -8.2356 19.3952 1
7 0 -5 11.8226 13.0906 9
6 0 -5 270.268 32.6943 9
-6 0 5 232.473 24.0562 2
5 0 -5 58.2975 21.9136 9
-5 0 5 72.7896 19.9189 2
4 0 -5 832.129 79.9534 1
4 0 -5 767.055 55.9072 9
-4 0 5 777.49 51.9927 2
-4 0 5 616.062 80.0457 8
3 0 -5 264.208 32.1112 9
2 0 -5 67.1368 35.1982 9
-2 0 5 14.0245 25.8305 8
-2 0 5 40.1833 19.7684 2
1 0 -5 58.2828 20.3397 2
-1 0 5 11.5967 20.8727 7
-1 0 5 2.29355 23.9886 8
-1 0 5 44.9822 19.0431 2
0 0 -5 243.983 23.6448 2
0 0 5 208.061 22.0045 2
0 0 5 216.709 31.422 7
-1 0 -5 277.664 25.8708 2
1 0 5 315.559 35.9151 7
1 0 5 250.548 24.9261 2
-2 0 -5 809.646 53.3024 2
2 0 5 790.753 63.4424 7
2 0 5 772.213 55.8428 2
3 0 5 8.10176 24.4219 7
-4 0 -5 89.7321 11.9174 2
7 -1 -5 87.1572 25.1635 1
7 -1 -5 81.6621 14.2074 9
6 -1 -5 39.2793 41.0085 1
6 -1 -5 -3.3616 14.2508 9
5 -1 -5 682.815 62.3622 1
5 -1 -5 795.484 52.141 9
-5 1 5 756.931 52.2523 2
4 -1 -5 192.04 25.7703 9
-4 1 5 252.814 26.244 2
3 -1 -5 304.226 51.0831 9
-3 1 5 281.75 28.0098 2
-2 1 5 60.8236 24.2483 7
-2 1 5 65.2584 20.0073 2
-2 1 5 15.1014 34.7172 4
-2 1 5 32.3096 35.8143 8
1 -1 -5 193.914 24.3813 2
1 -1 -5 163.779 24.938 9
-1 1 5 157.075 29.2093 7
-1 1 5 89.26 40.2467 8
-1 1 5 99.1669 37.9704 4
-1 1 5 142.666 19.5368 2
0 -1 -5 260.435 24.2156 2
0 1 5 270.874 59.7426 4
0 1 5 224.186 32.8764 7
0 1 5 265.076 24.0882 2
-1 -1 -5 923.011 63.1192 2
1 1 5 989.558 63.0772 2
1 1 5 949.286 70.9345 7
-2 -1 -5 582.74 40.6663 2
2 1 5 535.011 41.0042 2
2 1 5 634.423 52.4261 7
-3 -1 -5 61.0169 11.9245 2
3 1 5 9.0671 23.4284 7
7 -2 -5 35.451 21.8058 1
7 -2 -5 -4.0014 9.74791 9
6 -2 -5 80.4451 15.2916 9
5 -2 -5 132.405 20.8862 9
5 -2 -5 146.661 38.8356 1
4 -2 -5 284.47 29.2249 9
4 -2 -5 306.82 51.6865 1
-4 2 5 345.532 31.7948 2
3 -2 -5 139.906 23.4657 9
-3 2 5 119.985 26.7008 7
-3 2 5 133.026 84.8918 4
2 -2 -5 460.325 34.4418 9
-2 2 5 439.55 34.2373 2
-2 2 5 444.323 41.2763 7
-2 2 5 428.981 83.2029 4
-1 2 5 37.631 89.4783 4
-1 2 5 71.0032 27.0281 7
-1 2 5 85.3474 20.2406 2
0 2 5 29.029 15.1081 2
0 2 5 8.80277 27.0578 7
-1 -2 -5 68.3118 16.3026 2
1 2 5 76.3583 16.7774 2
1 2 5 126.021 34.9071 7
-2 -2 -5 89.4943 16.4621 2
2 2 5 55.3298 25.3808 7
2 2 5 80.2938 13.8005 2
-3 -2 -5 6.43575 7.36944 2
6 -3 -5 288.548 23.8787 9
6 -3 -5 274.366 33.0298 1
5 -3 -5 1193.27 76.2464 9
5 -3 -5 979.278 83.517 1
-5 3 5 1193 79.0587 7
4 -3 -5 149.237 21.7639 9
4 -3 -5 224.319 44.7583 1
3 -3 -5 1048.67 91.2575 1
3 -3 -5 1334.96 79.4555 9
-3 3 5 1237.17 78.6325 2
2 -3 -5 135.849 22.241 9
-2 3 5 166.447 21.6119 2
-2 3 5 149.522 37.9397 7
-1 3 5 196.666 21.4567 2
-1 3 5 190.614 57.057 7
0 -3 -5 439.676 33.1098 2
0 3 5 426.766 32.8023 2
-1 -3 -5 92.8689 13.6828 2
1 3 5 98.7128 31.9115 7
1 3 5 75.2137 22.6571 2
-2 -3 -5 48.4397 9.6697 2
2 3 5 17.0727 37.6715 7
2 3 5 37.3014 11.2806 2
6 -4 -5 23.595 21.5571 1
6 -4 -5 11.1526 9.75977 9
5 -4 -5 33.4047 25.3429 1
5 -4 -5 22.0298 13.8428 9
4 -4 -5 227.024 39.5467 1
4 -4 -5 275.763 23.9926 9
3 -4 -5 435.317 35.2261 9
-3 4 5 412.061 33.4464 2
2 -4 -5 103.738 19.6077 9
-2 4 5 116.656 21.9837 2
-1 4 5 115.08 21.5717 2
0 4 5 123.429 16.5364 2
1 4 5 4.57438 9.31234 2
4 -5 -5 225.698 20.8219 9
4 -5 -5 269.988 33.1409 1
3 -5 -5 26.4234 12.819 9
-3 5 5 34.8147 19.0815 2
2 -5 -5 -2.0691 34.478 1
-2 5 5 15.2875 13.8836 2
-1 5 5 0.18587 11.3096 2
0 5 5 55.7225 31.1003 6
0 5 5 20.0398 9.09932 2
2 8 -6 11.6868 9.60831 2
1 8 -6 102.711 15.5627 2
-1 -8 6 135.162 13.4675 3
0 8 -6 62.5244 17.6398 2
0 -8 6 81.0097 17.5921 10
1 -8 6 222.828 18.9516 10
4 7 -6 13.1283 28.475 6
4 7 -6 5.81781 10.1567 2
3 7 -6 355.08 50.5623 6
3 7 -6 406.465 29.1399 2
2 7 -6 252.974 22.546 2
1 7 -6 21.8597 13.3076 2
0 7 -6 18.8469 14.9432 2
0 -7 6 35.4685 13.0099 3
0 -7 6 26.0989 16.5 10
1 -7 6 65.8982 13.2793 3
1 -7 6 69.891 14.8771 10
2 -7 6 34.7906 12.0436 10
2 -7 6 31.9048 10.5179 3
5 6 -6 176.616 27.9637 6
-5 -6 6 243.752 16.6232 2
4 6 -6 46.7504 21.5972 6
4 6 -6 75.7476 13.4428 2
-4 -6 6 65.0938 10.6247 2
3 6 -6 485.488 38.3498 2
3 6 -6 474.471 45.0183 6
2 6 -6 90.0972 20.6751 2
1 6 -6 327.269 27.9945 2
-1 -6 6 315.5 68.5201 5
0 6 -6 133.488 21.5222 2
0 -6 6 185.118 47.7022 5
0 -6 6 212.219 29.9975 10
-1 6 -6 3.36243 17.6395 2
1 -6 6 13.0822 16.9733 10
1 -6 6 32.2642 20.9461 3
1 -6 6 -43.308 49.5089 5
-2 6 -6 88.5572 22.9697 2
2 -6 6 89.8267 15.4159 10
2 -6 6 99.1151 12.626 3
3 -6 6 107.983 14.9984 10
3 -6 6 104.773 12.1869 3
5 5 -6 22.4026 22.7164 6
-5 -5 6 10.6942 8.39677 2
4 5 -6 1142.33 78.3421 2
4 5 -6 1224.68 84.7312 6
3 5 -6 496.588 44.3135 6
3 5 -6 488.868 35.672 2
-3 -5 6 419.836 32.8693 2
2 5 -6 228.23 24.0016 2
2 5 -6 199.237 40.2275 6
-2 -5 6 214.524 25.0978 2
1 5 -6 63.0402 19.5378 2
-1 -5 6 -3.9892 36.4955 5
1 -5 6 98.6911 15.9102 3
1 -5 6 74.2106 45.4894 5
-2 5 -6 50.6233 19.7647 2
2 -5 6 16.6237 51.5702 5
2 -5 6 39.6165 13.3923 3
2 -5 6 75.6288 18.2337 10
3 -5 6 23.8179 12.8045 10
3 -5 6 8.17576 11.2453 3
6 4 -6 63.7273 29.7826 1
-6 -4 6 41.3432 9.56931 2
5 4 -6 7.95985 21.2564 6
-5 -4 6 6.24484 9.85634 2
4 4 -6 107.777 25.3939 6
4 4 -6 148.727 20.5388 2
-4 -4 6 113.751 15.4593 2
3 4 -6 285.877 36.5528 6
3 4 -6 288.409 27.7458 2
-3 -4 6 296.93 38.908 7
-3 -4 6 318.174 23.9163 2
2 4 -6 236.198 42.4169 6
2 4 -6 176.872 23.0235 2
-2 -4 6 109.691 32.1417 5
-2 -4 6 186.858 18.314 2
-2 -4 6 131.873 37.8244 7
1 4 -6 253.57 25.9306 2
-1 -4 6 175.938 31.4652 5
-1 -4 6 300.659 62.5234 7
0 -4 6 54.6529 20.9771 3
0 -4 6 119.261 71.9907 7
1 -4 6 84.9209 61.1227 7
1 -4 6 116.827 19.0257 3
-2 4 -6 233.647 26.7498 2
2 -4 6 229.621 53.0513 5
2 -4 6 243.749 27.3686 10
2 -4 6 255.554 22.122 3
-3 4 -6 32.8214 18.2983 2
3 -4 6 24.4785 13.2091 3
6 3 -6 24.665 31.5598 1
6 3 -6 0.11227 21.8669 6
-6 -3 6 4.35217 9.29507 2
5 3 -6 54.2467 23.4049 6
-5 -3 6 35.6084 13.5982 2
4 3 -6 167.347 31.5587 6
4 3 -6 153.292 22.4718 2
-4 -3 6 131.97 17.1235 2
3 3 -6 34.1934 26.9346 6
3 3 -6 45.237 19.9497 2
-3 -3 6 6.04523 14.6914 2
2 3 -6 342.274 29.1082 2
-2 -3 6 313.153 25.4015 2
-2 -3 6 297.096 33.3634 7
-2 -3 6 326.602 36.5691 5
1 3 -6 124.535 22.8967 2
-1 -3 6 70.8929 29.3863 7
0 -3 6 176.146 42.6616 3
-1 3 -6 54.5833 19.2418 2
1 -3 6 67.7428 24.7861 3
1 -3 6 12.9834 32.76 7
1 -3 6 8.52047 26.5029 5
-2 3 -6 96.3813 19.2253 2
2 -3 6 41.5874 30.5226 7
2 -3 6 56.7589 35.7874 5
-3 3 -6 98.2791 16.434 2
3 -3 6 114.862 18.8004 10
3 -3 6 47.2157 22.4405 3
6 2 -6 39.1689 30.2177 1
6 2 -6 30.0023 21.1193 6
-6 -2 6 18.3974 11.0472 2
5 2 -6 226.955 30.9888 6
-5 -2 6 243.217 20.592 2
3 2 -6 795.646 56.3039 2
3 2 -6 844.391 62.3006 6
-3 -2 6 764.168 85.0516 8
-3 -2 6 857.268 54.5077 2
2 2 -6 118.904 22.537 2
-2 -2 6 113.29 23.1594 7
-1 -2 6 29.7525 16.8499 2
-1 -2 6 31.0679 23.4116 7
0 2 -6 24.2425 18.155 2
0 -2 6 33.3449 31.0925 7
-2 2 -6 208.708 21.5242 2
2 -2 6 189.719 33.0224 7
-3 2 -6 330.697 24.0963 2
3 -2 6 245.081 26.5443 10
7 1 -6 30.4792 20.8425 1
-7 -1 6 49.9923 15.5067 2
6 1 -6 119.535 34.4771 1
-6 -1 6 103.233 15.0117 2
4 1 -6 1238.75 98.5512 1
-4 -1 6 1049.95 72.5947 2
-3 -1 6 18.5912 47.2257 8
2 1 -6 169.224 29.5017 2
-2 -1 6 210.122 21.5023 2
-2 -1 6 255.511 29.1142 7
1 1 -6 37.7421 17.8239 2
-1 -1 6 25.4642 24.2995 7
-1 -1 6 26.3173 16.5502 2
0 1 -6 159.492 21.1275 2
0 -1 6 144.39 20.15 2
0 -1 6 163.591 34.0528 7
-1 1 -6 63.1835 17.697 2
1 -1 6 47.1979 27.9147 5
1 -1 6 79.6557 31.5301 7
-2 1 -6 750.187 54.7329 2
2 -1 6 844.034 78.8429 5
2 -1 6 895.962 67.9545 7
-3 1 -6 234.607 19.7276 2
7 0 -6 30.5299 28.2608 9
6 0 -6 42.7372 17.817 9
6 0 -6 22.5485 25.4688 1
-6 0 6 -4.9111 13.4583 2
-5 0 6 127.613 17.3404 2
4 0 -6 304.758 33.2732 9
-4 0 6 282.646 25.435 2
3 0 -6 392.205 35.9391 9
-3 0 6 281.993 31.2211 7
-3 0 6 300.634 26.1446 2
2 0 -6 229.849 25.8534 2
-2 0 6 214.316 21.4974 2
-2 0 6 160.783 31.0958 7
1 0 -6 503.409 38.6098 2
-1 0 6 541.897 38.4806 2
-1 0 6 537.297 46.1016 7
0 0 -6 8.27639 17.7489 2
0 0 6 34.3229 16.5931 2
0 0 6 52.4927 29.8929 7
-1 0 -6 98.8021 17.8237 2
1 0 6 117.39 20.0782 2
1 0 6 130.165 35.3704 7
-2 0 -6 62.3961 19.5671 2
2 0 6 8.75489 27.3408 7
-3 0 -6 28.9469 9.91611 2
3 0 6 17.6269 23.2345 7
6 -1 -6 80.5944 26.9246 1
6 -1 -6 80.8204 16.682 9
-6 1 6 83.6523 18.4436 2
5 -1 -6 469.064 53.6413 1
5 -1 -6 433.068 35.9126 9
-5 1 6 452.872 36.5315 2
4 -1 -6 1450.29 111.814 1
4 -1 -6 1591.34 96.6295 9
-4 1 6 1491.63 95.56 2
3 -1 -6 382.501 31.6443 9
-3 1 6 327.056 36.3929 7
-3 1 6 315.257 27.6857 2
2 -1 -6 1775.44 117.433 9
-2 1 6 1840.87 116.923 2
-2 1 6 1977.19 124.392 7
1 -1 -6 73.4978 19.3342 2
-1 1 6 17.9351 27.1601 7
-1 1 6 34.5969 17.6949 2
0 -1 -6 247.321 23.4797 2
0 1 6 258.657 23.4865 2
-1 -1 -6 184.818 19.427 2
1 1 6 192.481 20.5825 2
1 1 6 193.955 32.7215 7
-2 -1 -6 17.3321 10.2167 2
2 1 6 47.2572 25.1336 7
-3 -1 -6 20.6584 7.93746 2
6 -2 -6 38.2929 28.2866 1
6 -2 -6 14.0118 13.2042 9
-6 2 6 -21.794 32.0865 7
5 -2 -6 58.579 34.8868 1
5 -2 -6 21.5113 15.7469 9
-5 2 6 2.28339 17.8786 2
-5 2 6 -5.9527 20.3368 7
4 -2 -6 79.1475 18.7701 9
4 -2 -6 98.2276 49.2082 1
-4 2 6 95.1838 18.8639 2
-4 2 6 55.3062 24.0995 7
3 -2 -6 319.839 28.1988 9
-3 2 6 299.434 36.9037 7
-3 2 6 352.135 27.1595 2
2 -2 -6 339.236 28.5427 9
-2 2 6 341.776 28.0045 2
-2 2 6 328.193 52.5067 7
-1 2 6 130.91 18.8386 2
0 -2 -6 141.326 17.3994 2
0 2 6 103.37 16.9418 2
0 2 6 95.5276 29.8899 7
-1 -2 -6 67.3853 12.6302 2
1 2 6 99.6848 31.7706 7
1 2 6 89.0621 13.8329 2
-2 -2 -6 21.1625 8.43169 2
2 2 6 34.4331 24.6844 7
6 -3 -6 27.2464 10.0774 9
6 -3 -6 68.3275 26.6354 1
5 -3 -6 90.6143 16.0612 9
-5 3 6 82.6034 40.5326 7
4 -3 -6 96.2596 40.7878 1
4 -3 -6 56.8593 15.6061 9
-4 3 6 49.7322 17.545 2
-4 3 6 32.8774 32.5489 7
3 -3 -6 187.271 30.8391 9
3 -3 -6 239.583 54.5132 1
-3 3 6 209.79 25.4916 2
-3 3 6 210.338 39.6336 7
2 -3 -6 39.4023 18.2906 9
-2 3 6 50.6064 36.5683 7
-2 3 6 54.729 19.0227 2
-1 3 6 33.2736 35.0145 7
-1 3 6 41.279 18.8898 2
0 3 6 0.72785 10.4745 2
0 3 6 3.31508 35.1874 7
5 -4 -6 77.5921 12.0986 9
4 -4 -6 303.444 36.826 1
4 -4 -6 269.2 23.5657 9
3 -4 -6 67.4639 15.3307 9
-2 4 6 130.576 15.3057 2
-1 4 6 23.6893 10.2922 2
0 4 6 153.172 15.2947 2
3 7 -7 637.866 42.6805 2
2 7 -7 163.831 16.9154 2
1 7 -7 112.901 15.2961 2
-1 -7 7 88.6104 12.0409 3
0 7 -7 -7.9653 12.3294 2
0 -7 7 25.6343 9.77443 3
-1 7 -7 -0.1213 12.989 2
1 -7 7 8.76294 9.42247 3
4 6 -7 30.545 28.6691 6
4 6 -7 25.9163 9.74741 2
3 6 -7 101.986 15.2099 2
2 6 -7 189.641 20.8098 2
1 6 -7 130.067 17.5423 2
0 6 -7 43.8651 14.0406 2
0 -6 7 35.5907 10.5578 3
-1 6 -7 6.02806 13.9725 2
1 -6 7 4.20194 10.1188 3
-2 6 -7 15.6997 17.0981 2
2 -6 7 43.591 16.7391 3
5 5 -7 33.5702 24.2462 6
4 5 -7 33.6817 12.3896 2
4 5 -7 16.1743 25.3465 6
-4 -5 7 21.6088 10.2642 2
3 5 -7 86.485 22.0975 2
-3 -5 7 109.591 19.9335 2
-2 -5 7 145.479 20.3253 2
-1 -5 7 67.359 52.0272 5
0 -5 7 -1.7598 19.7477 3
0 -5 7 32.4653 50.6164 5
-1 5 -7 3.47076 15.1066 2
1 -5 7 42.0445 13.3738 3
-2 5 -7 9.45823 14.8972 2
2 -5 7 3.9056 13.5879 3
2 -5 7 10.3315 25.3969 10
-6 -4 7 5.36321 8.362 2
5 4 -7 -20.712 22.0036 6
-5 -4 7 18.8633 9.35413 2
4 4 -7 132.316 21.8778 2
4 4 -7 95.5766 26.9748 6
-4 -4 7 162.646 16.9498 2
-4 -4 7 169.011 37.6603 7
3 4 -7 22.6089 16.9862 2
3 4 -7 -16.12 34.9911 6
-3 -4 7 -6.0045 32.0621 7
-3 -4 7 19.8518 11.8809 2
2 4 -7 638.532 46.1997 2
-2 -4 7 657.598 43.3502 2
1 4 -7 145.594 20.6867 2
-1 -4 7 140.935 60.5101 7
0 -4 7 79.3919 23.3805 3
0 -4 7 16.7279 37.9631 7
0 -4 7 19.9003 32.8739 5
1 -4 7 41.2386 20.3242 3
1 -4 7 -13.692 33.9695 5
-2 4 -7 10.1628 14.5182 2
2 -4 7 14.888 30.7536 10
-6 -3 7 4.88437 8.15369 2
5 3 -7 60.873 24.1468 6
-5 -3 7 110.111 13.5035 2
4 3 -7 50.0267 27.0641 6
-4 -3 7 36.6059 22.3933 7
-4 -3 7 36.2563 12.0685 2
3 3 -7 938.772 59.6904 2
-3 -3 7 838.149 57.4804 2
2 3 -7 110.699 19.3476 2
-2 -3 7 127.212 28.0613 7
-2 -3 7 86.1543 32.5655 5
-2 -3 7 133.817 16.1974 2
-1 -3 7 144.285 31.2493 7
-1 -3 7 116.889 17.7379 2
-1 -3 7 66.5884 28.5976 5
0 3 -7 56.118 17.1636 2
0 -3 7 35.9399 26.6411 7
0 -3 7 15.5219 36.1913 5
-1 3 -7 143.763 18.748 2
1 -3 7 109.282 32.2565 7
-2 3 -7 3.51344 12.1929 2
2 -3 7 3.12719 25.4451 7
-3 3 -7 406.153 28.1693 2
6 2 -7 63.1022 31.6432 1
5 2 -7 4.00688 58.9261 1
-5 -2 7 35.3771 16.1678 2
-4 -2 7 104.645 17.7618 2
3 2 -7 191.285 22.9711 2
-3 -2 7 158.281 49.9133 5
-3 -2 7 176.557 18.1462 2
-3 -2 7 197.773 29.3269 7
2 2 -7 267.858 24.6103 2
-2 -2 7 237.655 22.178 2
-2 -2 7 236.479 31.5567 7
1 2 -7 222.795 22.7648 2
-1 -2 7 203.358 33.1983 7
-1 -2 7 230.722 21.1013 2
0 2 -7 362.746 31.0049 2
0 -2 7 349.616 41.8467 7
0 -2 7 385.201 54.272 5
0 -2 7 417.814 36.3631 2
-1 2 -7 32.2642 15.2822 2
1 -2 7 -20.09 29.6357 7
1 -2 7 9.52511 41.5037 5
-2 2 -7 80.5494 13.5569 2
2 -2 7 88.2189 26.3242 7
6 1 -7 30.158 32.9917 1
-6 -1 7 4.3225 10.5248 2
5 1 -7 177.085 53.7031 1
-4 -1 7 621.205 48.7127 7
-4 -1 7 584.268 41.4221 2
3 1 -7 1130.17 81.0952 2
-3 -1 7 1049.58 82.3236 7
-3 -1 7 1275 74.5088 2
2 1 -7 605.466 45.2422 2
-2 -1 7 621.297 44.0408 2
-2 -1 7 707.261 52.2066 7
1 1 -7 1530.62 103.05 2
-1 -1 7 1635.87 102.906 2
-1 -1 7 1719.14 111.498 7
0 1 -7 37.403 16.8069 2
0 -1 7 60.9839 29.0903 7
0 -1 7 39.7535 14.5211 2
-1 1 -7 134.596 21.8119 2
1 -1 7 100.435 45.8477 5
-2 1 -7 24.2467 10.9712 2
2 -1 7 58.6726 25.0481 7
5 0 -7 4.5084 27.0587 9
-5 0 7 12.7615 19.4969 7
-4 0 7 38.5595 22.006 7
-4 0 7 51.3498 13.6963 2
-3 0 7 121.931 27.119 7
-3 0 7 110.172 16.5241 2
2 0 -7 305.404 38.054 2
-2 0 7 246.918 22.7435 2
-2 0 7 281.806 37.3972 7
1 0 -7 132.108 18.9053 2
-1 0 7 116.027 16.4935 2
-1 0 7 93.1287 31.5647 7
0 0 -7 144.087 17.5069 2
0 0 7 112.951 17.3239 2
0 0 7 164.402 32.6464 7
-1 0 -7 66.7184 14.108 2
1 0 7 98.0984 31.2528 7
-2 0 -7 24.7439 10.1702 2
2 0 7 11.3272 26.7925 7
6 -1 -7 73.9982 16.5426 9
6 -1 -7 34.9109 36.598 1
-6 1 7 51.9641 23.1182 2
-6 1 7 34.5137 19.7131 7
5 -1 -7 3.89554 16.7345 9
5 -1 -7 84.6592 45.8439 1
-5 1 7 29.3989 12.1706 2
-5 1 7 2.20209 21.8636 7
4 -1 -7 11.991 20.0305 9
-4 1 7 11.6177 21.5174 2
-3 1 7 95.9189 14.6591 2
-3 1 7 59.0279 24.7168 7
-2 1 7 199.714 20.7579 2
-2 1 7 202.737 31.4389 7
-1 1 7 57.1746 15.2715 2
-1 1 7 68.5552 29.9616 7
0 1 7 36.794 28.639 7
0 1 7 58.6489 13.378 2
-1 -1 -7 8.04411 9.35449 2
1 1 7 -9.185 27.1667 7
1 1 7 10.5155 20.9096 2
5 -2 -7 140.386 17.8509 9
-5 2 7 166.92 17.842 2
-4 2 7 104.835 27.7511 7
-4 2 7 91.9296 15.3949 2
3 -2 -7 396.909 34.2747 9
-3 2 7 493.039 43.3743 7
-3 2 7 510.696 33.725 2
-2 2 7 16.2542 12.292 2
-2 2 7 28.2794 29.6181 7
-1 2 7 160.534 16.7889 2
-1 2 7 141.75 33.2902 7
0 2 7 104.915 13.6626 2
0 2 7 148.777 31.8091 7
1 2 7 73.3771 23.3411 7
5 -3 -7 10.0249 10.8672 9
4 -3 -7 -1.0792 12.024 9
-4 3 7 0.48568 10.86 2
-3 3 7 42.8336 11.4756 2
-2 3 7 8.49767 10.3265 2
-1 3 7 15.1607 10.3287 2
3 6 -8 53.1215 10.9379 2
2 6 -8 8.8294 10.7594 2
-2 -6 8 2.97294 12.5985 3
-1 -6 8 299.187 22.3 3
0 6 -8 67.0639 12.0343 2
0 -6 8 71.9311 12.2333 3
-4 -5 8 68.4132 10.4034 2
3 5 -8 65.3382 12.7332 2
-2 -5 8 478.274 37.3438 3
0 5 -8 61.5792 12.4719 2
-1 5 -8 76.7919 12.768 2
-5 -4 8 23.333 8.90267 2
-4 -4 8 -56.24 65.4636 7
-4 -4 8 -11.362 9.03959 2
-3 -4 8 64.6372 32.7365 7
-3 -4 8 23.904 9.92862 2
-2 -4 8 108.636 37.4558 7
-2 -4 8 46.954 11.6935 2
1 4 -8 191.658 21.3517 2
-1 -4 8 116.304 53.1408 5
-1 -4 8 183.062 40.9682 7
0 4 -8 183.852 18.8328 2
-1 4 -8 99.1646 14.2472 2
-5 -3 8 14.831 9.42671 2
-5 -3 8 -4.8977 28.4771 7
-4 -3 8 41.0991 10.3778 2
-4 -3 8 50.0042 22.1421 7
3 3 -8 358.376 32.9246 2
-3 -3 8 362.686 32.4426 2
-3 -3 8 389.635 34.4829 7
2 3 -8 653.406 42.221 2
-2 -3 8 453.93 75.868 5
-2 -3 8 604.271 47.1405 7
-2 -3 8 561.132 39.7673 2
1 3 -8 637.089 49.0638 2
-1 -3 8 724.305 73.7759 5
-1 -3 8 655.627 52.5342 7
0 3 -8 895.259 58.8721 2
0 -3 8 878.981 65.0354 7
-1 3 -8 -10.997 10.8318 2
1 -3 8 36.098 30.0023 7
-6 -2 8 37.9106 8.97715 2
-6 -2 8 73.3877 19.3348 7
-5 -2 8 1.42702 18.1715 7
-5 -2 8 -8.1279 8.84824 2
-4 -2 8 37.112 12.7803 2
-4 -2 8 13.8409 21.441 7
3 2 -8 43.4473 24.9006 2
-3 -2 8 -4.3703 19.6557 7
-3 -2 8 22.9771 12.0022 2
2 2 -8 154.532 18.885 2
-2 -2 8 230.528 51.9396 5
-2 -2 8 124.597 25.0801 7
-2 -2 8 140.277 15.9328 2
1 2 -8 108.401 21.9357 2
-1 -2 8 93.8749 19.0936 2
-1 -2 8 99.2732 28.9133 7
0 2 -8 17.7021 11.9452 2
0 -2 8 25.779 22.6495 7
-1 2 -8 54.7189 11.9252 2
1 -2 8 36.5607 25.3567 7
-6 -1 8 18.9101 19.0302 7
-6 -1 8 22.785 9.10079 2
-5 -1 8 82.2712 23.399 7
-4 -1 8 5.53299 11.1494 2
-4 -1 8 9.57316 22.3381 7
-3 -1 8 9.12314 16.4928 2
-3 -1 8 -9.1856 19.7722 7
2 1 -8 15.0363 26.6837 2
-2 -1 8 34.4795 24.0954 7
-2 -1 8 53.8955 15.4106 2
1 1 -8 86.3947 14.8634 2
-1 -1 8 127.388 28.9769 7
-1 -1 8 31.5261 40.9931 5
-1 -1 8 80.6174 13.3482 2
0 1 -8 61.85 12.6196 2
0 -1 8 59.1596 26.2835 7
-1 1 -8 12.7446 8.8682 2
1 -1 8 6.09845 27.0705 7
-5 0 8 59.2249 11.2422 2
-5 0 8 15.2925 20.4816 7
-4 0 8 145.365 26.8776 7
-4 0 8 139.272 14.7516 2
-3 0 8 16.6325 10.804 2
-3 0 8 13.776 21.9967 7
-2 0 8 491.403 43.124 7
-2 0 8 357.269 29.4761 2
1 0 -8 -2.3711 12.3198 2
-1 0 8 10.1219 10.3482 2
-1 0 8 23.8181 23.5382 7
0 0 -8 84.3249 11.9553 2
0 0 8 51.0089 29.2014 7
0 0 8 84.165 13.1941 2
-5 1 8 24.814 20.4985 7
-5 1 8 56.814 11.575 2
-4 1 8 -7.1998 19.9144 7
-4 1 8 10.6962 9.74988 2
-3 1 8 10.4192 10.2205 2
-3 1 8 14.5599 23.2656 7
-2 1 8 39.6569 10.8153 2
-2 1 8 57.2102 25.6231 7
-1 1 8 2.5168 24.4592 7
-1 1 8 8.61199 9.74127 2
0 1 8 12.3237 11.2671 2
0 1 8 -0.3409 24.0551 7
-4 2 8 47.3289 29.6492 7
-3 2 8 58.3126 29.1269 7
-3 2 8 27.1148 10.0904 2
-2 2 8 200.708 16.5614 2
-2 2 8 131.805 32.4732 7
-1 2 8 -30.001 31.7871 7
3 5 -9 -10.104 9.16677 2
2 5 -9 237.48 19.2721 2
1 5 -9 135.944 13.3674 2
-4 -4 9 -0.9527 7.52527 2
3 4 -9 8.55698 11.0888 2
-3 -4 9 24.8261 8.35479 2
2 4 -9 6.51838 10.4324 2
1 4 -9 78.3195 12.0699 2
0 4 -9 17.7283 9.2826 2
-4 -3 9 23.3921 23.008 7
-4 -3 9 33.731 8.16195 2
3 3 -9 125.579 26.1359 2
-3 -3 9 69.9353 10.0682 2
-3 -3 9 108.905 33.3678 7
2 3 -9 15.9902 10.6612 2
-2 -3 9 2.65234 9.71939 2
-2 -3 9 19.4471 23.7959 7
1 3 -9 -10.716 10.2586 2
-1 -3 9 27.0238 29.2414 7
0 3 -9 32.0376 9.45408 2
-5 -2 9 3.7208 17.5192 7
-5 -2 9 39.7796 8.644 2
-4 -2 9 26.2124 8.51883 2
-4 -2 9 40.7188 34.6724 7
-3 -2 9 21.7727 9.16778 2
-3 -2 9 47.1973 22.2546 7
2 2 -9 29.7787 11.8198 2
-2 -2 9 13.3987 21.7507 7
-2 -2 9 5.33143 8.28459 2
1 2 -9 203.779 17.9976 2
-1 -2 9 234.419 31.2465 7
0 -2 9 1.03721 20.7262 7
-4 -1 9 21.8669 8.2135 2
-4 -1 9 34.241 18.0412 7
-3 -1 9 -20.006 22.776 7
-3 -1 9 9.93426 8.58686 2
-2 -1 9 -2.9982 7.95644 2
1 1 -9 20.0792 15.1487 2
-1 -1 9 47.357 29.0572 7
-3 0 9 38.5168 21.4942 7
-3 0 9 4.4443 7.53511 2
-2 0 9 46.0024 20.5145 7
-2 0 9 26.0575 8.64373 2
