#------------------------------------------------------------------------------
#$Date: 2021-12-07 04:54:30 +0200 (Tue, 07 Dec 2021) $
#$Revision: 271160 $
#$URL: file:///home/coder/svn-repositories/cod/cif/7/24/37/7243762.cif $
#------------------------------------------------------------------------------
#
# This file is available in the Crystallography Open Database (COD),
# http://www.crystallography.net/
#
# All data on this site have been placed in the public domain by the
# contributors.
#
data_7243762
loop_
_publ_author_name
'Okayasu, Misaki'
'Kikkawa, Shoko'
'Hikawa, Hidemasa'
'Azumaya, Isao'
_publ_section_title
;
 Relationship between crystal shape and unit cell shape: crystal shape
 modification via co-crystallization toward SXRD-suitable crystals
;
_journal_issue                   44
_journal_name_full               CrystEngComm
_journal_page_first              7760
_journal_page_last               7770
_journal_paper_doi               10.1039/D1CE00897H
_journal_volume                  23
_journal_year                    2021
_chemical_formula_moiety         'C17 H13 Br Cl N2 O2 S'
_chemical_formula_sum            'C17 H13 Br Cl N2 O2 S'
_chemical_formula_weight         424.72
_space_group_crystal_system      triclinic
_space_group_IT_number           2
_space_group_name_Hall           '-P 1'
_space_group_name_H-M_alt        'P -1'
_atom_sites_solution_hydrogens   geom
_atom_sites_solution_primary     direct
_atom_sites_solution_secondary   difmap
_audit_update_record
;
2021-06-02 deposited with the CCDC.	2021-10-28 downloaded from the CCDC.
;
_cell_angle_alpha                93.998(4)
_cell_angle_beta                 101.829(5)
_cell_angle_gamma                108.500(5)
_cell_formula_units_Z            2
_cell_length_a                   8.4205(5)
_cell_length_b                   9.8122(5)
_cell_length_c                   11.2928(6)
_cell_measurement_reflns_used    7083
_cell_measurement_temperature    93
_cell_measurement_theta_max      29.26
_cell_measurement_theta_min      2.82
_cell_volume                     856.87(9)
_computing_cell_refinement       'CrysAlisPro 1.171.38.43 (Rigaku OD, 2015)'
_computing_data_collection       'CrysAlisPro 1.171.38.43 (Rigaku OD, 2015)'
_computing_data_reduction        'CrysAlisPro 1.171.38.43 (Rigaku OD, 2015)'
_computing_molecular_graphics    'CrystalStructure 4.3'
_computing_publication_material  'CrystalStructure 4.3 (Rigaku, 2019)'
_computing_structure_refinement  'SHELXL Version 2018/3 (Sheldrick, 2008)'
_computing_structure_solution    'SHELXT Version 2018/2 (Sheldrick, 2014)'
_diffrn_ambient_temperature      93
_diffrn_detector_area_resol_mean 5.811
_diffrn_measured_fraction_theta_full 0.999
_diffrn_measured_fraction_theta_max 0.998
_diffrn_measurement_device_type  'Rigaku XtaLAB P200'
_diffrn_measurement_method       \w
_diffrn_radiation_type           'Mo K\a'
_diffrn_radiation_wavelength     0.71073
_diffrn_reflns_av_R_equivalents  0.0715
_diffrn_reflns_av_unetI/netI     0.0544
_diffrn_reflns_Laue_measured_fraction_full 0.999
_diffrn_reflns_Laue_measured_fraction_max 0.998
_diffrn_reflns_limit_h_max       10
_diffrn_reflns_limit_h_min       -10
_diffrn_reflns_limit_k_max       12
_diffrn_reflns_limit_k_min       -12
_diffrn_reflns_limit_l_max       14
_diffrn_reflns_limit_l_min       -14
_diffrn_reflns_number            27568
_diffrn_reflns_point_group_measured_fraction_full 0.999
_diffrn_reflns_point_group_measured_fraction_max 0.998
_diffrn_reflns_theta_full        25.242
_diffrn_reflns_theta_max         27.499
_diffrn_reflns_theta_min         2.628
_diffrn_standards_number         0
_exptl_absorpt_coefficient_mu    2.695
_exptl_absorpt_correction_T_max  0.828
_exptl_absorpt_correction_T_min  0.763
_exptl_absorpt_correction_type   multi-scan
_exptl_absorpt_process_details
;
CrysAlisPro 1.171.38.43 (Rigaku Oxford Diffraction, 2015)
Empirical absorption correction using spherical harmonics,
 implemented in SCALE3 ABSPACK scaling algorithm.
;
_exptl_crystal_colour            colorless
_exptl_crystal_density_diffrn    1.646
_exptl_crystal_density_method    'not measured'
_exptl_crystal_description       prism
_exptl_crystal_F_000             426.00
_exptl_crystal_size_max          0.120
_exptl_crystal_size_mid          0.100
_exptl_crystal_size_min          0.070
_refine_diff_density_max         0.48
_refine_diff_density_min         -0.57
_refine_ls_extinction_method     none
_refine_ls_goodness_of_fit_ref   1.067
_refine_ls_hydrogen_treatment    mixed
_refine_ls_number_parameters     221
_refine_ls_number_reflns         3929
_refine_ls_number_restraints     0
_refine_ls_R_factor_all          0.0484
_refine_ls_R_factor_gt           0.0330
_refine_ls_shift/su_max          0.002
_refine_ls_structure_factor_coef Fsqd
_refine_ls_weighting_details
'w = 1/[\s^2^(Fo^2^)+(0.0262P)^2^+0.1001P] where P=(Fo^2^+2Fc^2^)/3'
_refine_ls_weighting_scheme      calc
_refine_ls_wR_factor_gt          0.0673
_refine_ls_wR_factor_ref         0.0715
_reflns_Friedel_coverage         0.000
_reflns_number_gt                3221
_reflns_number_total             3929
_reflns_threshold_expression     F^2^>2.0\s(F^2^)
_cod_data_source_file            d1ce00897h2.cif
_cod_data_source_block           izm_1c_s18a22N
_cod_depositor_comments
'Adding full bibliography for 7243759--7243776.cif.'
_cod_database_code               7243762
_shelx_res_file
;
TITL izm_1c_s18a22N
    shelxl.res
    created by SHELXL-2018/3 at 09:37:29 on 25-Feb-2020
CELL  0.71073 8.42050 9.81220 11.29280 93.99800 101.82900 108.50000
ZERR  2 0.00050 0.00050 0.00060 0.00400 0.00500 0.00500
LATT 1
SFAC C H N O S BR CL
UNIT 34 26 4 4 2 2 2
SHEL 8.146951 0.769607
L.S. 10
FMAP 2
PLAN 25
WPDB -2
HTAB
BOND $H
CONF
LIST 4
TEMP -180.0
ACTA
SIZE 0.120 0.100 0.070
WGHT    0.026200    0.100100
FVAR       0.50078
BR1   6    0.272419    0.677176    0.755286    11.00000    0.03303    0.01677 =
         0.01852    0.00318    0.00920    0.00771
CL1   7    1.113985    1.155027    0.388216    11.00000    0.01944    0.02056 =
         0.03709   -0.00235   -0.00115   -0.00311
S1    5    0.469258    0.788138    0.170798    11.00000    0.01543    0.01100 =
         0.01591   -0.00012    0.00218    0.00148
O1    4    0.439818    0.919623    0.206818    11.00000    0.01672    0.01292 =
         0.02360   -0.00028    0.00205    0.00335
O2    4    0.422859    0.729881    0.043848    11.00000    0.02072    0.02130 =
         0.01474   -0.00121    0.00209    0.00305
N1    3    0.367143    0.657475    0.235821    11.00000    0.01986    0.01145 =
         0.01670   -0.00411    0.00448   -0.00423
H1    2    0.308905    0.579186    0.185773    11.00000    0.03479
N2    3    0.178055    0.381934    0.096002    11.00000    0.02207    0.01221 =
         0.02073   -0.00281    0.00614    0.00039
C1    1    0.355274    0.665244    0.359158    11.00000    0.01344    0.01339 =
         0.01925   -0.00056    0.00291    0.00487
C2    1    0.243623    0.543635    0.392509    11.00000    0.02215    0.01031 =
         0.01940   -0.00295    0.00352   -0.00036
AFIX  43
H2    2    0.182811    0.459191    0.333867    11.00000   -1.20000
AFIX   0
C3    1    0.220923    0.545183    0.510105    11.00000    0.02249    0.01333 =
         0.02340    0.00255    0.00668    0.00150
AFIX  43
H3    2    0.145037    0.462073    0.532587    11.00000   -1.20000
AFIX   0
C4    1    0.309693    0.668972    0.595348    11.00000    0.02052    0.01699 =
         0.01527    0.00264    0.00288    0.00681
C5    1    0.425500    0.788793    0.564549    11.00000    0.01870    0.01388 =
         0.01943   -0.00367    0.00108    0.00208
AFIX  43
H5    2    0.488983    0.871897    0.624103    11.00000   -1.20000
AFIX   0
C6    1    0.448065    0.786576    0.446392    11.00000    0.01541    0.01157 =
         0.02060   -0.00032    0.00174   -0.00098
AFIX  43
H6    2    0.527363    0.868416    0.424947    11.00000   -1.20000
AFIX   0
C7    1    0.691624    0.818709    0.228620    11.00000    0.01584    0.01470 =
         0.01518    0.00223    0.00464    0.00248
C8    1    0.800767    0.958364    0.281441    11.00000    0.01977    0.01485 =
         0.01482    0.00151    0.00511    0.00516
AFIX  43
H8    2    0.756849    1.035626    0.289742    11.00000   -1.20000
AFIX   0
C9    1    0.975293    0.981174    0.321500    11.00000    0.01681    0.01496 =
         0.01945    0.00147    0.00240   -0.00071
C10   1    1.040932    0.870913    0.309941    11.00000    0.01579    0.02814 =
         0.02630    0.00719    0.00338    0.00645
AFIX  43
H10   2    1.161172    0.889246    0.337851    11.00000   -1.20000
AFIX   0
C11   1    0.930116    0.732125    0.257061    11.00000    0.02485    0.02091 =
         0.03410    0.00624    0.00906    0.01182
AFIX  43
H11   2    0.974866    0.655354    0.248944    11.00000   -1.20000
AFIX   0
C12   1    0.754388    0.705200    0.216067    11.00000    0.02314    0.01152 =
         0.02679    0.00402    0.00576    0.00228
AFIX  43
H12   2    0.678342    0.610476    0.179977    11.00000   -1.20000
AFIX   0
C13   1    0.276272    0.299114    0.102143    11.00000    0.01547    0.01699 =
         0.04078   -0.00695    0.00042   -0.00219
AFIX  43
H13   2    0.397229    0.344904    0.132825    11.00000   -1.20000
AFIX   0
C14   1    0.213811    0.150524    0.066753    11.00000    0.01851    0.01473 =
         0.03626   -0.00375    0.00261    0.00312
AFIX  43
H14   2    0.290668    0.096920    0.073973    11.00000   -1.20000
AFIX   0
C15   1    0.037254    0.079842    0.020388    11.00000    0.01870    0.01217 =
         0.01181   -0.00107    0.00507    0.00056
C16   1   -0.065375    0.166691    0.014282    11.00000    0.01683    0.01286 =
         0.02639   -0.00014    0.00087    0.00161
AFIX  43
H16   2   -0.186803    0.124169   -0.015993    11.00000   -1.20000
AFIX   0
C17   1    0.008438    0.314749    0.052075    11.00000    0.02166    0.01374 =
         0.02565    0.00151    0.00750    0.00458
AFIX  43
H17   2   -0.064904    0.371488    0.046566    11.00000   -1.20000
AFIX   0
HKLF 4




REM  izm_1c_s18a22N
REM wR2 = 0.0715, GooF = S = 1.067, Restrained GooF = 1.067 for all data
REM R1 = 0.0330 for 3221 Fo > 4sig(Fo) and 0.0484 for all 3929 data
REM 221 parameters refined using 0 restraints

END

WGHT      0.0262      0.1001

REM Instructions for potential hydrogen bonds
HTAB N1 N2
EQIV $2 x-1, y-1, z
HTAB C2 Cl1_$2
EQIV $3 -x+1, -y+2, -z+1
HTAB C5 O1_$3
HTAB C6 O1
HTAB C8 Br1_$3
EQIV $4 -x+1, -y+1, -z+1
HTAB C12 Br1_$4
HTAB C13 Br1_$4
EQIV $5 -x, -y+1, -z
HTAB C16 O1_$5
EQIV $6 -x, -y+1, -z+1
HTAB C17 Br1_$6

REM Highest difference peak  0.483,  deepest hole -0.574,  1-sigma level  0.089
Q1    1   0.2977  0.6249  0.8169  11.00000  0.05    0.48
Q2    1   0.7508  0.8755  0.2620  11.00000  0.05    0.43
Q3    1   0.3718  0.6049  0.7621  11.00000  0.05    0.42
Q4    1   0.1168  0.7080  0.7396  11.00000  0.05    0.38
Q5    1   0.2279  0.7151  0.6975  11.00000  0.05    0.37
Q6    1   0.5503  0.3281  0.1592  11.00000  0.05    0.36
Q7    1   0.3299  0.6947  0.7008  11.00000  0.05    0.35
Q8    1   0.8935  0.9628  0.2781  11.00000  0.05    0.34
Q9    1   0.2041  0.6542  0.7948  11.00000  0.05    0.34
Q10   1   0.3905  0.6889  0.6396  11.00000  0.05    0.34
Q11   1   0.1263  0.1202  0.0244  11.00000  0.05    0.34
Q12   1   0.3672  0.7294  0.7209  11.00000  0.05    0.33
Q13   1   0.3724  0.7525  0.4016  11.00000  0.05    0.32
Q14   1   0.2032  0.6816  0.6882  11.00000  0.05    0.31
Q15   1  -0.0168  0.1160  0.0398  11.00000  0.05    0.31
Q16   1   0.1749  0.5393  0.5181  11.00000  0.05    0.31
Q17   1   0.3730  0.7101  0.5661  11.00000  0.05    0.30
Q18   1   0.3810  0.7377 -0.0859  11.00000  0.05    0.30
Q19   1   0.9970  0.7460  0.1792  11.00000  0.05    0.30
Q20   1   0.7319  0.7733  0.2050  11.00000  0.05    0.30
Q21   1   0.2144  0.3258  0.1299  11.00000  0.05    0.30
Q22   1   0.3276  0.3180  0.1029  11.00000  0.05    0.29
Q23   1   0.5445  0.4437  0.2057  11.00000  0.05    0.29
Q24   1   0.8064  0.9702  0.3246  11.00000  0.05    0.29
Q25   1   0.4937  1.0276  0.1211  11.00000  0.05    0.29
;
_shelx_res_checksum              92353
loop_
_space_group_symop_id
_space_group_symop_operation_xyz
1 +X,+Y,+Z
2 -X,-Y,-Z
loop_
_atom_site_label
_atom_site_type_symbol
_atom_site_fract_x
_atom_site_fract_y
_atom_site_fract_z
_atom_site_U_iso_or_equiv
_atom_site_adp_type
_atom_site_occupancy
_atom_site_site_symmetry_order
_atom_site_calc_flag
_atom_site_refinement_flags_posn
_atom_site_refinement_flags_adp
_atom_site_refinement_flags_occupancy
_atom_site_disorder_assembly
_atom_site_disorder_group
Br1 Br 0.27242(3) 0.67718(2) 0.75529(2) 0.02246(9) Uani 1 1 d . . . . .
Cl1 Cl 1.11398(7) 1.15503(6) 0.38822(6) 0.02967(15) Uani 1 1 d . . . . .
S1 S 0.46926(7) 0.78814(6) 0.17080(5) 0.01520(13) Uani 1 1 d . . . . .
O1 O 0.43982(19) 0.91962(16) 0.20682(14) 0.0187(3) Uani 1 1 d . . . . .
O2 O 0.42286(19) 0.72988(17) 0.04385(13) 0.0204(3) Uani 1 1 d . . . . .
N1 N 0.3671(2) 0.6575(2) 0.23582(17) 0.0186(4) Uani 1 1 d . . . . .
H1 H 0.309(4) 0.579(3) 0.186(2) 0.035(8) Uiso 1 1 d . . . . .
N2 N 0.1781(2) 0.38193(19) 0.09600(16) 0.0198(4) Uani 1 1 d . . . . .
C1 C 0.3553(3) 0.6652(2) 0.35916(19) 0.0156(5) Uani 1 1 d . . . . .
C2 C 0.2436(3) 0.5436(2) 0.3925(2) 0.0192(5) Uani 1 1 d . . . . .
H2 H 0.182811 0.459191 0.333867 0.023 Uiso 1 1 calc R U . . .
C3 C 0.2209(3) 0.5452(2) 0.5101(2) 0.0207(5) Uani 1 1 d . . . . .
H3 H 0.145037 0.462073 0.532587 0.025 Uiso 1 1 calc R U . . .
C4 C 0.3097(3) 0.6690(2) 0.59535(19) 0.0177(5) Uani 1 1 d . . . . .
C5 C 0.4255(3) 0.7888(2) 0.5645(2) 0.0190(5) Uani 1 1 d . . . . .
H5 H 0.488983 0.871897 0.624103 0.023 Uiso 1 1 calc R U . . .
C6 C 0.4481(3) 0.7866(2) 0.44639(19) 0.0178(5) Uani 1 1 d . . . . .
H6 H 0.527363 0.868416 0.424947 0.021 Uiso 1 1 calc R U . . .
C7 C 0.6916(3) 0.8187(2) 0.22862(19) 0.0158(5) Uani 1 1 d . . . . .
C8 C 0.8008(3) 0.9584(2) 0.28144(18) 0.0165(5) Uani 1 1 d . . . . .
H8 H 0.756849 1.035626 0.289742 0.020 Uiso 1 1 calc R U . . .
C9 C 0.9753(3) 0.9812(2) 0.3215(2) 0.0189(5) Uani 1 1 d . . . . .
C10 C 1.0409(3) 0.8709(3) 0.3099(2) 0.0237(5) Uani 1 1 d . . . . .
H10 H 1.161172 0.889246 0.337851 0.028 Uiso 1 1 calc R U . . .
C11 C 0.9301(3) 0.7321(3) 0.2571(2) 0.0252(5) Uani 1 1 d . . . . .
H11 H 0.974866 0.655354 0.248944 0.030 Uiso 1 1 calc R U . . .
C12 C 0.7544(3) 0.7052(2) 0.2161(2) 0.0213(5) Uani 1 1 d . . . . .
H12 H 0.678342 0.610476 0.179977 0.026 Uiso 1 1 calc R U . . .
C13 C 0.2763(3) 0.2991(3) 0.1021(2) 0.0278(6) Uani 1 1 d . . . . .
H13 H 0.397229 0.344904 0.132825 0.033 Uiso 1 1 calc R U . . .
C14 C 0.2138(3) 0.1505(3) 0.0668(2) 0.0248(5) Uani 1 1 d . . . . .
H14 H 0.290668 0.096920 0.073973 0.030 Uiso 1 1 calc R U . . .
C15 C 0.0373(3) 0.0798(2) 0.02039(18) 0.0153(5) Uani 1 1 d . . . . .
C16 C -0.0654(3) 0.1667(2) 0.0143(2) 0.0204(5) Uani 1 1 d . . . . .
H16 H -0.186803 0.124169 -0.015993 0.024 Uiso 1 1 calc R U . . .
C17 C 0.0084(3) 0.3147(2) 0.0521(2) 0.0205(5) Uani 1 1 d . . . . .
H17 H -0.064904 0.371488 0.046566 0.025 Uiso 1 1 calc R U . . .
loop_
_atom_site_aniso_label
_atom_site_aniso_U_11
_atom_site_aniso_U_22
_atom_site_aniso_U_33
_atom_site_aniso_U_23
_atom_site_aniso_U_13
_atom_site_aniso_U_12
Br1 0.03303(16) 0.01677(13) 0.01852(13) 0.00318(9) 0.00920(10) 0.00771(10)
Cl1 0.0194(3) 0.0206(3) 0.0371(4) -0.0024(2) -0.0011(3) -0.0031(3)
S1 0.0154(3) 0.0110(3) 0.0159(3) -0.0001(2) 0.0022(2) 0.0015(2)
O1 0.0167(8) 0.0129(8) 0.0236(8) -0.0003(6) 0.0021(6) 0.0034(7)
O2 0.0207(9) 0.0213(9) 0.0147(8) -0.0012(6) 0.0021(6) 0.0031(7)
N1 0.0199(10) 0.0114(10) 0.0167(10) -0.0041(8) 0.0045(8) -0.0042(8)
N2 0.0221(11) 0.0122(10) 0.0207(10) -0.0028(7) 0.0061(8) 0.0004(8)
C1 0.0134(11) 0.0134(11) 0.0193(11) -0.0006(8) 0.0029(9) 0.0049(9)
C2 0.0221(12) 0.0103(11) 0.0194(12) -0.0029(8) 0.0035(9) -0.0004(10)
C3 0.0225(13) 0.0133(11) 0.0234(12) 0.0025(9) 0.0067(10) 0.0015(10)
C4 0.0205(12) 0.0170(12) 0.0153(11) 0.0026(9) 0.0029(9) 0.0068(10)
C5 0.0187(12) 0.0139(11) 0.0194(12) -0.0037(9) 0.0011(9) 0.0021(10)
C6 0.0154(12) 0.0116(11) 0.0206(12) -0.0003(9) 0.0017(9) -0.0010(9)
C7 0.0158(11) 0.0147(11) 0.0152(11) 0.0022(8) 0.0046(9) 0.0025(9)
C8 0.0198(12) 0.0148(11) 0.0148(11) 0.0015(8) 0.0051(9) 0.0052(10)
C9 0.0168(12) 0.0150(12) 0.0195(12) 0.0015(9) 0.0024(9) -0.0007(9)
C10 0.0158(12) 0.0281(14) 0.0263(13) 0.0072(10) 0.0034(10) 0.0065(11)
C11 0.0249(14) 0.0209(13) 0.0341(14) 0.0062(10) 0.0091(11) 0.0118(11)
C12 0.0231(13) 0.0115(11) 0.0268(13) 0.0040(9) 0.0058(10) 0.0023(10)
C13 0.0155(12) 0.0170(13) 0.0408(15) -0.0070(10) 0.0004(11) -0.0022(10)
C14 0.0185(13) 0.0147(12) 0.0363(14) -0.0037(10) 0.0026(10) 0.0031(10)
C15 0.0187(12) 0.0122(11) 0.0118(10) -0.0011(8) 0.0051(9) 0.0006(9)
C16 0.0168(12) 0.0129(11) 0.0264(13) -0.0001(9) 0.0009(10) 0.0016(10)
C17 0.0217(13) 0.0137(12) 0.0256(13) 0.0015(9) 0.0075(10) 0.0046(10)
loop_
_atom_type_symbol
_atom_type_description
_atom_type_scat_dispersion_real
_atom_type_scat_dispersion_imag
_atom_type_scat_source
C C 0.0033 0.0016
;
International Tables for Crystallography
(Vol. C, Tables 4.2.6.8 and 6.1.1.4)
;
H H 0.0000 0.0000
;
International Tables for Crystallography
(Vol. C, Table 6.1.1.4)
;
N N 0.0061 0.0033
;
International Tables for Crystallography
(Vol. C, Tables 4.2.6.8 and 6.1.1.4)
;
O O 0.0106 0.0060
;
International Tables for Crystallography
(Vol. C, Tables 4.2.6.8 and 6.1.1.4)
;
S S 0.1246 0.1234
;
International Tables for Crystallography
(Vol. C, Tables 4.2.6.8 and 6.1.1.4)
;
Br Br -0.2901 2.4595
;
International Tables for Crystallography
(Vol. C, Tables 4.2.6.8 and 6.1.1.4)
;
Cl Cl 0.1484 0.1585
;
International Tables for Crystallography
(Vol. C, Tables 4.2.6.8 and 6.1.1.4)
;
loop_
_geom_angle_atom_site_label_1
_geom_angle_atom_site_label_2
_geom_angle_atom_site_label_3
_geom_angle
_geom_angle_site_symmetry_1
_geom_angle_site_symmetry_3
_geom_angle_publ_flag
O2 S1 O1 119.23(9) . . ?
O2 S1 N1 104.81(10) . . ?
O1 S1 N1 110.47(10) . . ?
O2 S1 C7 108.48(9) . . ?
O1 S1 C7 107.02(10) . . ?
N1 S1 C7 106.13(10) . . ?
C1 N1 S1 126.86(15) . . ?
C1 N1 H1 119.8(18) . . ?
S1 N1 H1 113.1(18) . . ?
C13 N2 C17 116.66(19) . . ?
C6 C1 C2 119.5(2) . . ?
C6 C1 N1 123.33(19) . . ?
C2 C1 N1 117.21(19) . . ?
C3 C2 C1 120.4(2) . . ?
C3 C2 H2 119.8 . . ?
C1 C2 H2 119.8 . . ?
C2 C3 C4 119.6(2) . . ?
C2 C3 H3 120.2 . . ?
C4 C3 H3 120.2 . . ?
C5 C4 C3 120.6(2) . . ?
C5 C4 Br1 119.06(16) . . ?
C3 C4 Br1 120.37(16) . . ?
C6 C5 C4 119.6(2) . . ?
C6 C5 H5 120.2 . . ?
C4 C5 H5 120.2 . . ?
C5 C6 C1 120.3(2) . . ?
C5 C6 H6 119.9 . . ?
C1 C6 H6 119.9 . . ?
C12 C7 C8 121.5(2) . . ?
C12 C7 S1 119.57(17) . . ?
C8 C7 S1 118.91(16) . . ?
C9 C8 C7 118.0(2) . . ?
C9 C8 H8 121.0 . . ?
C7 C8 H8 121.0 . . ?
C10 C9 C8 121.8(2) . . ?
C10 C9 Cl1 119.53(18) . . ?
C8 C9 Cl1 118.71(17) . . ?
C9 C10 C11 119.5(2) . . ?
C9 C10 H10 120.3 . . ?
C11 C10 H10 120.3 . . ?
C12 C11 C10 120.3(2) . . ?
C12 C11 H11 119.8 . . ?
C10 C11 H11 119.8 . . ?
C7 C12 C11 119.0(2) . . ?
C7 C12 H12 120.5 . . ?
C11 C12 H12 120.5 . . ?
N2 C13 C14 124.2(2) . . ?
N2 C13 H13 117.9 . . ?
C14 C13 H13 117.9 . . ?
C13 C14 C15 119.5(2) . . ?
C13 C14 H14 120.2 . . ?
C15 C14 H14 120.2 . . ?
C16 C15 C14 116.2(2) . . ?
C16 C15 C15 121.9(2) . 2 ?
C14 C15 C15 121.9(3) . 2 ?
C17 C16 C15 120.3(2) . . ?
C17 C16 H16 119.9 . . ?
C15 C16 H16 119.9 . . ?
N2 C17 C16 123.2(2) . . ?
N2 C17 H17 118.4 . . ?
C16 C17 H17 118.4 . . ?
loop_
_geom_bond_atom_site_label_1
_geom_bond_atom_site_label_2
_geom_bond_distance
_geom_bond_site_symmetry_2
_geom_bond_publ_flag
Br1 C4 1.896(2) . ?
Cl1 C9 1.743(2) . ?
S1 O2 1.4314(15) . ?
S1 O1 1.4362(16) . ?
S1 N1 1.6164(19) . ?
S1 C7 1.771(2) . ?
N1 C1 1.415(3) . ?
N1 H1 0.86(3) . ?
N2 C13 1.327(3) . ?
N2 C17 1.337(3) . ?
C1 C6 1.389(3) . ?
C1 C2 1.395(3) . ?
C2 C3 1.380(3) . ?
C2 H2 0.9500 . ?
C3 C4 1.388(3) . ?
C3 H3 0.9500 . ?
C4 C5 1.387(3) . ?
C5 C6 1.385(3) . ?
C5 H5 0.9500 . ?
C6 H6 0.9500 . ?
C7 C12 1.386(3) . ?
C7 C8 1.393(3) . ?
C8 C9 1.385(3) . ?
C8 H8 0.9500 . ?
C9 C10 1.372(3) . ?
C10 C11 1.391(3) . ?
C10 H10 0.9500 . ?
C11 C12 1.388(3) . ?
C11 H11 0.9500 . ?
C12 H12 0.9500 . ?
C13 C14 1.381(3) . ?
C13 H13 0.9500 . ?
C14 C15 1.393(3) . ?
C14 H14 0.9500 . ?
C15 C16 1.389(3) . ?
C15 C15 1.489(4) 2 ?
C16 C17 1.382(3) . ?
C16 H16 0.9500 . ?
C17 H17 0.9500 . ?
loop_
_geom_hbond_atom_site_label_D
_geom_hbond_atom_site_label_H
_geom_hbond_atom_site_label_A
_geom_hbond_site_symmetry_D
_geom_hbond_site_symmetry_H
_geom_hbond_site_symmetry_A
_geom_hbond_distance_DA
_geom_hbond_distance_DH
_geom_hbond_distance_HA
_geom_hbond_angle_DHA
_geom_hbond_publ_flag
N1 H1 N2 . . . 2.825(2) 0.858 1.976 170.0 no
loop_
_geom_torsion_atom_site_label_1
_geom_torsion_atom_site_label_2
_geom_torsion_atom_site_label_3
_geom_torsion_atom_site_label_4
_geom_torsion
_geom_torsion_site_symmetry_1
_geom_torsion_site_symmetry_2
_geom_torsion_site_symmetry_3
_geom_torsion_site_symmetry_4
_geom_torsion_publ_flag
O2 S1 N1 C1 -172.61(18) . . . . ?
O1 S1 N1 C1 -43.0(2) . . . . ?
C7 S1 N1 C1 72.7(2) . . . . ?
S1 N1 C1 C6 -7.2(3) . . . . ?
S1 N1 C1 C2 172.63(17) . . . . ?
C6 C1 C2 C3 2.1(3) . . . . ?
N1 C1 C2 C3 -177.8(2) . . . . ?
C1 C2 C3 C4 0.2(3) . . . . ?
C2 C3 C4 C5 -2.4(3) . . . . ?
C2 C3 C4 Br1 176.98(17) . . . . ?
C3 C4 C5 C6 2.3(3) . . . . ?
Br1 C4 C5 C6 -177.10(17) . . . . ?
C4 C5 C6 C1 0.1(3) . . . . ?
C2 C1 C6 C5 -2.2(3) . . . . ?
N1 C1 C6 C5 177.6(2) . . . . ?
O2 S1 C7 C12 -55.44(19) . . . . ?
O1 S1 C7 C12 174.70(16) . . . . ?
N1 S1 C7 C12 56.72(19) . . . . ?
O2 S1 C7 C8 121.98(17) . . . . ?
O1 S1 C7 C8 -7.87(19) . . . . ?
N1 S1 C7 C8 -125.86(17) . . . . ?
C12 C7 C8 C9 0.0(3) . . . . ?
S1 C7 C8 C9 -177.38(16) . . . . ?
C7 C8 C9 C10 0.2(3) . . . . ?
C7 C8 C9 Cl1 -179.84(16) . . . . ?
C8 C9 C10 C11 -0.2(3) . . . . ?
Cl1 C9 C10 C11 179.79(18) . . . . ?
C9 C10 C11 C12 0.1(4) . . . . ?
C8 C7 C12 C11 -0.1(3) . . . . ?
S1 C7 C12 C11 177.25(18) . . . . ?
C10 C11 C12 C7 0.1(3) . . . . ?
C17 N2 C13 C14 -0.2(4) . . . . ?
N2 C13 C14 C15 0.5(4) . . . . ?
C13 C14 C15 C16 -0.6(3) . . . . ?
C13 C14 C15 C15 179.4(2) . . . 2 ?
C14 C15 C16 C17 0.5(3) . . . . ?
C15 C15 C16 C17 -179.5(2) 2 . . . ?
C13 N2 C17 C16 0.1(3) . . . . ?
C15 C16 C17 N2 -0.2(3) . . . . ?
