#------------------------------------------------------------------------------
#$Date: 2021-07-08 07:36:33 +0300 (Thu, 08 Jul 2021) $
#$Revision: 267364 $
#$URL: file:///home/coder/svn-repositories/cod/cif/7/24/31/7243160.cif $
#------------------------------------------------------------------------------
#
# This file is available in the Crystallography Open Database (COD),
# http://www.crystallography.net/
#
# All data on this site have been placed in the public domain by the
# contributors.
#
data_7243160
loop_
_publ_author_name
'Gulyaev, Dmitry A.'
'Klenov, Michael S.'
'Churakov, Aleksandr M.'
'Strelenko, Yurii A.'
'Fedyanin, Ivan V.'
'Lempert, David B.'
'Kosareva, Ekaterina K.'
'Kon'kova, Tatiana S.'
'Matyushin, Yurii N.'
'Tartakovsky, Vladimir A.'
_publ_section_title
;
 [(3-Nitro-1H-1,2,4-triazol-1-yl)-NNO-azoxy]furazans: energetic materials
 containing an N(O)&#xE001;N--N fragment
;
_journal_issue                   39
_journal_name_full               'RSC Advances'
_journal_page_first              24013
_journal_page_last               24021
_journal_paper_doi               10.1039/D1RA03919A
_journal_volume                  11
_journal_year                    2021
_chemical_formula_moiety         'C4 H3 N9 O4'
_chemical_formula_sum            'C4 H3 N9 O4'
_chemical_formula_weight         241.15
_space_group_crystal_system      orthorhombic
_space_group_IT_number           19
_space_group_name_Hall           'P 2ac 2ab'
_space_group_name_H-M_alt        'P 21 21 21'
_atom_sites_solution_hydrogens   mixed
_atom_sites_solution_primary     dual
_audit_creation_method           'Modified SHELXL output'
_audit_update_record
;
2021-03-02 deposited with the CCDC.	2021-06-28 downloaded from the CCDC.
;
_cell_angle_alpha                90
_cell_angle_beta                 90
_cell_angle_gamma                90
_cell_formula_units_Z            4
_cell_length_a                   4.8786(8)
_cell_length_b                   7.9416(13)
_cell_length_c                   22.587(4)
_cell_measurement_reflns_used    1491
_cell_measurement_temperature    120(2)
_cell_measurement_theta_max      22.45
_cell_measurement_theta_min      2.72
_cell_volume                     875.1(3)
_computing_cell_refinement       'Bruker SAINT'
_computing_data_collection       'Bruker APEX2'
_computing_data_reduction        'Bruker SAINT'
_computing_molecular_graphics    'SHELXTL (Sheldrick, 2008)'
_computing_publication_material  'SHELXTL (Sheldrick, 2008)'
_computing_structure_refinement  'SHELXL (Sheldrick, 2015b)'
_computing_structure_solution    'SHELXT (Sheldrick, 2015a)'
_diffrn_ambient_temperature      120(2)
_diffrn_detector_type            'Bruker APEX II CCD area detector'
_diffrn_measured_fraction_theta_full 1.000
_diffrn_measured_fraction_theta_max 1.000
_diffrn_measurement_device_type  'Bruker APEX DUO diffractometer'
_diffrn_measurement_method       '\o scans'
_diffrn_radiation_type           MoK\a
_diffrn_radiation_wavelength     0.71073
_diffrn_reflns_av_R_equivalents  0.0657
_diffrn_reflns_av_unetI/netI     0.0560
_diffrn_reflns_Laue_measured_fraction_full 1.000
_diffrn_reflns_Laue_measured_fraction_max 1.000
_diffrn_reflns_limit_h_max       6
_diffrn_reflns_limit_h_min       -6
_diffrn_reflns_limit_k_max       11
_diffrn_reflns_limit_k_min       -11
_diffrn_reflns_limit_l_max       31
_diffrn_reflns_limit_l_min       -31
_diffrn_reflns_number            11090
_diffrn_reflns_point_group_measured_fraction_full 1.000
_diffrn_reflns_point_group_measured_fraction_max 1.000
_diffrn_reflns_theta_full        29.999
_diffrn_reflns_theta_max         29.999
_diffrn_reflns_theta_min         1.803
_exptl_absorpt_coefficient_mu    0.162
_exptl_absorpt_correction_T_max  0.862
_exptl_absorpt_correction_T_min  0.795
_exptl_absorpt_correction_type   multi-scan
_exptl_absorpt_process_details   SADABS
_exptl_crystal_colour            yellow
_exptl_crystal_density_diffrn    1.830
_exptl_crystal_description       needle
_exptl_crystal_F_000             488
_exptl_crystal_size_max          0.430
_exptl_crystal_size_mid          0.180
_exptl_crystal_size_min          0.140
_refine_diff_density_max         0.244
_refine_diff_density_min         -0.245
_refine_diff_density_rms         0.054
_refine_ls_extinction_method     none
_refine_ls_goodness_of_fit_ref   1.029
_refine_ls_hydrogen_treatment    mixed
_refine_ls_matrix_type           full
_refine_ls_number_parameters     162
_refine_ls_number_reflns         2555
_refine_ls_number_restraints     0
_refine_ls_restrained_S_all      1.029
_refine_ls_R_factor_all          0.0617
_refine_ls_R_factor_gt           0.0415
_refine_ls_shift/su_max          0.000
_refine_ls_shift/su_mean         0.000
_refine_ls_structure_factor_coef Fsqd
_refine_ls_weighting_details
'w=1/[\s^2^(Fo^2^)+(0.0350P)^2^] where P=(Fo^2^+2Fc^2^)/3'
_refine_ls_weighting_scheme      calc
_refine_ls_wR_factor_gt          0.0780
_refine_ls_wR_factor_ref         0.0875
_reflns_Friedel_coverage         0.682
_reflns_Friedel_fraction_full    1.000
_reflns_Friedel_fraction_max     1.000
_reflns_number_gt                1987
_reflns_number_total             2555
_reflns_threshold_expression     'I > 2\s(I)'
_cod_data_source_file            d1ra03919a2.cif
_cod_data_source_block           gul053
_cod_original_cell_volume        875.1(2)
_cod_database_code               7243160
_publ_contact_name               'Fedyanin, Ivan V.'
_publ_contact_email              octy@xrlab.ineos.ac.ru
_shelx_shelxl_version_number     2018/3
_shelx_space_group_comment
;
The symmetry employed for this shelxl refinement is uniquely defined
by the following loop, which should always be used as a source of
symmetry information in preference to the above space-group names.
They are only intended as comments.
;
_shelx_estimated_absorpt_t_min   0.934
_shelx_estimated_absorpt_t_max   0.978
_shelx_res_file
;
TITL gul053 in P2(1)2(1)2(1)
    gul053.res
    created by SHELXL-2018/3 at 09:44:53 on 07-Jan-2021
CELL 0.71073   4.87860   7.94160  22.58700  90.0000  90.0000  90.0000
ZERR    4.00   0.00080   0.00130   0.00360   0.0000   0.0000   0.0000
LATT -1
SYMM 1/2-X, -Y, 1/2+Z
SYMM -X, 1/2+Y, 1/2-Z
SYMM 1/2+X, 1/2-Y, -Z
SFAC C H N O
UNIT 16 12 36 16
TEMP -153
L.S. 10
BOND
ACTA 60
OMIT -5 60
REM YELLOW NEEDLE
SIZE 0.43 0.18 0.14
CONF

BOND $H

EQIV $1 x-1, y-1, z
HTAB N6 O2'_$1
HTAB N6 N4'_$1
HTAB N6 N8
EQIV $2 x-1/2, -y+3/2, -z+1
HTAB N6 O2'_$2

FMAP 2
PLAN 20
WGHT    0.035000
FVAR       0.33894
O1    4    0.588069    0.039069    0.730116    11.00000    0.03138    0.01931 =
         0.02668    0.00599   -0.00724   -0.00590
O2    4    0.945109    0.476969    0.692483    11.00000    0.02444    0.02388 =
         0.03862    0.00569   -0.01432   -0.00860
N2    3    0.396340    0.024739    0.683533    11.00000    0.02612    0.02020 =
         0.02071    0.00447   -0.00534   -0.00516
N5    3    0.724469    0.189109    0.728301    11.00000    0.02819    0.01581 =
         0.02701    0.00168   -0.00552   -0.00402
N6    3    0.271215    0.201968    0.605139    11.00000    0.04263    0.02512 =
         0.02558    0.01002   -0.01510   -0.02120
H6B   2    0.140760    0.130172    0.593000    11.00000    0.03914
H6A   2    0.282810    0.295668    0.585587    11.00000    0.03086
N7    3    0.729514    0.430050    0.668182    11.00000    0.01817    0.01552 =
         0.02127   -0.00092    0.00021   -0.00283
N8    3    0.578960    0.510243    0.630856    11.00000    0.01748    0.01386 =
         0.01981    0.00076   -0.00091   -0.00291
C3    1    0.417127    0.167217    0.653772    11.00000    0.02048    0.01584 =
         0.01737    0.00031    0.00178   -0.00436
C4    1    0.622549    0.265825    0.682476    11.00000    0.01762    0.01370 =
         0.01839   -0.00125    0.00014    0.00000
O1'   4    0.482438    0.964583    0.478988    11.00000    0.03400    0.02762 =
         0.02830    0.00327   -0.01474   -0.00436
O2'   4    0.825629    1.110269    0.511514    11.00000    0.03313    0.02302 =
         0.03462    0.01210   -0.00771   -0.01203
N1'   3    0.682101    0.667361    0.616424    11.00000    0.01696    0.01392 =
         0.01699    0.00062   -0.00091   -0.00265
N2'   3    0.559912    0.736983    0.568033    11.00000    0.01665    0.01620 =
         0.01814   -0.00026   -0.00196   -0.00009
N3'   3    0.666762    0.991334    0.514132    11.00000    0.02254    0.01793 =
         0.02168    0.00195   -0.00227   -0.00104
N4'   3    0.908833    0.901086    0.602110    11.00000    0.01978    0.01584 =
         0.02218    0.00256   -0.00451   -0.00370
C3'   1    0.707274    0.873461    0.562643    11.00000    0.01745    0.01420 =
         0.01831    0.00111   -0.00053   -0.00060
C5'   1    0.891282    0.768199    0.636581    11.00000    0.01802    0.01743 =
         0.02177   -0.00066   -0.00187   -0.00452
AFIX  43
H5'   2    1.004346    0.745583    0.669888    11.00000   -1.20000

AFIX   0
HKLF 4




REM  gul053 in P2(1)2(1)2(1)
REM wR2 = 0.0875, GooF = S = 1.029, Restrained GooF = 1.029 for all data
REM R1 = 0.0415 for 1987 Fo > 4sig(Fo) and 0.0617 for all 2555 data
REM 162 parameters refined using 0 restraints

END

WGHT      0.0361      0.0037

REM Highest difference peak  0.244,  deepest hole -0.245,  1-sigma level  0.054
Q1    1   0.4775  0.2461  0.6703  11.00000  0.05    0.24
Q2    1   0.7683  0.7196  0.6345  11.00000  0.05    0.23
Q3    1   0.6029  0.5893  0.6268  11.00000  0.05    0.22
Q4    1   0.0446  0.2591  0.6334  11.00000  0.05    0.19
Q5    1   0.3327  0.4608  0.5596  11.00000  0.05    0.18
Q6    1   0.2232  0.0013  0.6821  11.00000  0.05    0.18
Q7    1   1.1478  0.3526  0.7105  11.00000  0.05    0.18
Q8    1   0.3047 -0.1030  0.6931  11.00000  0.05    0.18
Q9    1   0.1934  0.9248  0.4904  11.00000  0.05    0.18
Q10   1   0.7884  0.0486  0.7278  11.00000  0.05    0.18
Q11   1   0.2461  0.1405  0.7403  11.00000  0.05    0.18
Q12   1   0.7372  1.0145  0.6561  11.00000  0.05    0.17
Q13   1   0.2382  0.6959  0.5489  11.00000  0.05    0.17
Q14   1   1.0906  0.9204  0.5940  11.00000  0.05    0.17
Q15   1   0.8445  0.8643  0.5613  11.00000  0.05    0.17
Q16   1   0.5524  0.8822  0.4322  11.00000  0.05    0.17
Q17   1   1.1961  0.5306  0.6384  11.00000  0.05    0.17
Q18   1   0.3102  0.0472  0.5479  11.00000  0.05    0.17
Q19   1   0.4211 -0.0812  0.6237  11.00000  0.05    0.17
Q20   1   0.9474  0.1485  0.7319  11.00000  0.05    0.17
;
_shelx_res_checksum              95079
loop_
_space_group_symop_operation_xyz
'x, y, z'
'-x+1/2, -y, z+1/2'
'-x, y+1/2, -z+1/2'
'x+1/2, -y+1/2, -z'
loop_
_atom_site_label
_atom_site_type_symbol
_atom_site_fract_x
_atom_site_fract_y
_atom_site_fract_z
_atom_site_U_iso_or_equiv
_atom_site_adp_type
_atom_site_occupancy
_atom_site_site_symmetry_order
_atom_site_calc_flag
_atom_site_refinement_flags_posn
_atom_site_refinement_flags_adp
_atom_site_refinement_flags_occupancy
_atom_site_disorder_assembly
_atom_site_disorder_group
O1 O 0.5881(4) 0.0391(2) 0.73012(8) 0.0258(4) Uani 1 1 d . . . . .
O2 O 0.9451(4) 0.4770(2) 0.69248(8) 0.0290(5) Uani 1 1 d . . . . .
N2 N 0.3963(4) 0.0247(3) 0.68353(9) 0.0223(5) Uani 1 1 d . . . . .
N5 N 0.7245(5) 0.1891(3) 0.72830(10) 0.0237(5) Uani 1 1 d . . . . .
N6 N 0.2712(6) 0.2020(3) 0.60514(11) 0.0311(6) Uani 1 1 d . . . . .
H6B H 0.141(7) 0.130(4) 0.5930(14) 0.039(9) Uiso 1 1 d . . . . .
H6A H 0.283(6) 0.296(4) 0.5856(13) 0.031(8) Uiso 1 1 d . . . . .
N7 N 0.7295(4) 0.4301(3) 0.66818(9) 0.0183(5) Uani 1 1 d . . . . .
N8 N 0.5790(4) 0.5102(3) 0.63086(9) 0.0170(4) Uani 1 1 d . . . . .
C3 C 0.4171(5) 0.1672(3) 0.65377(11) 0.0179(5) Uani 1 1 d . . . . .
C4 C 0.6225(5) 0.2658(3) 0.68248(11) 0.0166(5) Uani 1 1 d . . . . .
O1' O 0.4824(4) 0.9646(2) 0.47899(8) 0.0300(5) Uani 1 1 d . . . . .
O2' O 0.8256(4) 1.1103(2) 0.51151(9) 0.0303(5) Uani 1 1 d . . . . .
N1' N 0.6821(4) 0.6674(3) 0.61642(8) 0.0160(4) Uani 1 1 d . . . . .
N2' N 0.5599(4) 0.7370(2) 0.56803(9) 0.0170(4) Uani 1 1 d . . . . .
N3' N 0.6668(4) 0.9913(3) 0.51413(9) 0.0207(5) Uani 1 1 d . . . . .
N4' N 0.9088(4) 0.9011(3) 0.60211(9) 0.0193(5) Uani 1 1 d . . . . .
C3' C 0.7073(5) 0.8735(3) 0.56264(11) 0.0167(5) Uani 1 1 d . . . . .
C5' C 0.8913(5) 0.7682(3) 0.63658(11) 0.0191(5) Uani 1 1 d . . . . .
H5' H 1.004346 0.745583 0.669888 0.023 Uiso 1 1 calc R U . . .
loop_
_atom_site_aniso_label
_atom_site_aniso_U_11
_atom_site_aniso_U_22
_atom_site_aniso_U_33
_atom_site_aniso_U_23
_atom_site_aniso_U_13
_atom_site_aniso_U_12
O1 0.0314(11) 0.0193(9) 0.0267(9) 0.0060(8) -0.0072(9) -0.0059(8)
O2 0.0244(10) 0.0239(10) 0.0386(11) 0.0057(9) -0.0143(9) -0.0086(9)
N2 0.0261(11) 0.0202(11) 0.0207(10) 0.0045(9) -0.0053(9) -0.0052(10)
N5 0.0282(13) 0.0158(11) 0.0270(11) 0.0017(10) -0.0055(10) -0.0040(9)
N6 0.0426(15) 0.0251(13) 0.0256(12) 0.0100(11) -0.0151(12) -0.0212(12)
N7 0.0182(11) 0.0155(10) 0.0213(10) -0.0009(8) 0.0002(9) -0.0028(8)
N8 0.0175(10) 0.0139(10) 0.0198(10) 0.0008(8) -0.0009(8) -0.0029(9)
C3 0.0205(13) 0.0158(12) 0.0174(11) 0.0003(9) 0.0018(11) -0.0044(10)
C4 0.0176(12) 0.0137(11) 0.0184(12) -0.0013(10) 0.0001(10) 0.0000(10)
O1' 0.0340(11) 0.0276(10) 0.0283(10) 0.0033(9) -0.0147(9) -0.0044(9)
O2' 0.0331(11) 0.0230(10) 0.0346(11) 0.0121(9) -0.0077(9) -0.0120(9)
N1' 0.0170(10) 0.0139(10) 0.0170(10) 0.0006(8) -0.0009(8) -0.0026(8)
N2' 0.0166(10) 0.0162(10) 0.0181(10) -0.0003(9) -0.0020(9) -0.0001(9)
N3' 0.0225(11) 0.0179(10) 0.0217(10) 0.0020(9) -0.0023(9) -0.0010(9)
N4' 0.0198(11) 0.0158(10) 0.0222(11) 0.0026(9) -0.0045(9) -0.0037(9)
C3' 0.0175(12) 0.0142(11) 0.0183(12) 0.0011(10) -0.0005(10) -0.0006(10)
C5' 0.0180(12) 0.0174(12) 0.0218(12) -0.0007(10) -0.0019(10) -0.0045(10)
loop_
_atom_type_symbol
_atom_type_description
_atom_type_scat_dispersion_real
_atom_type_scat_dispersion_imag
_atom_type_scat_source
C C 0.0033 0.0016 'International Tables Vol C Tables 4.2.6.8 and 6.1.1.4'
H H 0.0000 0.0000 'International Tables Vol C Tables 4.2.6.8 and 6.1.1.4'
N N 0.0061 0.0033 'International Tables Vol C Tables 4.2.6.8 and 6.1.1.4'
O O 0.0106 0.0060 'International Tables Vol C Tables 4.2.6.8 and 6.1.1.4'
loop_
_geom_angle_atom_site_label_1
_geom_angle_atom_site_label_2
_geom_angle_atom_site_label_3
_geom_angle
_geom_angle_site_symmetry_1
_geom_angle_site_symmetry_3
_geom_angle_publ_flag
N5 O1 N2 111.76(17) . . ?
C3 N2 O1 105.0(2) . . ?
C4 N5 O1 104.3(2) . . ?
C3 N6 H6B 120(2) . . ?
C3 N6 H6A 124(2) . . ?
H6B N6 H6A 116(3) . . ?
O2 N7 N8 128.6(2) . . ?
O2 N7 C4 118.6(2) . . ?
N8 N7 C4 112.8(2) . . ?
N7 N8 N1' 113.14(19) . . ?
N2 C3 N6 123.7(2) . . ?
N2 C3 C4 107.0(2) . . ?
N6 C3 C4 129.3(2) . . ?
N5 C4 C3 111.9(2) . . ?
N5 C4 N7 117.6(2) . . ?
C3 C4 N7 130.5(2) . . ?
N2' N1' C5' 110.74(19) . . ?
N2' N1' N8 113.31(18) . . ?
C5' N1' N8 135.8(2) . . ?
C3' N2' N1' 99.83(19) . . ?
O1' N3' O2' 124.8(2) . . ?
O1' N3' C3' 118.6(2) . . ?
O2' N3' C3' 116.6(2) . . ?
C5' N4' C3' 102.4(2) . . ?
N2' C3' N4' 118.4(2) . . ?
N2' C3' N3' 122.0(2) . . ?
N4' C3' N3' 119.6(2) . . ?
N4' C5' N1' 108.7(2) . . ?
N4' C5' H5' 125.7 . . ?
N1' C5' H5' 125.7 . . ?
loop_
_geom_bond_atom_site_label_1
_geom_bond_atom_site_label_2
_geom_bond_distance
_geom_bond_site_symmetry_2
_geom_bond_publ_flag
O1 N5 1.365(3) . ?
O1 N2 1.412(3) . ?
O2 N7 1.244(3) . ?
N2 C3 1.320(3) . ?
N5 C4 1.300(3) . ?
N6 C3 1.338(3) . ?
N6 H6B 0.90(3) . ?
N6 H6A 0.87(3) . ?
N7 N8 1.287(3) . ?
N7 C4 1.441(3) . ?
N8 N1' 1.384(3) . ?
C3 C4 1.428(3) . ?
O1' N3' 1.218(3) . ?
O2' N3' 1.223(3) . ?
N1' N2' 1.362(3) . ?
N1' C5' 1.375(3) . ?
N2' C3' 1.306(3) . ?
N3' C3' 1.455(3) . ?
N4' C5' 1.314(3) . ?
N4' C3' 1.345(3) . ?
C5' H5' 0.9500 . ?
loop_
_geom_hbond_atom_site_label_D
_geom_hbond_atom_site_label_H
_geom_hbond_atom_site_label_A
_geom_hbond_distance_DH
_geom_hbond_distance_HA
_geom_hbond_distance_DA
_geom_hbond_angle_DHA
_geom_hbond_site_symmetry_A
_geom_hbond_publ_flag
N6 H6B O2' 0.90(3) 2.40(3) 3.119(3) 137(3) 1_445 yes
N6 H6B N4' 0.90(3) 2.15(4) 2.973(3) 152(3) 1_445 yes
N6 H6A N8 0.87(3) 2.46(3) 2.930(3) 115(2) . yes
N6 H6A O2' 0.87(3) 2.33(3) 3.039(3) 140(2) 4_466 yes
loop_
_geom_torsion_atom_site_label_1
_geom_torsion_atom_site_label_2
_geom_torsion_atom_site_label_3
_geom_torsion_atom_site_label_4
_geom_torsion
_geom_torsion_site_symmetry_1
_geom_torsion_site_symmetry_2
_geom_torsion_site_symmetry_3
_geom_torsion_site_symmetry_4
_geom_torsion_publ_flag
N5 O1 N2 C3 -0.2(3) . . . . ?
N2 O1 N5 C4 0.0(3) . . . . ?
O2 N7 N8 N1' 1.4(3) . . . . ?
C4 N7 N8 N1' -179.33(19) . . . . ?
O1 N2 C3 N6 178.7(3) . . . . ?
O1 N2 C3 C4 0.4(3) . . . . ?
O1 N5 C4 C3 0.2(3) . . . . ?
O1 N5 C4 N7 -179.3(2) . . . . ?
N2 C3 C4 N5 -0.4(3) . . . . ?
N6 C3 C4 N5 -178.6(3) . . . . ?
N2 C3 C4 N7 179.0(2) . . . . ?
N6 C3 C4 N7 0.8(5) . . . . ?
O2 N7 C4 N5 13.4(3) . . . . ?
N8 N7 C4 N5 -165.9(2) . . . . ?
O2 N7 C4 C3 -165.9(2) . . . . ?
N8 N7 C4 C3 14.7(4) . . . . ?
N7 N8 N1' N2' 166.4(2) . . . . ?
N7 N8 N1' C5' -8.5(4) . . . . ?
C5' N1' N2' C3' 0.6(2) . . . . ?
N8 N1' N2' C3' -175.7(2) . . . . ?
N1' N2' C3' N4' -0.5(3) . . . . ?
N1' N2' C3' N3' 176.8(2) . . . . ?
C5' N4' C3' N2' 0.3(3) . . . . ?
C5' N4' C3' N3' -177.1(2) . . . . ?
O1' N3' C3' N2' 3.0(4) . . . . ?
O2' N3' C3' N2' -176.2(2) . . . . ?
O1' N3' C3' N4' -179.7(2) . . . . ?
O2' N3' C3' N4' 1.2(3) . . . . ?
C3' N4' C5' N1' 0.1(3) . . . . ?
N2' N1' C5' N4' -0.4(3) . . . . ?
N8 N1' C5' N4' 174.6(2) . . . . ?
