#------------------------------------------------------------------------------
#$Date: 2021-09-06 13:27:30 +0300 (Mon, 06 Sep 2021) $
#$Revision: 268664 $
#$URL: file:///home/coder/svn-repositories/cod/cif/7/24/31/7243102.cif $
#------------------------------------------------------------------------------
#
# This file is available in the Crystallography Open Database (COD),
# http://www.crystallography.net/
#
# All data on this site have been placed in the public domain by the
# contributors.
#
data_7243102
loop_
_publ_author_name
'Qiu, Qi-Ming'
'Yang, Guo-Yu'
_publ_section_title
;
 From [B6O13]8&#x2212; to [GaB5O13]8&#x2212; to
 [Ga{B5O9(OH)}{BO(OH)2}]2&#x2212;: synthesis, structure and nonlinear
 optical properties of new metal borates
;
_journal_issue                   30
_journal_name_full               CrystEngComm
_journal_page_first              5200
_journal_page_last               5207
_journal_paper_doi               10.1039/D1CE00719J
_journal_volume                  23
_journal_year                    2021
_chemical_formula_sum            'C2 H10 B5 Ga N2 O10'
_chemical_formula_weight         345.89
_space_group_crystal_system      monoclinic
_space_group_IT_number           7
_space_group_name_Hall           'P -2yc'
_space_group_name_H-M_alt        'P 1 c 1'
_atom_sites_solution_hydrogens   geom
_audit_creation_method           SHELXL-2018/3
_audit_update_record
;
2021-04-15 deposited with the CCDC.	2021-06-22 downloaded from the CCDC.
;
_cell_angle_alpha                90
_cell_angle_beta                 97.192(18)
_cell_angle_gamma                90
_cell_formula_units_Z            2
_cell_length_a                   6.686(5)
_cell_length_b                   8.082(6)
_cell_length_c                   10.485(8)
_cell_measurement_reflns_used    422
_cell_measurement_temperature    296(2)
_cell_measurement_theta_max      25.00
_cell_measurement_theta_min      3.07
_cell_volume                     562.1(7)
_computing_cell_refinement       'Bruker SAINT'
_computing_data_collection       'Bruker APEX2'
_computing_data_reduction        'Bruker SAINT'
_computing_molecular_graphics    'Bruker SHELXTL'
_computing_publication_material  'Bruker SHELXTL'
_computing_structure_refinement  'SHELXL-2018/3 (Sheldrick, 2018)'
_computing_structure_solution    'SHELXL-2018/3 (Sheldrick, 2018)'
_diffrn_ambient_temperature      296(2)
_diffrn_measured_fraction_theta_full 0.960
_diffrn_measured_fraction_theta_max 0.960
_diffrn_measurement_device_type  'CCD area detector'
_diffrn_measurement_method       'phi and omega scans'
_diffrn_radiation_type           MoK\a
_diffrn_radiation_wavelength     0.71073
_diffrn_reflns_av_R_equivalents  0.0516
_diffrn_reflns_av_unetI/netI     0.0947
_diffrn_reflns_Laue_measured_fraction_full 0.960
_diffrn_reflns_Laue_measured_fraction_max 0.960
_diffrn_reflns_limit_h_max       7
_diffrn_reflns_limit_h_min       -7
_diffrn_reflns_limit_k_max       9
_diffrn_reflns_limit_k_min       -9
_diffrn_reflns_limit_l_max       5
_diffrn_reflns_limit_l_min       -12
_diffrn_reflns_number            1483
_diffrn_reflns_point_group_measured_fraction_full 0.505
_diffrn_reflns_point_group_measured_fraction_max 0.505
_diffrn_reflns_theta_full        25.045
_diffrn_reflns_theta_max         25.045
_diffrn_reflns_theta_min         3.192
_diffrn_source                   'fine-focus sealed tube'
_exptl_absorpt_coefficient_mu    2.500
_exptl_absorpt_correction_type   multi-scan
_exptl_absorpt_process_details   sadabs
_exptl_crystal_colour            colorless
_exptl_crystal_density_diffrn    2.043
_exptl_crystal_description       block
_exptl_crystal_F_000             344
_exptl_crystal_size_max          0.080
_exptl_crystal_size_mid          0.050
_exptl_crystal_size_min          0.050
_exptl_transmission_factor_max   0.746
_exptl_transmission_factor_min   0.541
_refine_diff_density_max         0.782
_refine_diff_density_min         -0.836
_refine_diff_density_rms         0.148
_refine_ls_abs_structure_details
;
 Classical Flack method preferred over Parsons because s.u. lower.
;
_refine_ls_abs_structure_Flack   0.03(4)
_refine_ls_extinction_method     none
_refine_ls_goodness_of_fit_ref   1.054
_refine_ls_hydrogen_treatment    constr
_refine_ls_matrix_type           full
_refine_ls_number_parameters     183
_refine_ls_number_reflns         1004
_refine_ls_number_restraints     20
_refine_ls_restrained_S_all      1.046
_refine_ls_R_factor_all          0.0677
_refine_ls_R_factor_gt           0.0554
_refine_ls_shift/su_max          0.000
_refine_ls_shift/su_mean         0.000
_refine_ls_structure_factor_coef Fsqd
_refine_ls_weighting_details
'w=1/[\s^2^(Fo^2^)+(0.0619P)^2^+0.0525P] where P=(Fo^2^+2Fc^2^)/3'
_refine_ls_weighting_scheme      calc
_refine_ls_wR_factor_gt          0.1212
_refine_ls_wR_factor_ref         0.1299
_reflns_Friedel_coverage         0.048
_reflns_Friedel_fraction_full    0.047
_reflns_Friedel_fraction_max     0.047
_reflns_number_gt                860
_reflns_number_total             1004
_reflns_threshold_expression     'I > 2\s(I)'
_cod_data_source_file            d1ce00719j2.cif
_cod_data_source_block           1_b
_cod_depositor_comments
'Adding full bibliography for 7243100--7243102.cif.'
_cod_original_cell_volume        562.2(7)
_cod_original_sg_symbol_H-M      'P c'
_cod_database_code               7243102
_shelx_shelxl_version_number     2018/3
_shelx_space_group_comment
;
The symmetry employed for this shelxl refinement is uniquely defined
by the following loop, which should always be used as a source of
symmetry information in preference to the above space-group names.
They are only intended as comments.
;
_shelx_estimated_absorpt_t_min   0.825
_shelx_estimated_absorpt_t_max   0.885
_shelx_res_file
;
TITL 1_b.res in Pc
    1_b.res
    created by SHELXL-2018/3 at 17:08:13 on 18-Dec-2020
CELL  0.71073   6.6864   8.0825  10.4848   90.000   97.192   90.000
ZERR    2.000   0.0049   0.0058   0.0079    0.000    0.018    0.000
LATT -1
SYMM X, -Y, 1/2+Z
SFAC C  H  B  Ga N  O
UNIT 4  20  10  2  4  20
OMIT -1 50.1
L.S. 20
ACTA
BOND $H
FMAP 2
PLAN 5
size 0.08 0.05 0.05
ISOR 0.01 B3 B4 B1
TEMP 23.000
WGHT    0.061900    0.052500
FVAR       0.88344
B5    3    1.086133    0.311313    0.359871    11.00000    0.00906    0.02669 =
         0.02091   -0.00515    0.00389   -0.00652
GA    4    0.957935    0.804834    0.595381    11.00000    0.01387    0.01609 =
         0.02630    0.00110    0.00415    0.00099
O8    6    0.233578    0.204826    0.105572    11.00000    0.01320    0.01894 =
         0.02035   -0.00454    0.00420   -0.00241
O10   6    0.919030    0.281245    0.251990    11.00000    0.01407    0.01750 =
         0.02202   -0.01030    0.00342   -0.00215
O6    6    0.878910    0.017529    0.578070    11.00000    0.02268    0.01759 =
         0.04604    0.00339    0.00650    0.00053
O2    6    1.050131    0.474250    0.417416    11.00000    0.01499    0.03301 =
         0.03882   -0.01066    0.00596    0.00176
O7    6    0.555633    0.252099    0.200845    11.00000    0.01071    0.02391 =
         0.02961   -0.00810    0.00744   -0.00654
N1    5    0.452659    0.114201    0.576125    11.00000    0.02408    0.00812 =
         0.02703    0.00496    0.01084   -0.00025
AFIX 137
H1E   2    0.478023    0.012018    0.605410    11.00000   -1.50000
H1D   2    0.535091    0.138693    0.518451    11.00000   -1.50000
H1C   2    0.325444    0.120582    0.539460    11.00000   -1.50000
AFIX   0
O1    6    0.829310    0.691278    0.462570    11.00000    0.01702    0.01600 =
         0.04041   -0.00053   -0.00336    0.00529
O3    6    0.698489    0.458744    0.349105    11.00000    0.01412    0.01221 =
         0.04154   -0.00941    0.00602   -0.00712
O5    6    1.077185    0.176188    0.452532    11.00000    0.01362    0.02994 =
         0.04459    0.00688    0.01031    0.00079
B4    3    0.354563    0.258250    0.211224    11.00000    0.01425    0.01100 =
         0.02608   -0.00157    0.00619   -0.00309
N2    5    0.397768    0.319034    0.890918    11.00000    0.01782    0.03175 =
         0.03394   -0.00134    0.00878    0.00558
AFIX 137
H2E   2    0.386804    0.421609    0.859963    11.00000   -1.50000
H2D   2    0.522238    0.302984    0.930017    11.00000   -1.50000
H2C   2    0.309835    0.304445    0.947013    11.00000   -1.50000
AFIX   0
B1    3    0.864301    0.540431    0.412619    11.00000    0.02252    0.02671 =
         0.02303    0.00732    0.01113    0.01315
B3    3    0.891896    0.119129    0.481391    11.00000    0.01643    0.00258 =
         0.03182   -0.00060    0.00947   -0.00207
B2    3    0.713314    0.294758    0.304865    11.00000    0.01050    0.01988 =
         0.02575    0.00169    0.00466   -0.00866
C2    1    0.485235    0.233830    0.685260    11.00000    0.03395    0.03034 =
         0.04803   -0.00494    0.02213   -0.00167
AFIX  23
H2A   2    0.625151    0.228717    0.723015    11.00000   -1.20000
H2B   2    0.459128    0.345001    0.652486    11.00000   -1.20000
AFIX   0
O9    6    0.282518    0.313927    0.318840    11.00000    0.01063    0.02455 =
         0.03056   -0.00844    0.00676   -0.00245
O4    6    0.718852    0.169129    0.408198    11.00000    0.00864    0.03915 =
         0.04290    0.00835    0.00398    0.00871
C1    1    0.355753    0.200837    0.785370    11.00000    0.07192    0.02596 =
         0.03632   -0.00798    0.02977   -0.01448
AFIX  23
H1A   2    0.215402    0.209403    0.749068    11.00000   -1.20000
H1B   2    0.379375    0.089216    0.817779    11.00000   -1.20000
AFIX   0
HKLF 4




REM  1_b.res in Pc
REM wR2 = 0.1299, GooF = S = 1.054, Restrained GooF = 1.046 for all data
REM R1 = 0.0554 for 860 Fo > 4sig(Fo) and 0.0677 for all 1004 data
REM 183 parameters refined using 20 restraints

END

WGHT      0.0617      0.0656

REM Highest difference peak  0.782,  deepest hole -0.836,  1-sigma level  0.148
Q1    1   0.9798  0.7164  0.5361  11.00000  0.05    0.78
Q2    1   0.9635  0.8980  0.5305  11.00000  0.05    0.72
Q3    1   0.9209  0.7151  0.6468  11.00000  0.05    0.70
Q4    1   0.8170  0.5915  0.2868  11.00000  0.05    0.54
Q5    1   0.9588  0.8872  0.6652  11.00000  0.05    0.53
;
_shelx_res_checksum              46727
_shelx_hkl_file
;
   2   0   0 4258.97  209.08
  -2   0   0 4333.67  207.98
  -3   0   0 1288.87   72.79
  -4   0   0  829.22   56.69
  -5   0   0  757.12   58.09
  -6   0   0  296.77   45.40
  -7   0   0  430.86   60.89
  -8   0   0  647.74   81.79
  -9   0   0  130.59   62.89
  -1   1   0   56.19   10.50
   2  -1   0  859.61   53.79
   2   1   0  977.70   50.99
  -2   1   0  866.31   53.39
  -3  -1   0  462.35   31.40
   3   1   0  417.26   33.70
  -3   1   0  428.06   35.80
  -4  -1   0  369.36   32.70
  -4   1   0  371.16   42.40
  -5  -1   0  178.08   29.50
  -5   1   0  131.99   30.00
  -6  -1   0  185.78   35.00
  -6   1   0  138.99   32.40
  -7  -1   0   20.70   22.70
  -7   1   0  -15.80   25.10
  -8  -1   0   71.19   32.80
  -8   1   0   59.69   39.10
  -9   1   0   59.99   41.00
   0  -2   0 9999.00  467.55
   0   2   0 9940.91  468.55
   1  -2   0  433.16   27.90
  -1   2   0  324.47   28.30
  -2   2   0 1087.69   66.09
  -3   2   0 1362.56   83.09
  -4   2   0  500.65   46.70
  -5  -2   0 1216.38   75.49
  -5   2   0 1240.18   87.39
  -6  -2   0  502.75   53.39
  -6   2   0  527.15   66.29
  -7  -2   0  547.45   65.79
  -7   2   0  600.64   77.69
  -8   2   0  207.58   50.49
  -9   2   0   70.09   48.80
   0  -3   0 2013.60  102.59
   0   3   0 2079.29  105.19
   1  -3   0 1288.77   71.39
  -1   3   0 1278.97   74.79
  -2   3   0 1185.78   74.99
  -3   3   0  954.90   68.19
  -4   3   0 1440.86   95.99
  -5   3   0  441.26   62.69
  -6   3   0  125.09   40.20
  -7   3   0  137.29   42.10
  -8   3   0  341.17   67.59
  -9   3   0   28.40   40.50
   0  -4   0 1467.95   76.99
   0   4   0 1418.76   80.69
  -1   4   0  320.27   36.90
  -2   4   0   93.69   22.60
  -3   4   0  281.37   42.20
  -4   4   0   -5.90   14.90
  -5   4   0   95.19   32.50
  -6   4   0   46.30   28.00
  -7   4   0   70.89   37.40
  -8   4   0   48.90   42.80
   0   5   0  273.87   33.10
  -1   5   0  866.71   62.19
  -2   5   0  426.26   50.19
  -3   5   0  807.82   69.49
  -4   5   0  648.44   75.19
  -5   5   0  555.54   73.99
  -6   5   0  177.58   49.00
  -7   5   0  349.96   73.49
  -8   5   0  178.88   59.29
   0   6   0  546.05   46.90
  -1   6   0  603.04   53.49
  -2   6   0   -0.10   18.50
  -3   6   0  116.19   38.80
  -4   6   0   32.20   27.80
  -5   6   0   17.30   27.90
  -6   6   0   71.49   44.90
  -7   6   0  174.18   65.29
  -1   7   0   78.59   25.40
  -2   7   0  183.28   42.50
  -3   7   0  127.49   40.50
  -4   7   0  197.48   55.19
  -5   7   0  153.08   50.59
  -6   7   0   85.49   56.19
  -7   7   0  101.59   59.59
  -1   8   0  334.77   51.09
  -2   8   0   70.99   32.00
  -3   8   0  385.16   69.39
  -4   8   0  326.67   70.69
  -5   8   0  162.68   60.09
  -6   8   0  224.98   78.29
  -1   9   0   11.10   25.40
  -2   9   0   22.40   30.10
  -3   9   0  -26.30   32.10
  -4   9   0  -20.90   41.00
  -5   9   0   88.09   52.69
  -3  10   0  121.29   53.99
  -4  10   0   49.20   54.79
  -5  10   0  110.79   83.49
  -8   0   1   18.40   32.90
  -7   0   1  -20.90   21.10
  -6   0   1    1.90   17.70
  -5   0   1    0.70   14.90
  -4   0   1  -14.60   11.70
  -3   0   1   -8.20    8.20
   2   0  -1   -4.30    6.20
  -2   0   1    9.80    8.70
   1   0  -1    4.50    6.10
  -1   0   1  -12.50    5.40
   0   0   1   -1.10    0.80
   0   0  -1    0.30    1.00
   1   0   1   -4.30    6.70
  -1   0  -1   -2.80    5.50
   2   0   1   -3.10    8.20
  -2   0  -1   -7.90    6.90
  -3   0  -1   -1.30    8.40
  -4   0  -1  -10.10    9.80
  -5   0  -1    1.20   13.40
  -6   0  -1  -21.20   15.10
  -7   0  -1   -5.90   20.60
  -8   0  -1   13.20   28.70
  -9   0  -1   30.50   37.50
  -9   1   1   36.00   45.30
  -8  -1   1  240.18   53.29
  -8   1   1  179.08   50.79
  -7  -1   1  772.32   71.69
  -7   1   1  864.11   78.79
  -6  -1   1   35.30   20.90
  -6   1   1   21.30   22.70
  -5  -1   1  205.98   32.80
  -5   1   1  228.68   37.60
  -4  -1   1 1480.35   83.79
  -4   1   1 1378.96   89.49
  -3  -1   1 5672.33  267.97
  -3   1   1 5574.44  274.57
   3   1  -1 5308.47  266.17
   2  -1  -1 2688.23  134.59
  -2   1   1 2561.44  135.89
   0  -1  -1 4441.76  247.38
   0  -1   1 5987.10  248.08
   0   1   1 5257.17  248.78
  -1  -1  -1 3465.05  168.28
  -1   1  -1 3365.16  170.88
   1   1   1 3645.94  167.78
   2  -1   1 1212.38   75.39
  -2  -1  -1 1458.65   71.39
  -2   1  -1 1431.66   74.69
   2   1   1 1158.58   71.29
  -3  -1  -1 2068.39  103.69
   3   1   1 1729.13  110.79
  -3   1  -1 2055.49  108.19
  -4  -1  -1  302.97   32.90
  -4   1  -1  298.87   36.90
  -5  -1  -1 3024.60  163.38
  -5   1  -1 3194.28  170.48
  -6  -1  -1  903.31   68.69
  -6   1  -1  983.00   75.59
  -7  -1  -1  570.64   67.19
  -7   1  -1  706.63   79.49
  -8  -1  -1  388.76   62.09
  -8   1  -1  449.56   70.29
  -9   1  -1   62.99   40.00
  -9   2   1  121.39   52.69
  -8   2   1   25.80   35.00
  -7  -2   1  356.86   55.79
  -7   2   1  375.26   64.39
  -6  -2   1  350.26   45.30
  -6   2   1  208.08   45.20
  -5   2   1  850.31   70.19
  -4   2   1  344.87   45.60
  -3   2   1 1233.68   79.19
  -2   2   1   48.30   15.60
   1  -2  -1  314.77   25.90
  -1   2   1  291.67   30.80
   0  -2  -1   44.80   11.80
   0  -2   1  161.48   15.70
   0   2  -1   95.59   12.40
   1  -2   1 1951.00  100.09
  -1   2  -1 1853.11   98.99
  -2   2  -1  427.76   34.50
  -3   2  -1 1476.25   87.29
  -4  -2  -1  751.32   49.20
  -4   2  -1  814.42   59.19
  -5  -2  -1  300.37   35.80
  -5   2  -1  254.97   41.70
  -6  -2  -1  255.47   38.10
  -6   2  -1  180.28   39.90
  -7  -2  -1  259.37   44.20
  -7   2  -1  237.38   48.90
  -8   2  -1   17.20   32.40
  -9   2  -1   40.30   36.60
  -9   3   1  -41.60   42.50
  -8   3   1   89.49   47.80
  -7   3   1  116.89   44.00
  -6   3   1   36.60   28.90
  -5   3   1  138.09   35.70
  -4   3   1  263.37   42.50
  -3   3   1  600.94   52.69
  -2   3   1  739.23   55.79
   1  -3  -1  546.55   40.10
  -1   3   1  573.84   43.90
   0  -3  -1 3166.28  159.48
   0  -3   1 3064.69  156.88
   0   3  -1 3370.06  157.48
   1  -3   1  137.39   21.70
  -2   3  -1  750.22   52.79
  -3   3  -1 1144.19   75.39
  -4   3  -1  241.18   38.00
  -5   3  -1  383.76   55.39
  -6   3  -1  162.98   43.60
  -7   3  -1   60.09   34.20
  -8   3  -1   70.59   39.20
  -9   3  -1   33.90   44.80
  -8   4   1  141.69   51.09
  -7   4   1  271.67   60.99
  -6   4   1  341.37   60.39
  -5   4   1  920.61   81.69
  -4   4   1 1344.07   98.39
  -3   4   1 2836.32  163.38
  -2   4   1 1547.65   98.09
  -1   4   1  324.17   40.00
   0  -4  -1  649.24   43.10
   0  -4   1  657.03   41.10
   0   4  -1  653.53   42.60
  -1   4  -1 2078.29  113.79
  -2   4  -1  600.24   49.50
  -3   4  -1 1069.09   76.29
  -4   4  -1 1083.29   82.29
  -5   4  -1  208.48   40.90
  -6   4  -1  456.05   67.69
  -7   4  -1  136.09   45.30
  -8   4  -1  270.07   68.89
  -8   5   1   22.20   47.80
  -7   5   1   54.49   43.20
  -6   5   1   41.90   40.30
  -5   5   1   65.89   36.10
  -4   5   1   98.69   35.30
  -3   5   1   12.30   21.90
  -2   5   1    5.80   16.90
  -1   5   1  231.08   37.50
   0   5  -1   36.00   13.90
  -1   5  -1   41.10   16.60
  -2   5  -1   37.50   19.40
  -3   5  -1   66.29   24.70
  -4   5  -1    1.90   17.90
  -5   5  -1   43.30   29.10
  -6   5  -1  187.08   47.60
  -7   5  -1   17.00   32.90
  -8   5  -1   71.69   44.20
  -7   6   1  134.09   58.29
  -6   6   1  503.25   88.89
  -5   6   1  600.24   89.09
  -4   6   1  747.13   91.59
  -3   6   1  133.79   37.80
  -2   6   1  296.17   49.10
  -1   6   1  404.36   50.39
  -1   6  -1  399.06   46.00
  -2   6  -1  629.34   59.29
  -3   6  -1  914.21   78.49
  -4   6  -1  611.54   77.19
  -5   6  -1   20.20   27.20
  -6   6  -1  102.19   43.10
  -7   6  -1   90.79   55.69
  -7   7   1   64.79   61.09
  -6   7   1  302.77   78.59
  -5   7   1   21.60   40.10
  -4   7   1  961.30  113.79
  -3   7   1  593.84   81.19
  -2   7   1  812.32   86.29
  -1   7   1  252.27   42.10
   0  -7  -1  397.36   53.89
  -1   7  -1  158.48   33.30
  -2   7  -1  406.36   57.59
  -3   7  -1   77.19   31.70
  -4   7  -1  160.68   46.40
  -5   7  -1  230.38   57.39
  -6   7  -1  338.27   77.49
  -7   7  -1  136.59   67.09
  -6   8   1   -2.00   51.39
  -5   8   1   -2.30   46.00
  -4   8   1  144.39   54.99
  -3   8   1    8.70   37.10
  -2   8   1   73.89   31.50
   0  -8  -1  112.49   32.50
  -1   8  -1   46.50   26.20
  -2   8  -1   14.70   25.70
  -3   8  -1   35.40   30.80
  -4   8  -1    5.90   34.70
  -5   8  -1  -24.40   35.00
  -6   8  -1    0.90   48.50
  -5   9   1   16.00   51.29
  -4   9   1  230.58   63.39
  -3   9   1  154.58   53.99
  -2   9   1  247.88   53.09
  -1   9  -1  232.08   44.80
  -2   9  -1  202.48   45.40
  -3   9  -1  231.38   57.99
  -4   9  -1  163.08   56.89
  -5   9  -1  106.89   60.79
  -5  10   1  -50.49   64.89
  -4  10   1   71.09   54.89
  -3  10   1   79.19   47.50
  -3  10  -1  -23.90   39.10
  -4  10  -1  -13.50   44.10
  -8   0   2  121.59   45.50
  -7   0   2  314.87   54.59
  -6   0   2 1082.39   83.99
  -5   0   2  591.64   54.99
  -4   0   2 1998.20  116.39
  -3   0   2 6190.38  305.67
   2   0  -2 4552.34  217.38
  -2   0   2 4287.97  219.88
   1   0  -2 5233.48  240.28
  -1   0   2 4706.03  241.38
  -1   0  -2 2791.02  131.29
   1   0   2 2373.56  129.99
  -2   0  -2 4196.08  215.48
   2   0   2 4481.05  218.58
  -3   0  -2 2899.71  151.98
  -4   0  -2 1297.77   79.89
  -5   0  -2 1544.55   94.99
  -6   0  -2  742.63   61.79
  -7   0  -2  437.86   63.69
  -8   0  -2   76.49   34.40
  -9   0  -2  -38.00   31.50
  -9   1   2  -15.40   42.00
  -8  -1   2   33.00   41.20
  -8   1   2   18.80   36.90
  -7  -1   2   34.90   30.20
  -7   1   2   21.40   31.70
  -6  -1   2   16.70   21.00
  -6   1   2   59.19   27.60
  -5  -1   2   35.10   19.20
  -5   1   2   24.80   22.00
  -4  -1   2  279.57   36.60
  -4   1   2  265.07   40.40
  -3  -1   2  232.58   30.20
  -3   1   2  265.27   35.60
   3   1  -2  265.57   23.10
   2  -1  -2  664.73   44.30
   2   1  -2  611.54   40.30
  -2   1   2  619.44   48.00
   2   1  -2  618.74   38.60
  -1  -1   2  920.71   48.30
   1  -1  -2  794.22   55.19
   1   1  -2  862.51   46.40
   0  -1   2 5389.76  253.77
   0  -1  -2 5333.37  254.17
   0   1   2 5159.78  254.57
   0   1  -2 5326.37  254.07
  -1  -1  -2  405.36   27.50
   1   1   2  323.97   24.70
  -1   1  -2  354.36   29.20
  -2  -1  -2  364.36   30.50
  -2   1  -2  325.77   31.30
   2   1   2  375.06   30.70
  -3  -1  -2   96.59   20.20
  -3   1  -2   65.79   16.80
  -4  -1  -2  210.18   29.90
  -4   1  -2  196.58   31.50
  -5  -1  -2  197.68   30.80
  -5   1  -2  198.18   35.40
  -6  -1  -2   39.70   19.90
  -6   1  -2   21.60   21.40
  -7  -1  -2   63.59   28.90
  -7   1  -2   46.70   28.10
  -8  -1  -2   22.90   28.90
  -8   1  -2   80.79   36.70
  -9   1  -2   -8.10   34.10
  -9   2   2   79.39   46.50
  -8   2   2  179.48   60.09
  -7  -2   2  261.87   51.39
  -7   2   2  245.78   56.19
  -6  -2   2  246.88   44.00
  -6   2   2  251.27   49.20
  -5   2   2  115.09   32.80
  -4   2   2 1112.99   81.49
  -3   2   2  673.53   56.19
  -2   2   2  459.05   43.10
   1  -2  -2  989.50   60.49
   0  -2  -2 1639.24   93.99
   0  -2   2 1922.81   92.79
   0   2   2 1707.73   95.79
   0   2  -2 1811.52   92.79
  -1  -2  -2  853.01   45.70
   1  -2   2  672.63   49.10
   1   2   2  722.73   45.10
  -1   2  -2  843.62   50.39
  -2  -2  -2 1402.86   79.99
  -2   2  -2 1395.86   84.39
   2   2   2 1596.64   79.49
  -3  -2  -2 1413.06   81.79
  -3   2  -2 1487.75   88.29
  -4  -2  -2  879.21   55.99
  -4   2  -2  816.82   62.49
  -5  -2  -2  635.34   48.90
  -5   2  -2  628.74   56.29
  -6  -2  -2  266.07   39.40
  -6   2  -2  204.18   43.00
  -7  -2  -2  437.76   56.49
  -7   2  -2  457.15   68.29
  -8   2  -2  207.98   51.99
  -9   2  -2   47.20   39.50
  -9   3   2  111.89   59.19
  -8   3   2  225.18   66.19
  -7   3   2  845.02  102.69
  -6   3   2 1678.63  124.09
  -5   3   2 1275.27   97.79
  -4   3   2  720.43   66.99
  -3   3   2  457.95   55.59
  -2   3   2  410.66   49.20
  -1   3   2 1502.75   91.69
   0  -3   2 1361.76   81.49
   0  -3  -2 1496.25   87.79
   0   3  -2 1689.93   82.19
  -1  -3  -2  431.06   30.80
  -1   3  -2  400.06   34.00
  -2   3  -2 2173.88  120.29
  -3   3  -2 1688.33  101.49
  -4   3  -2  848.82   65.59
  -5   3  -2   75.79   24.50
  -6   3  -2  292.57   50.19
  -7   3  -2  288.07   55.89
  -8   3  -2   92.99   46.40
  -8   4   2   14.10   42.10
  -7   4   2  -39.90   35.50
  -6   4   2  -30.00   22.50
  -5   4   2   68.89   34.10
  -4   4   2    6.20   22.90
  -3   4   2  211.48   42.60
  -2   4   2  166.88   37.40
  -1   4   2  196.88   32.40
   0  -4  -2  556.34   47.90
   0  -4   2  545.15   39.30
   0   4  -2  583.54   38.70
  -1  -4  -2  323.97   29.90
  -1   4  -2  341.97   35.90
  -2   4  -2   14.20   15.10
  -3   4  -2  180.98   31.20
  -4   4  -2   26.90   19.30
  -5   4  -2  259.77   48.60
  -6   4  -2   74.69   35.40
  -7   4  -2   82.59   42.70
  -8   4  -2   25.70   38.90
  -8   5   2  213.28   68.29
  -7   5   2  320.77   75.79
  -6   5   2  541.55   90.39
  -5   5   2  562.14   84.39
  -4   5   2  493.85   71.29
  -3   5   2  904.51   95.99
  -2   5   2  396.86   54.89
  -1   5   2 1358.16   91.69
   0  -5  -2 2839.82  160.18
   0   5  -2 2907.01  148.79
  -1   5  -2 1772.02  102.79
  -2   5  -2  944.51   68.89
  -3   5  -2 1276.37   90.19
  -4   5  -2  506.85   62.69
  -5   5  -2   74.79   30.90
  -6   5  -2   58.39   36.60
  -7   5  -2  138.19   49.20
  -8   5  -2  -22.30   37.80
  -7   6   2  119.29   60.39
  -6   6   2  209.18   68.19
  -5   6   2  120.49   50.19
  -4   6   2  192.98   51.79
  -3   6   2  389.96   67.79
  -2   6   2   81.89   33.00
   0  -6  -2  378.16   50.29
   0   6  -2  424.26   37.80
  -1   6  -2  265.37   37.50
  -2   6  -2  351.66   47.90
  -3   6  -2  365.56   55.59
  -4   6  -2  155.28   42.70
  -5   6  -2  100.09   41.90
  -6   6  -2   50.99   37.00
  -7   6  -2   14.30   38.10
  -7   7   2  211.78   84.89
  -6   7   2  194.18   72.69
  -5   7   2  176.48   66.79
  -4   7   2  345.97   75.49
  -3   7   2  155.68   49.80
  -2   7   2    3.50   24.90
   0  -7  -2  410.36   52.59
  -1   7  -2  210.38   36.40
  -2   7  -2   72.99   28.00
  -3   7  -2  314.77   53.49
  -4   7  -2  265.77   56.79
  -5   7  -2   99.99   42.70
  -6   7  -2   85.39   48.20
  -6   8   2  172.78   76.49
  -5   8   2  234.58   77.39
  -4   8   2  156.88   53.89
  -3   8   2  405.76   72.89
   1  -8  -2  658.23   85.99
   0  -8  -2   32.90   25.20
  -1   8  -2  394.16   52.99
  -2   8  -2  196.38   42.20
  -3   8  -2  322.37   56.99
  -4   8  -2  260.87   55.99
  -5   8  -2  294.77   68.99
  -6   8  -2  163.98   61.79
  -5   9   2   21.00   55.69
  -4   9   2   -2.50   42.60
  -3   9   2   -1.70   34.10
   1  -9  -2   -3.70   26.70
  -1   9  -2   -1.50   23.20
  -2   9  -2   49.40   33.10
  -3   9  -2    5.20   29.70
  -4   9  -2    9.00   39.00
  -5   9  -2   52.99   48.50
  -3  10  -2  140.99   55.09
  -4  10  -2  126.39   57.39
  -8   0   3    0.10   34.00
  -7   0   3   -3.80   29.60
  -6   0   3   48.40   28.00
  -5   0   3   10.50   20.20
  -4   0   3  -13.80   18.30
  -3   0   3    6.50   15.70
   2   0  -3    7.30   12.60
   2   0  -3  -13.30    9.50
  -1   0   3   -7.80    7.80
   1   0  -3   -0.90    8.70
   0   0  -3  -12.10    6.00
   0   0   3   -3.90    2.90
   1   0   3  -13.10    6.20
  -1   0  -3  -12.00    7.30
  -2   0  -3   -5.60   10.50
  -3   0  -3   -3.20   10.20
  -4   0  -3    8.40   12.80
  -5   0  -3    9.80   15.60
  -6   0  -3    9.90   17.70
  -7   0  -3   -3.50   19.30
  -8   0  -3   37.20   30.20
  -9   0  -3    3.50   35.30
  -9   1   3  283.77   73.89
  -8   1   3  415.86   77.89
  -7  -1   3  523.25   74.39
  -7   1   3  219.88   53.99
  -6  -1   3  220.48   46.80
  -6   1   3  256.17   54.79
  -5  -1   3  938.01   76.59
  -5   1   3 1137.29   85.69
  -4  -1   3  636.54   55.79
  -4   1   3  784.92   65.19
   3   1  -3  897.91   56.19
   3   1  -3  990.60   60.69
  -3   1   3  817.32   66.99
   2   1  -3  260.47   23.90
   1  -1  -3 3961.80  200.48
  -1  -1   3 3925.51  195.58
   1   1  -3 4099.19  194.28
   0  -1  -3 1050.49   60.29
   0  -1   3 1026.70   59.09
   0   1  -3 1080.39   60.89
  -1  -1  -3 1608.44   88.99
  -1   1  -3 1753.22   93.19
   1   1   3 1581.54   87.49
  -2  -1  -3 1199.98   74.89
  -2   1  -3 1329.77   78.49
  -3  -1  -3 1534.75   88.79
  -3   1  -3 1407.96   89.69
  -4  -1  -3 1473.55   90.99
  -4   1  -3 1494.95   93.09
  -5  -1  -3  183.78   32.50
  -5   1  -3  206.68   38.30
  -6  -1  -3  409.96   50.69
  -6   1  -3  471.65   59.99
  -7  -1  -3  479.05   60.19
  -7   1  -3  439.56   63.29
  -8  -1  -3  318.97   56.19
  -8   1  -3  217.68   52.29
  -9   1  -3  105.39   45.40
  -9   2   3   73.59   53.99
  -8   2   3   70.19   47.70
  -7   2   3  477.75   80.99
  -6   2   3  118.49   43.50
  -5   2   3  129.99   39.70
  -4   2   3  388.06   56.39
  -3   2   3  710.23   62.49
  -2   2   3  120.19   27.50
  -1  -2   3 1550.04   80.09
   1  -2  -3 1501.15   91.69
   1   2  -3 1541.35   81.09
   0  -2   3 4583.84  230.78
   0  -2  -3 4795.12  233.08
   0   2   3 4915.51  236.68
   0   2  -3 4573.04  231.68
  -1  -2  -3  909.91   54.69
  -1   2  -3  886.31   58.89
   1   2   3  904.01   54.69
  -2  -2  -3  589.54   44.50
  -2   2  -3  710.53   50.69
  -3  -2  -3  539.45   45.00
  -3   2  -3  569.24   47.60
  -4  -2  -3  258.87   35.30
  -4   2  -3  145.89   30.80
  -5  -2  -3  552.14   46.70
  -5   2  -3  607.54   69.19
  -6  -2  -3   84.49   25.30
  -6   2  -3   69.59   28.00
  -7  -2  -3  129.79   33.50
  -7   2  -3  138.99   40.20
  -8   2  -3   92.79   40.20
  -9   2  -3   85.39   68.29
  -9   3   3   48.90   52.39
  -8   3   3   71.49   51.29
  -7   3   3  129.39   50.69
  -6   3   3  234.78   57.69
  -5   3   3  205.78   46.40
  -4   3   3  420.76   61.69
  -3   3   3  478.15   66.09
  -2   3   3  326.57   48.10
   1  -3  -3  258.57   41.00
   0  -3   3  242.98   27.50
   0  -3  -3  299.27   35.60
   0   3  -3  274.07   30.20
  -1  -3  -3  159.48   22.50
  -1   3  -3  229.78   29.80
  -2  -3  -3  121.89   22.10
  -2   3  -3  102.59   24.30
  -3  -3  -3   31.80   15.70
  -3   3  -3   38.40   16.60
  -4  -3  -3  403.36   42.50
  -4   3  -3  309.77   44.00
  -5  -3  -3  150.88   26.50
  -5   3  -3  114.69   30.60
  -6  -3  -3  172.98   31.10
  -6   3  -3  183.48   41.90
  -7   3  -3    3.00   26.00
  -8   3  -3   61.29   32.40
  -8   4   3  312.57   75.19
  -7   4   3  426.56   83.39
  -6   4   3  302.67   62.59
  -5   4   3  328.57   65.09
  -4   4   3 1320.27  105.59
  -3   4   3  657.33   79.89
  -2   4   3  667.13   73.49
   1  -4  -3 2564.94  151.58
   0  -4  -3 7134.49  350.56
   0   4  -3 6980.90  341.87
  -1  -4  -3  754.42   51.89
  -1   4  -3  740.63   53.59
  -2  -4  -3  982.90   62.69
  -2   4  -3 1088.69   71.89
  -3   4  -3  886.61   67.69
  -4   4  -3  452.05   54.59
  -5   4  -3  296.37   51.29
  -6   4  -3  157.38   42.30
  -7   4  -3  229.58   53.69
  -8   4  -3  209.58   56.19
  -8   5   3   16.10   45.10
  -7   5   3    8.60   43.10
  -6   5   3   31.80   44.30
  -5   5   3   19.60   38.00
  -4   5   3  346.27   64.69
  -3   5   3  129.59   41.80
  -2   5   3   12.30   23.00
   1  -5  -3  205.48   44.50
   0  -5  -3  188.38   36.70
   0   5  -3  164.08   25.50
  -1  -5  -3  268.07   35.70
  -1   5  -3  290.87   37.60
  -2   5  -3    5.20   15.40
  -3   5  -3   47.90   22.90
  -4   5  -3   42.00   23.60
  -5   5  -3  156.88   40.50
  -6   5  -3   19.10   30.00
  -7   5  -3   -2.00   31.60
  -7   6   3  273.47   81.59
  -6   6   3  290.87   76.19
  -5   6   3  161.18   58.39
  -4   6   3  680.33   96.99
  -3   6   3  815.82   99.19
   1  -6  -3  238.38   48.60
   0  -6  -3 1629.54  106.99
   0   6  -3 1633.14   94.79
  -1  -6  -3  414.76   47.70
  -1   6  -3  347.47   43.20
  -2   6  -3  829.32   67.49
  -3   6  -3  158.38   37.10
  -4   6  -3  377.26   59.89
  -5   6  -3  248.78   52.59
  -6   6  -3  134.29   50.49
  -7   6  -3  138.99   53.09
  -7   7   3   33.60   71.89
  -6   7   3  212.28   75.59
  -5   7   3  388.56   86.39
  -4   7   3  267.17   69.29
  -3   7   3  354.96   67.29
   1  -7  -3  295.47   55.09
   0  -7  -3  635.64   71.49
  -1   7  -3  132.09   30.50
  -2   7  -3  449.56   58.59
  -3   7  -3  241.48   48.10
  -4   7  -3  318.57   57.99
  -5   7  -3   45.40   37.00
  -6   7  -3   61.59   39.50
  -6   8   3  -54.19   52.49
  -5   8   3   23.30   48.40
  -4   8   3   70.49   48.50
   2  -8  -3   78.09   33.80
   1  -8  -3  164.28   43.50
   0  -8  -3  201.48   43.00
  -1   8  -3  104.09   32.00
  -2   8  -3  116.59   35.70
  -3   8  -3  120.39   42.50
  -4   8  -3   12.50   33.40
  -5   8  -3   41.40   40.20
  -6   8  -3   45.10   48.60
  -5   9   3   64.69   62.19
   2  -9  -3  341.27   68.09
   1  -9  -3  147.39   41.50
  -2   9  -3  122.19   41.00
  -3   9  -3  106.29   42.30
  -4   9  -3  152.18   50.79
  -5   9  -3  132.19   57.39
   4 -10  -3  264.57   79.79
   3 -10  -3   46.40   45.70
  -3  10  -3  -12.50   40.40
  -4  10  -3   29.80   50.49
  -8   0   4  349.47   73.59
  -7   0   4  540.65   81.99
  -6   0   4  616.44   78.69
   3   0  -4 3381.06  180.38
   2   0  -4 1452.25   84.89
   1   0  -4  538.45   39.00
   0   0  -4 2032.10  108.09
  -1   0  -4  772.42   52.79
  -2   0  -4  213.98   31.70
  -3   0  -4  713.93   57.69
  -4   0  -4 1549.64   98.79
  -5   0  -4  113.09   28.10
  -6   0  -4  623.94   58.49
  -7   0  -4  217.48   42.60
  -8   0  -4  155.38   46.00
  -9   0  -4  109.99   45.00
  -9   1   4  -14.20   44.90
  -8   1   4   -6.60   42.60
  -7   1   4   56.19   37.90
  -6   1   4  111.19   42.80
  -5   1   4    9.20   25.20
  -4   1   4  293.67   49.60
   4   1  -4  298.87   38.50
   3  -1  -4  467.15   54.79
   3   1  -4  455.05   38.50
   2  -1  -4  898.01   64.89
   2   1  -4  976.40   57.89
   1  -1  -4  254.37   29.40
   1   1  -4  218.08   24.30
   0  -1  -4  566.14   40.70
   0   1  -4  576.94   41.80
  -1  -1  -4  407.96   33.80
  -1   1  -4  311.97   36.70
  -2  -1  -4 1115.79   73.99
  -2   1  -4 1241.18   77.79
  -3  -1  -4  113.79   27.00
  -3   1  -4  125.59   27.60
  -4  -1  -4   44.90   19.90
  -4   1  -4   31.00   18.10
  -5  -1  -4  190.18   33.20
  -5   1  -4  157.18   33.80
  -6  -1  -4   70.39   26.90
  -6   1  -4   12.60   22.60
  -7  -1  -4    4.30   22.30
  -7   1  -4    8.30   25.30
  -8  -1  -4   -5.30   24.60
  -8   1  -4   10.40   36.10
  -9   1  -4   -6.50   45.40
  -9   2   4  442.66   94.09
  -8   2   4   88.39   47.00
  -7   2   4  340.67   76.39
  -6   2   4  719.23   90.99
   6   2  -4  431.36   50.89
  -5   2   4  408.66   64.39
   5   2  -4  362.26   41.70
  -4   2   4  845.62   76.99
   3   2  -4 1004.60   60.69
  -2  -2   4  246.08   28.10
   2  -2  -4  243.98   38.60
   2   2  -4  321.77   25.80
   1  -2  -4 2526.35  134.49
  -1  -2   4 2315.07  124.29
   1   2  -4 2450.45  125.79
   0  -2  -4   15.20   12.40
   0   2  -4    4.70   10.40
  -1  -2  -4  965.40   61.79
  -1   2  -4 1007.40   66.89
  -2  -2  -4   60.49   19.10
  -2   2  -4   95.19   24.00
  -3  -2  -4  926.31   65.99
  -3   2  -4  888.01   67.59
  -4  -2  -4  735.63   58.19
  -4   2  -4  708.63   60.19
  -5  -2  -4  180.38   35.70
  -5   2  -4  211.78   41.40
  -6  -2  -4  386.26   48.90
  -6   2  -4  387.76   56.89
  -7  -2  -4  101.39   29.50
  -7   2  -4   64.49   34.70
  -8   2  -4   57.79   36.50
  -9   3   4   70.69   57.89
  -8   3   4  222.88   69.59
  -7   3   4  405.36   78.39
  -6   3   4  304.87   62.99
  -5   3   4  509.45   78.29
  -4   3   4 2068.79  140.99
   2  -3  -4  669.53   62.79
  -1  -3   4 1312.67   71.29
   1  -3  -4 1301.57   85.69
   1   3  -4 1236.38   74.19
   0  -3  -4  934.31   63.89
   0   3  -4  938.11   62.19
  -1  -3  -4  872.91   56.29
  -1   3  -4  761.72   57.79
  -2  -3  -4  546.75   45.60
  -2   3  -4  625.24   51.39
  -3  -3  -4  511.65   45.70
  -3   3  -4  542.95   49.99
  -4  -3  -4  573.94   49.70
  -4   3  -4  582.34   68.69
  -5  -3  -4  819.42   62.09
  -5   3  -4  831.52   71.29
  -6  -3  -4  304.07   41.40
  -6   3  -4  270.97   50.69
  -7   3  -4  151.38   42.90
  -8   3  -4  147.59   49.40
  -8   4   4   81.09   55.09
  -7   4   4  -18.30   35.60
  -6   4   4   18.20   33.20
  -5   4   4    5.00   33.70
  -4   4   4  217.98   53.79
   2  -4  -4   91.49   34.80
   1  -4  -4  797.42   67.39
   0  -4  -4   62.39   21.70
   0   4  -4   26.60   15.10
  -1  -4  -4  408.46   44.40
  -1   4  -4  424.06   46.20
  -2  -4  -4   94.89   22.40
  -2   4  -4  129.59   27.30
  -3  -4  -4   83.79   22.20
  -3   4  -4  135.39   31.80
  -4  -4  -4   80.09   23.50
  -4   4  -4   46.10   24.50
  -5  -4  -4   79.49   25.20
  -5   4  -4  139.99   37.30
  -6   4  -4  -13.90   20.30
  -7   4  -4   -4.60   27.50
  -8   4  -4   65.69   61.59
  -8   5   4   96.49   60.99
  -7   5   4  212.28   66.99
  -6   5   4  127.09   59.19
  -5   5   4  140.89   52.39
  -4   5   4 1101.59  121.79
   2  -5  -4  990.60   90.79
   1  -5  -4 1193.18   91.39
   0  -5  -4 1093.99   79.59
   0   5  -4 1118.09   70.99
  -1  -5  -4 1927.11  112.29
  -1   5  -4 1901.61  112.79
  -2  -5  -4 1067.79   72.49
  -2   5  -4 1257.07   82.99
  -3   5  -4  903.71   73.19
  -4   5  -4  305.37   49.50
  -5   5  -4  575.04   75.79
  -6   5  -4   72.49   33.20
  -7   5  -4  104.09   45.60
  -7   6   4   51.19   48.00
  -6   6   4    0.30   47.10
  -5   6   4  227.18   72.29
  -4   6   4   57.89   43.80
   2  -6  -4  231.18   52.39
   1  -6  -4   42.50   27.40
   0  -6  -4  546.25   64.69
   0   6  -4  472.85   42.80
  -1  -6  -4   28.00   20.60
  -1   6  -4   66.89   23.20
  -2  -6  -4  182.18   29.40
  -2   6  -4  169.38   33.60
  -3   6  -4  129.99   33.30
  -4   6  -4   78.69   29.10
  -5   6  -4   73.99   36.40
  -6   6  -4   47.70   33.50
  -7   6  -4   91.89   53.09
  -7   7   4  101.19   82.99
  -6   7   4   41.10   58.29
  -5   7   4  204.18   72.29
   2  -7  -4  187.68   54.19
   1  -7  -4  290.17   54.69
   0  -7  -4  309.97   52.29
   0   7  -4  232.88   35.10
  -1  -7  -4  385.86   50.39
  -1   7  -4  395.26   52.29
  -2   7  -4  212.68   43.40
  -3   7  -4  326.17   54.79
  -4   7  -4   98.09   39.10
  -5   7  -4   64.09   38.70
  -6   7  -4   85.59   48.00
  -6   8   4   47.00   71.49
   3  -8  -4  444.56   83.99
   2  -8  -4  146.39   47.20
   1  -8  -4  158.18   46.70
   0  -8  -4  577.24   72.59
  -1   8  -4  162.68   36.90
  -2   8  -4  203.68   46.80
  -3   8  -4  433.26   68.89
  -4   8  -4  210.78   55.09
  -5   8  -4  216.88   55.79
   4  -9  -4   32.30   42.60
   3  -9  -4   11.70   41.20
   2  -9  -4  -11.30   31.10
   1  -9  -4  -16.90   26.10
  -2   9  -4  -17.00   29.60
  -3   9  -4  -10.20   33.00
  -4   9  -4  -27.70   35.70
  -5   9  -4    4.80   46.70
   4 -10  -4  276.77   81.29
   3 -10  -4  263.97   71.59
  -4  10  -4   46.40   48.70
   8   0  -5   -9.70   32.40
   7   0  -5   10.10   29.60
   6   0  -5  -21.60   19.70
   5   0  -5    9.80   20.20
   4   0  -5   -4.40   16.30
   3   0  -5   17.80   15.30
   2   0  -5  -23.90    9.60
   1   0  -5   -8.90    9.10
   0   0  -5    4.10    8.90
  -1   0  -5   -9.10    8.30
  -2   0  -5   -0.20   12.80
  -3   0  -5    5.00   15.80
  -4   0  -5   15.90   19.50
  -5   0  -5   18.50   18.90
  -6   0  -5  -18.20   17.60
  -7   0  -5  -20.80   23.70
  -8   0  -5    4.80   24.70
   7   1  -5  615.24   69.69
   6   1  -5  809.32   70.69
   5  -1  -5  236.88   46.50
   5   1  -5  353.46   43.50
   4  -1  -5 1842.82  122.39
   4   1  -5 1956.10  112.59
   3  -1  -5 1081.09   77.79
   3   1  -5 1073.09   69.29
   2  -1  -5  396.06   46.10
   2   1  -5  506.65   38.70
   1  -1  -5 2391.06  125.29
   1   1  -5 2166.18  120.19
   0  -1  -5 1176.68   70.99
   0   1  -5 1119.49   71.49
  -1  -1  -5 1009.60   67.39
  -1   1  -5 1030.50   68.99
  -2  -1  -5 1631.54   98.99
  -2   1  -5 1557.74  100.59
  -3  -1  -5 1363.56   89.99
  -3   1  -5 1235.78   87.99
  -4  -1  -5  760.62   63.69
  -4   1  -5  727.33   64.49
  -5  -1  -5  132.69   32.40
  -5   1  -5  141.39   33.80
  -6  -1  -5  106.89   29.90
  -6   1  -5  212.88   41.30
  -7  -1  -5   62.49   26.80
  -7   1  -5   66.39   32.20
  -8  -1  -5   40.30   30.20
  -8   1  -5   26.40   29.00
   6   2  -5  138.19   32.20
   5   2  -5  372.46   42.10
   4  -2  -5   31.60   25.50
   4   2  -5  101.29   22.60
   3  -2  -5  375.16   52.29
   3   2  -5  401.26   35.90
   2  -2  -5  378.16   46.20
   2   2  -5  294.27   32.70
   1  -2  -5 1957.50  113.89
   1   2  -5 1956.60  108.09
   0  -2  -5  289.57   36.20
   0   2  -5  369.86   42.10
  -1  -2  -5 1043.90   68.89
  -1   2  -5 1103.79   74.49
  -2  -2  -5  674.93   53.99
  -2   2  -5  617.84   55.39
  -3  -2  -5  509.55   57.89
  -3   2  -5  537.45   61.19
  -4  -2  -5  175.88   35.00
  -4   2  -5  194.58   40.00
  -5  -2  -5   67.99   27.50
  -5   2  -5  127.89   32.80
  -6  -2  -5   78.69   29.60
  -6   2  -5   48.80   28.80
  -7  -2  -5  188.28   39.30
  -7   2  -5  245.98   53.19
  -8   2  -5   63.39   33.90
  -7   3   5  103.99   56.79
  -6   3   5  276.07   66.09
   3  -3  -5  113.79   33.10
   2  -3  -5  252.17   40.80
   2   3  -5  251.17   30.20
   1  -3  -5  657.73   58.79
   1   3  -5  750.72   52.49
   0  -3  -5  566.84   49.90
   0   3  -5  581.54   49.30
  -1  -3  -5   82.29   22.70
  -1   3  -5   81.39   23.20
  -2  -3  -5  183.78   30.50
  -2   3  -5  127.39   28.70
  -3  -3  -5  133.89   31.70
  -3   3  -5   49.80   22.60
  -4  -3  -5  442.26   55.89
  -4   3  -5  351.16   54.99
  -5  -3  -5   -4.80   13.90
  -5   3  -5   10.70   23.40
  -6  -3  -5   71.99   27.70
  -6   3  -5   64.39   33.00
  -7   3  -5   -9.10   24.20
  -8   3  -5   35.00   37.80
  -7   4   5  293.77   74.49
  -6   4   5  530.95   91.89
   3  -4  -5  788.52   94.19
   2  -4  -5  675.63   77.89
   1  -4  -5  980.80   80.29
   1   4  -5 1148.69   71.49
   0  -4  -5  861.81   65.99
   0   4  -5  841.72   61.79
  -1  -4  -5 1656.63  101.89
  -1   4  -5 1735.63  104.79
  -2  -4  -5 1153.98   78.79
  -2   4  -5 1160.08   81.59
  -3  -4  -5  601.44   52.59
  -3   4  -5  606.44   57.09
  -4  -4  -5  543.75   50.99
  -4   4  -5  482.75   62.89
  -5  -4  -5  201.08   37.10
  -5   4  -5  124.09   41.30
  -6   4  -5  228.18   48.60
  -7   4  -5  125.19   37.20
  -7   5   5  -23.90   44.50
   3  -5  -5   62.69   36.60
   2  -5  -5   81.99   35.10
   1  -5  -5  122.09   35.70
   0  -5  -5  116.99   30.20
   0   5  -5   80.49   21.90
  -1  -5  -5   22.50   18.00
  -1   5  -5    4.60   14.40
  -2  -5  -5   71.49   24.40
  -2   5  -5   82.89   26.30
  -3  -5  -5  159.58   33.40
  -3   5  -5  105.69   30.40
  -4  -5  -5   39.90   22.20
  -4   5  -5   72.59   30.50
  -5   5  -5   -2.10   24.20
  -6   5  -5   21.60   29.00
  -7   5  -5    3.50   29.60
   4  -6  -5  504.25   99.79
   3  -6  -5   88.19   43.80
   2  -6  -5  421.76   70.79
   1  -6  -5  488.35   67.89
   0  -6  -5  426.06   56.79
   0   6  -5  489.95   51.39
  -1  -6  -5  221.98   39.90
  -1   6  -5  207.28   37.30
  -2  -6  -5  517.65   55.79
  -2   6  -5  378.26   53.59
  -3  -6  -5  283.87   42.90
  -3   6  -5  282.37   50.49
  -4   6  -5  289.97   55.19
  -5   6  -5   67.59   36.30
  -6   6  -5  149.59   46.50
   4  -7  -5   88.19   49.70
   3  -7  -5  121.69   52.79
   2  -7  -5  107.79   44.60
   1  -7  -5   52.69   31.90
   0  -7  -5  343.17   55.19
   0   7  -5  272.07   39.10
  -1  -7  -5   70.09   28.90
  -1   7  -5  104.39   30.60
  -2  -7  -5  492.55   55.79
  -2   7  -5  372.06   54.69
  -3   7  -5  293.87   50.59
  -4   7  -5  152.48   44.50
  -5   7  -5  128.69   44.80
  -6   7  -5   30.40   45.20
   6  -8  -5  -84.69   82.09
   5  -8  -5   50.29   52.29
   4  -8  -5   -2.10   36.50
   3  -8  -5   90.09   43.40
   2  -8  -5   38.80   36.70
   1  -8  -5   75.89   32.80
   0  -8  -5   67.69   30.10
  -1   8  -5   81.29   31.00
  -2   8  -5   19.60   23.90
  -3   8  -5   56.09   33.20
  -4   8  -5   37.00   35.10
  -5   8  -5   12.60   37.40
   5  -9  -5  275.07   86.09
   4  -9  -5  346.67   84.59
   3  -9  -5  295.17   71.79
   2  -9  -5  175.98   54.59
   1  -9  -5  302.37   63.29
  -2   9  -5  152.78   45.10
  -3   9  -5  192.08   53.79
  -4   9  -5   35.00   42.00
   4 -10  -5   81.09   54.59
   3 -10  -5    0.40   37.10
   2 -10  -5    6.70   48.40
  -4  10  -5   65.89   55.29
   8   0  -6  290.57   60.19
   7   0  -6  213.38   48.30
   6   0  -6  428.36   59.59
   5   0  -6  354.16   49.40
   4   0  -6 1196.08   84.69
   3   0  -6  570.44   50.49
   2   0  -6 1047.50   69.99
   1   0  -6 3758.22  194.18
   0   0  -6 2802.22  151.18
  -1   0  -6 1723.63  105.59
  -2   0  -6 2000.50  121.99
  -3   0  -6  822.82   69.99
  -4   0  -6  407.36   57.49
  -5   0  -6  187.18   41.30
  -6   0  -6  151.48   38.70
  -7   0  -6  112.49   39.90
  -8   0  -6  117.69   39.60
   9  -1  -6   50.59   48.70
   8  -1  -6   77.09   44.30
   7  -1  -6   48.30   34.10
   7   1  -6   41.60   29.40
   6  -1  -6   23.50   28.60
   6   1  -6    9.80   21.30
   5  -1  -6   56.09   31.60
   5   1  -6   59.79   24.80
   4  -1  -6  124.69   30.70
   4   1  -6  190.88   32.30
   3  -1  -6   99.69   27.00
   3   1  -6  174.08   28.10
   2  -1  -6   74.49   23.00
   2   1  -6   72.09   19.20
   1  -1  -6  146.59   26.10
   1   1  -6  170.48   28.40
   0  -1  -6  489.15   42.80
   0   1  -6  506.05   44.70
  -1  -1  -6    3.80   14.70
  -1   1  -6  -13.20   12.00
  -2  -1  -6   -1.50   14.80
  -2   1  -6   -8.60   15.70
  -3  -1  -6   54.69   24.10
  -3   1  -6   39.20   21.00
  -4  -1  -6  247.28   45.30
  -4   1  -6  234.18   42.60
  -5  -1  -6   60.69   25.50
  -5   1  -6   38.00   22.40
  -6  -1  -6   82.09   31.50
  -6   1  -6   49.70   27.20
  -7  -1  -6   90.79   38.10
  -7   1  -6   93.69   37.00
  -8  -1  -6    8.60   26.10
  -8   1  -6   33.50   31.70
   9  -2  -6   94.79   50.89
   8  -2  -6  131.89   50.89
   7  -2  -6  412.36   69.79
   6  -2  -6  171.68   47.40
   6   2  -6  295.57   41.70
   5  -2  -6  655.03   82.89
   5   2  -6  630.94   54.99
   4  -2  -6 1347.27  100.79
   4   2  -6 1315.17   84.39
   3  -2  -6  754.72   67.09
   3   2  -6  758.22   54.89
   2  -2  -6    1.30   16.90
   2   2  -6    1.70   11.40
   1  -2  -6  940.61   69.29
   1   2  -6  986.20   66.29
   0  -2  -6  564.64   48.60
   0   2  -6  571.14   49.60
  -1  -2  -6  451.85   44.00
  -1   2  -6  576.34   51.19
  -2  -2  -6  447.46   52.59
  -2   2  -6  312.47   46.00
  -3  -2  -6  611.14   55.89
  -3   2  -6  489.05   63.79
  -4  -2  -6  646.84   72.79
  -4   2  -6  533.05   67.99
  -5  -2  -6  382.76   56.49
  -5   2  -6  375.46   58.19
  -6  -2  -6   88.89   29.00
  -6   2  -6  155.68   41.00
  -7  -2  -6   44.00   28.90
  -7   2  -6   59.19   35.40
  -8   2  -6    0.30   41.50
   8  -3  -6  271.07   70.79
   7  -3  -6   16.20   40.80
   6  -3  -6   25.90   32.90
   5  -3  -6  195.78   50.79
   4  -3  -6  347.37   59.79
   3  -3  -6  556.34   67.99
   3   3  -6  507.75   43.80
   2  -3  -6  492.05   60.49
   2   3  -6  451.25   42.10
   1  -3  -6 1436.86   95.69
   1   3  -6 1441.96   89.39
   0  -3  -6 1176.98   80.79
   0   3  -6 1222.18   81.89
  -1  -3  -6  363.36   47.60
  -1   3  -6  397.96   50.99
  -2  -3  -6  351.86   47.30
  -2   3  -6  348.77   49.50
  -3  -3  -6  426.46   56.79
  -3   3  -6  308.77   48.10
  -4  -3  -6  510.05   63.99
  -4   3  -6  402.86   57.29
  -5  -3  -6   96.59   30.50
  -5   3  -6   54.29   26.30
  -6  -3  -6  385.46   55.29
  -6   3  -6  317.27   55.89
  -7   3  -6  356.06   67.69
   8  -4  -6    1.10   50.49
   7  -4  -6   65.49   49.90
   6  -4  -6   66.59   49.30
   5  -4  -6   67.39   36.70
   4  -4  -6  291.27   62.69
   3  -4  -6  327.27   62.29
   2  -4  -6   41.20   29.70
   1  -4  -6  685.43   75.19
   1   4  -6  619.14   54.19
   0  -4  -6  131.59   31.80
   0   4  -6  139.49   30.90
  -1  -4  -6  353.06   48.00
  -1   4  -6  384.56   49.70
  -2  -4  -6  157.58   36.00
  -2   4  -6  213.48   39.10
  -3  -4  -6   63.59   27.60
  -3   4  -6  141.79   33.80
  -4  -4  -6   20.40   19.30
  -4   4  -6   -4.60   18.90
  -5  -4  -6  -25.90   18.50
  -5   4  -6   -9.10   25.00
  -6   4  -6   11.60   26.60
  -7   4  -6   -1.80   29.80
   7  -5  -6  121.49   70.99
   6  -5  -6  105.99   58.39
   5  -5  -6  645.74  101.99
   4  -5  -6  300.47   72.09
   3  -5  -6  923.91  109.99
   2  -5  -6  417.46   65.89
   1  -5  -6 1482.25  105.99
   1   5  -6 1383.36   90.39
   0  -5  -6 1078.29   82.49
   0   5  -6  999.80   73.99
  -1  -5  -6  149.69   32.30
  -1   5  -6  135.49   31.60
  -2  -5  -6   45.10   24.70
  -2   5  -6   48.40   22.10
  -3  -5  -6  291.07   47.00
  -3   5  -6  250.07   43.30
  -4  -5  -6  288.07   48.00
  -4   5  -6  284.67   54.39
  -5   5  -6  103.39   37.30
  -6   5  -6  173.48   49.60
   7  -6  -6   16.00   58.79
   6  -6  -6   48.80   42.60
   5  -6  -6   66.89   44.50
   4  -6  -6   79.49   49.40
   3  -6  -6   42.20   36.70
   2  -6  -6  157.28   45.10
   1  -6  -6  135.69   39.50
   0  -6  -6  245.48   47.20
   0   6  -6  335.87   44.30
  -1  -6  -6  118.49   32.90
  -1   6  -6  117.59   28.90
  -2  -6  -6  107.89   31.10
  -2   6  -6  127.49   34.30
  -3  -6  -6  122.79   35.10
  -3   6  -6   88.69   33.90
  -5   6  -6    9.70   29.20
  -6   6  -6  -52.49   29.50
   6  -7  -6  137.79   62.59
   5  -7  -6  119.19   61.09
   4  -7  -6  112.99   54.99
   3  -7  -6  206.08   63.59
   2  -7  -6   66.29   41.10
   1  -7  -6  255.57   56.59
   0  -7  -6  159.68   41.90
   0   7  -6  151.98   32.60
  -1  -7  -6   87.29   33.90
  -1   7  -6   30.70   24.50
  -2  -7  -6   -3.40   21.60
  -2   7  -6   23.90   25.60
  -3   7  -6   31.10   26.50
  -4   7  -6  114.99   41.20
  -5   7  -6   61.49   41.10
   5  -8  -6  377.76   99.89
   4  -8  -6  437.66   96.99
   3  -8  -6  224.58   66.69
   2  -8  -6  205.98   50.69
   1  -8  -6  290.87   59.99
   0  -8  -6  336.07   60.89
  -1  -8  -6  261.97   60.99
  -1   8  -6  201.48   42.20
  -2   8  -6  190.48   44.70
  -3   8  -6  111.39   39.40
  -4   8  -6   78.49   41.70
  -5   8  -6  115.79   48.30
   4  -9  -6   25.40   49.30
   3  -9  -6   70.19   44.30
   2  -9  -6   33.80   35.90
   1  -9  -6  -60.19   29.30
  -2   9  -6   -2.30   32.40
  -3   9  -6  -42.50   32.30
  -4   9  -6   -0.70   39.70
   3 -10  -6  173.88   61.79
   8   0  -7   68.49   35.80
   7   0  -7    0.00   26.90
   6   0  -7   15.40   22.30
   5   0  -7    3.40   20.80
   4   0  -7   10.60   18.70
   3   0  -7   -3.60   14.10
   2   0  -7   -1.50   12.50
   1   0  -7    3.90   12.80
   0   0  -7  -11.60   10.80
  -1   0  -7   16.20   16.50
  -2   0  -7   18.80   17.60
  -3   0  -7   -3.80   18.80
  -4   0  -7  -15.00   20.40
  -5   0  -7   20.40   24.40
  -6   0  -7  -12.30   21.40
  -7   0  -7   18.00   27.40
  -8   0  -7  -15.70   31.60
   8  -1  -7  172.98   49.50
   7  -1  -7  272.87   56.09
   7   1  -7  244.18   45.40
   6  -1  -7  257.77   51.49
   6   1  -7  321.27   47.40
   5  -1  -7  610.14   72.09
   5   1  -7  554.04   61.39
   4  -1  -7  849.22   72.79
   4   1  -7  838.82   65.99
   3  -1  -7  666.03   58.09
   3   1  -7  560.54   51.79
   2  -1  -7  643.54   55.09
   2   1  -7  620.44   51.19
   1  -1  -7  674.93   55.59
   1   1  -7  723.43   55.09
   0  -1  -7  892.81   65.29
   0   1  -7  824.52   64.59
  -1  -1  -7 1260.67   85.79
  -1   1  -7 1215.28   86.49
  -2  -1  -7  663.33   74.59
  -2   1  -7  708.03   64.49
  -3  -1  -7  805.02   69.69
  -3   1  -7  575.64   72.29
  -4  -1  -7  356.46   57.89
  -4   1  -7  320.57   52.49
  -5  -1  -7  270.47   51.79
  -5   1  -7  260.07   48.40
  -6  -1  -7  182.78   44.10
  -6   1  -7  146.39   42.50
  -7  -1  -7  154.88   38.30
  -7   1  -7  172.48   46.30
  -8  -1  -7   29.60   33.50
   9  -2  -7   94.79   57.69
   8  -2  -7   53.49   39.70
   7  -2  -7  185.48   52.09
   6  -2  -7   65.59   38.60
   6   2  -7   48.80   25.90
   5  -2  -7  263.57   49.99
   5   2  -7  253.27   38.30
   4  -2  -7  446.26   63.69
   4   2  -7  514.05   48.20
   3  -2  -7  984.40   77.39
   3   2  -7  827.52   63.19
   2  -2  -7   93.19   27.90
   2   2  -7   83.29   20.80
   1  -2  -7  187.98   35.70
   1   2  -7  165.68   31.70
   0  -2  -7  239.98   37.90
   0   2  -7  345.77   46.00
  -1  -2  -7   69.09   23.00
  -1   2  -7   29.10   21.30
  -2  -2  -7  114.09   30.20
  -2   2  -7  107.49   28.80
  -3  -2  -7  177.18   40.90
  -3   2  -7  230.18   43.20
  -4  -2  -7  282.37   55.29
  -4   2  -7  308.87   53.39
  -5  -2  -7  218.98   47.90
  -5   2  -7  173.28   41.50
  -6  -2  -7   25.90   27.60
  -6   2  -7   71.09   33.80
  -7  -2  -7   72.89   29.70
  -7   2  -7  -18.40   26.90
   8  -3  -7  113.49   50.99
   7  -3  -7  121.59   47.20
   6  -3  -7   85.69   45.70
   5  -3  -7  106.89   43.70
   5   3  -7   49.30   21.90
   4  -3  -7  204.68   50.59
   4   3  -7  153.58   29.30
   3  -3  -7  117.29   39.90
   3   3  -7   87.69   22.20
   2  -3  -7  281.07   47.30
   2   3  -7  186.88   31.40
   1  -3  -7  107.69   30.10
   1   3  -7  141.19   30.20
   0  -3  -7  561.64   52.19
   0   3  -7  481.15   56.79
  -1  -3  -7  608.44   55.59
  -1   3  -7  501.25   63.19
  -2  -3  -7  680.83   61.69
  -2   3  -7  551.34   68.49
  -3  -3  -7  211.68   44.20
  -3   3  -7  326.47   52.89
  -4  -3  -7  206.08   49.50
  -4   3  -7  141.89   39.60
  -5  -3  -7   49.20   29.20
  -5   3  -7   78.79   32.40
  -6  -3  -7   27.40   27.30
  -6   3  -7   37.10   27.00
  -7   3  -7   -4.20   28.50
   8  -4  -7   65.39   60.99
   7  -4  -7  200.88   68.89
   6  -4  -7   77.59   45.50
   5  -4  -7  266.97   63.09
   4  -4  -7 1400.06  117.09
   3  -4  -7 1111.49   97.59
   2  -4  -7  575.44   71.09
   2   4  -7  531.15   55.79
   1  -4  -7  390.96   58.39
   1   4  -7  469.35   54.39
   0  -4  -7  734.33   64.39
   0   4  -7  671.03   62.49
  -1  -4  -7    7.70   18.90
  -1   4  -7   19.00   22.40
  -2  -4  -7  198.68   41.90
  -2   4  -7  146.39   34.80
  -3  -4  -7  505.55   67.69
  -3   4  -7  310.87   52.59
  -4  -4  -7  373.66   58.59
  -4   4  -7  427.76   63.69
  -5  -4  -7  148.59   43.30
  -5   4  -7  156.48   43.80
  -6   4  -7  199.38   49.40
   7  -5  -7   78.89   56.39
   6  -5  -7   39.40   47.60
   5  -5  -7   69.29   48.10
   4  -5  -7   43.90   39.00
   3  -5  -7    9.50   30.20
   2  -5  -7   57.79   33.20
   1  -5  -7    6.70   21.90
   1   5  -7   12.20   18.10
   0  -5  -7    9.00   21.00
   0   5  -7    6.20   19.20
  -1  -5  -7  357.16   57.19
  -1   5  -7  207.88   41.00
  -2  -5  -7    2.90   24.60
  -2   5  -7   40.90   24.60
  -3  -5  -7  -15.50   19.60
  -3   5  -7   -1.90   19.10
  -4  -5  -7  -24.00   22.60
  -4   5  -7  -20.70   24.00
  -5   5  -7   20.10   30.90
  -6   5  -7   24.70   34.20
   6  -6  -7  193.28   72.49
   5  -6  -7  154.78   57.09
   4  -6  -7  260.57   69.59
   3  -6  -7  110.89   46.20
   2  -6  -7  183.98   51.99
   1  -6  -7   23.20   31.50
   1   6  -7   41.30   24.70
   0  -6  -7  440.46   70.99
   0   6  -7  451.15   56.49
  -1  -6  -7  103.79   37.10
  -1   6  -7  208.08   41.30
  -2  -6  -7  242.28   44.90
  -2   6  -7  139.29   35.10
  -3  -6  -7  322.77   54.19
  -3   6  -7  278.07   51.49
  -4   6  -7  233.78   52.19
  -5   6  -7   99.69   41.40
   6  -7  -7  274.57   91.29
   5  -7  -7  157.98   63.49
   4  -7  -7  337.07   86.29
   3  -7  -7   78.69   45.00
   2  -7  -7  223.38   58.79
   1  -7  -7  200.58   52.99
   0  -7  -7  188.68   51.09
   0   7  -7  100.09   32.40
  -1  -7  -7  200.48   46.20
  -1   7  -7  133.69   37.40
  -2  -7  -7   73.49   32.20
  -2   7  -7    2.90   22.50
  -3   7  -7  128.19   42.40
  -4   7  -7   37.30   32.20
  -5   7  -7   92.69   42.20
   5  -8  -7   80.09   63.49
   4  -8  -7  101.19   50.79
   3  -8  -7  -15.20   35.80
   2  -8  -7   88.89   44.60
   1  -8  -7  140.39   47.40
   0  -8  -7   77.39   35.40
  -1  -8  -7    2.70   30.90
  -1   8  -7   26.40   28.00
  -2   8  -7  -16.70   27.30
  -3   8  -7   20.60   29.40
  -4   8  -7   11.00   32.90
   4  -9  -7  108.09   56.79
   3  -9  -7  164.08   62.69
   2  -9  -7  221.68   59.89
   1  -9  -7  108.59   45.70
  -3   9  -7  153.38   50.49
  -4   9  -7   58.59   88.79
   3 -10  -7   78.89   53.79
   8   0  -8  229.18   59.69
   7   0  -8  113.99   38.10
   6   0  -8  180.18   41.80
   5   0  -8  328.57   53.69
   4   0  -8  112.59   32.00
   3   0  -8  768.82   64.19
   2   0  -8  388.26   50.49
   1   0  -8  712.33   58.99
   0   0  -8 1211.58   85.79
  -1   0  -8  385.56   50.29
  -2   0  -8  481.85   64.39
  -3   0  -8  441.86   64.69
  -4   0  -8  520.05   76.99
  -5   0  -8   72.59   32.60
  -6   0  -8  224.68   47.80
  -7   0  -8  240.18   51.39
   8  -1  -8   38.20   37.90
   7  -1  -8    5.70   29.80
   7   1  -8   38.70   25.90
   6  -1  -8   38.80   29.10
   6   1  -8   44.50   27.00
   5  -1  -8    9.70   25.90
   5   1  -8  -33.20   17.10
   4  -1  -8   99.09   31.80
   4   1  -8   68.69   26.40
   3  -1  -8   71.29   27.00
   3   1  -8  133.69   29.80
   2  -1  -8  350.76   48.30
   2   1  -8  330.37   44.90
   1  -1  -8  232.08   38.70
   1   1  -8  263.17   40.00
   0  -1  -8  166.98   32.40
   0   1  -8  170.08   33.40
  -1  -1  -8  151.58   34.40
  -1   1  -8   87.69   29.10
  -2  -1  -8  271.97   49.20
  -2   1  -8  205.98   41.40
  -3  -1  -8   62.69   33.30
  -3   1  -8   14.90   20.30
  -4  -1  -8   34.70   28.40
  -4   1  -8   23.80   29.30
  -5  -1  -8   -5.70   26.00
  -5   1  -8   37.50   28.70
  -6  -1  -8    2.00   28.20
  -6   1  -8   25.10   24.30
  -7  -1  -8   -2.90   26.20
  -7   1  -8   35.50   33.00
   8  -2  -8   75.29   42.40
   7  -2  -8  133.49   46.50
   6  -2  -8  110.69   40.50
   6   2  -8   52.09   28.20
   5  -2  -8  262.37   52.89
   5   2  -8  203.78   37.00
   4  -2  -8   67.29   28.60
   4   2  -8   45.50   22.70
   3  -2  -8  288.67   46.70
   3   2  -8  171.18   31.90
   2  -2  -8  188.88   37.80
   2   2  -8  186.18   33.20
   1  -2  -8  786.92   63.79
   1   2  -8  674.43   61.19
   0  -2  -8  604.44   68.89
   0   2  -8  513.05   61.59
  -1  -2  -8  576.24   67.99
  -1   2  -8  629.14   71.59
  -2  -2  -8  459.05   66.69
  -2   2  -8  493.25   66.89
  -3  -2  -8  273.47   50.59
  -3   2  -8  283.97   51.09
  -4  -2  -8   99.59   36.50
  -4   2  -8  112.19   39.50
  -5  -2  -8   38.30   33.20
  -5   2  -8   55.49   29.40
  -6  -2  -8   63.39   35.00
  -6   2  -8  208.58   50.49
  -7  -2  -8   98.49   35.50
  -7   2  -8  221.08   64.89
   8  -3  -8  140.49   59.59
   7  -3  -8  366.56   76.89
   6  -3  -8  259.77   55.49
   5  -3  -8  310.17   61.19
   5   3  -8  199.68   36.50
   4  -3  -8  760.02   88.39
   4   3  -8  852.01   67.89
   3  -3  -8  140.69   39.90
   3   3  -8  208.38   36.50
   2  -3  -8  303.57   50.99
   2   3  -8  273.87   42.60
   1  -3  -8  138.99   32.80
   1   3  -8  142.59   35.00
   0  -3  -8  277.97   48.40
   0   3  -8  223.38   42.60
  -1  -3  -8  150.98   34.00
  -1   3  -8  176.68   37.80
  -2  -3  -8  520.75   69.19
  -2   3  -8  526.85   68.69
  -3  -3  -8  700.03   85.39
  -3   3  -8  510.15   68.49
  -4  -3  -8  269.97   51.39
  -4   3  -8  226.88   45.60
  -5  -3  -8  186.38   45.40
  -5   3  -8  166.68   44.90
  -6  -3  -8   71.19   33.40
  -6   3  -8   73.49   38.30
   7  -4  -8   15.60   44.30
   6  -4  -8   20.00   38.00
   5  -4  -8   42.50   39.40
   4  -4  -8   30.10   30.30
   3  -4  -8  102.29   39.60
   3   4  -8   77.59   28.10
   2  -4  -8    7.30   23.20
   2   4  -8   -0.10   16.70
   1  -4  -8    0.00   21.20
   1   4  -8   31.20   22.30
   0  -4  -8   22.10   22.00
   0   4  -8   50.39   23.80
  -1  -4  -8   44.90   27.30
  -1   4  -8   26.50   21.70
  -2  -4  -8   55.39   28.50
  -3  -4  -8   10.50   27.70
  -3   4  -8   25.10   27.30
  -4  -4  -8    6.80   29.20
  -4   4  -8   29.50   25.30
  -5  -4  -8   29.60   27.10
  -5   4  -8    4.20   28.80
  -6   4  -8   33.50   31.00
   7  -5  -8  418.66   92.79
   6  -5  -8  197.58   67.19
   5  -5  -8  260.57   71.69
   4  -5  -8  645.94   96.49
   3  -5  -8  629.24   91.49
   2  -5  -8  506.85   75.79
   2   5  -8  499.85   60.09
   1  -5  -8  763.12   88.19
   1   5  -8  709.13   75.59
   0  -5  -8  307.47   55.69
   0   5  -8  262.07   46.70
  -1  -5  -8  493.05   70.99
  -1   5  -8  401.56   56.59
  -2  -5  -8  266.27   54.99
  -2   5  -8  323.67   54.49
  -3  -5  -8  205.08   53.59
  -3   5  -8  243.08   47.80
  -4  -5  -8   62.89   34.50
  -4   5  -8   60.89   31.10
  -5   5  -8   72.39   38.80
   6  -6  -8   62.79   51.09
   5  -6  -8   37.90   41.50
   4  -6  -8   28.50   35.40
   3  -6  -8  142.79   51.09
   2  -6  -8  185.38   54.09
   1  -6  -8  285.37   58.69
   1   6  -8  270.77   44.90
   0  -6  -8   44.20   32.30
   0   6  -8   33.50   25.40
  -1  -6  -8  188.18   48.40
  -1   6  -8  293.27   49.30
  -2  -6  -8    7.60   27.40
  -2   6  -8   35.50   26.30
  -3  -6  -8   43.90   34.40
  -3   6  -8   48.10   29.30
  -4   6  -8    4.90   28.20
  -5   6  -8   -7.10   30.40
   5  -7  -8  151.78   61.29
   4  -7  -8  337.67   79.29
   3  -7  -8  187.88   61.69
   2  -7  -8   99.29   43.50
   1  -7  -8  117.69   47.20
   0  -7  -8   64.79   36.80
   0   7  -8   75.99   29.90
  -1  -7  -8   15.20   28.10
  -1   7  -8   67.89   29.30
  -2  -7  -8   14.50   32.70
  -2   7  -8   24.00   28.50
  -3   7  -8   43.80   35.70
  -4   7  -8   96.99   39.80
   4  -8  -8  152.88   56.29
   3  -8  -8  171.78   60.39
   2  -8  -8  109.69   50.79
   1  -8  -8  316.57   69.99
   0  -8  -8  103.29   43.90
  -1  -8  -8  283.87   84.69
  -1   8  -8  308.47   55.89
  -2   8  -8   68.59   36.70
  -3   8  -8   55.49   38.60
  -4   8  -8  180.68   51.49
   3  -9  -8   20.10   45.70
   2  -9  -8  -17.10   39.10
   1  -9  -8   49.10   43.10
  -3   9  -8   -3.40   35.10
   7   0  -9   60.79   33.10
   6   0  -9   -7.90   25.00
   5   0  -9   10.20   24.40
   4   0  -9   23.20   22.50
   3   0  -9   -7.50   17.00
   2   0  -9    5.40   17.10
   1   0  -9   17.80   18.00
   0   0  -9   12.40   19.80
  -1   0  -9    0.60   17.10
  -2   0  -9   -1.90   18.60
  -3   0  -9   14.80   24.60
  -4   0  -9    4.50   25.50
  -5   0  -9  -13.20   25.70
  -6   0  -9   12.20   28.60
   8  -1  -9  174.18   52.69
   7  -1  -9   46.70   34.20
   7   1  -9   92.29   38.50
   6  -1  -9   53.09   30.80
   6   1  -9   31.10   27.80
   5  -1  -9  336.67   54.89
   5   1  -9  352.86   49.70
   4  -1  -9  281.87   49.99
   4   1  -9  110.09   30.50
   3  -1  -9  723.63   66.79
   3   1  -9  680.63   62.79
   2  -1  -9  152.18   33.60
   2   1  -9  178.88   36.20
   1  -1  -9  435.86   55.59
   1   1  -9  511.05   59.49
   0  -1  -9  802.62   69.19
   0   1  -9  867.01   74.09
  -1  -1  -9   -1.90   15.80
  -2  -1  -9  150.08   41.80
  -2   1  -9   97.19   39.40
  -3  -1  -9  373.96   65.29
  -3   1  -9  284.17   56.49
  -4  -1  -9  250.87   54.59
  -4   1  -9  276.87   57.79
  -5  -1  -9  187.68   54.09
  -5   1  -9  286.47   58.49
  -6  -1  -9  124.09   48.60
  -6   1  -9   59.59   29.90
  -7  -1  -9  212.58   59.19
   8  -2  -9   38.90   38.40
   7  -2  -9   76.99   38.60
   6  -2  -9   76.19   38.20
   6   2  -9   56.49   30.00
   5  -2  -9  217.48   48.30
   5   2  -9  139.69   35.90
   4  -2  -9  155.38   37.40
   4   2  -9  161.68   32.60
   3  -2  -9   59.49   29.30
   3   2  -9  125.69   30.00
   2  -2  -9  112.39   35.10
   2   2  -9   70.89   26.40
   1  -2  -9  353.86   51.69
   1   2  -9  388.56   54.49
   0  -2  -9   77.09   29.60
   0   2  -9  115.99   34.10
  -1  -2  -9   94.79   32.30
  -1   2  -9  130.79   36.30
  -2  -2  -9   70.49   34.40
  -2   2  -9   63.29   32.30
  -3  -2  -9  175.58   46.70
  -3   2  -9  173.58   46.40
  -4  -2  -9  186.48   52.59
  -4   2  -9  126.79   44.70
  -5  -2  -9   77.89   39.60
  -5   2  -9   30.70   31.40
  -6  -2  -9   43.00   34.70
  -6   2  -9  -14.20   23.20
  -7  -2  -9   20.40   30.90
   7  -3  -9   33.70   40.90
   6  -3  -9   20.10   32.40
   5  -3  -9  154.48   48.00
   5   3  -9   63.49   29.50
   4  -3  -9   82.19   41.10
   4   3  -9   79.49   27.20
   3  -3  -9  132.99   37.30
   3   3  -9  144.99   35.40
   2  -3  -9   85.29   32.90
   2   3  -9  117.99   33.30
   1  -3  -9  152.78   40.60
   1   3  -9  121.49   35.50
   0   3  -9  364.46   57.79
  -1  -3  -9   25.40   25.50
  -1   3  -9   21.30   25.10
  -2  -3  -9   48.20   30.90
  -2   3  -9   32.80   24.10
  -3  -3  -9  111.99   40.60
  -3   3  -9   45.40   31.90
  -4  -3  -9   61.19   34.70
  -4   3  -9   27.90   29.10
  -5  -3  -9   90.79   37.00
  -5   3  -9   64.99   31.60
  -6  -3  -9   -2.20   30.10
  -6   3  -9   29.40   31.40
   7  -4  -9  184.88   62.59
   6  -4  -9  331.97   72.09
   5  -4  -9  180.18   57.59
   4  -4  -9  410.56   77.09
   3  -4  -9  305.17   60.29
   3   4  -9  262.27   48.00
   2  -4  -9  444.56   66.49
   2   4  -9  444.36   58.89
   1  -4  -9  626.74   79.89
   1   4  -9  628.64   73.69
   0  -4  -9  419.46   65.19
   0   4  -9  323.77   57.19
  -1  -4  -9  504.05   67.59
  -1   4  -9  602.04   72.29
  -2  -4  -9  498.95   78.49
  -2   4  -9  401.66   63.49
  -3  -4  -9  361.16   66.89
  -3   4  -9  326.07   59.99
  -4  -4  -9  211.78   54.29
  -4   4  -9  188.58   47.70
  -5  -4  -9  108.59   44.30
  -5   4  -9  146.79   47.30
   6  -5  -9  -23.60   40.30
   5  -5  -9   10.40   46.90
   4  -5  -9   47.80   38.70
   3  -5  -9   25.40   32.60
   2  -5  -9   92.79   40.30
   2   5  -9   67.29   29.10
   1  -5  -9  135.29   45.90
   1   5  -9  152.08   38.80
   0  -5  -9   -3.10   26.90
   0   5  -9   -2.10   22.50
  -1  -5  -9   10.20   24.70
  -1   5  -9  -30.00   18.90
  -2  -5  -9   55.49   32.10
  -2   5  -9   21.20   28.50
  -3  -5  -9  -18.60   30.30
  -3   5  -9   29.40   28.00
  -4  -5  -9   20.50   36.80
  -4   5  -9   38.60   32.30
  -5   5  -9   28.40   37.50
   5  -6  -9  159.28   62.79
   4  -6  -9  356.96   85.39
   3  -6  -9  175.48   56.49
   2  -6  -9  173.08   58.59
   1  -6  -9  297.27   64.09
   1   6  -9  341.67   53.49
   0  -6  -9  298.57   62.39
   0   6  -9  173.08   40.00
  -1  -6  -9  191.88   49.90
  -1   6  -9  266.47   50.79
  -2  -6  -9  143.59   48.60
  -2   6  -9  163.68   43.10
  -3  -6  -9  137.19   46.80
  -3   6  -9  208.78   49.90
  -4   6  -9  186.48   56.29
   5  -7  -9   84.29   58.59
   4  -7  -9  199.08   66.79
   3  -7  -9  159.78   57.59
   2  -7  -9  135.39   58.19
   1  -7  -9  160.38   51.79
   0  -7  -9  187.68   54.69
   0   7  -9  148.99   41.00
  -1  -7  -9   97.59   40.50
  -1   7  -9   45.10   30.00
  -2  -7  -9   67.99   43.20
  -2   7  -9   84.79   37.00
  -3   7  -9  108.99   41.20
  -4   7  -9   81.99   45.10
   4  -8  -9  -23.30   53.89
   3  -8  -9   81.99   49.40
   2  -8  -9   18.40   41.70
   1  -8  -9  109.19   45.60
   0  -8  -9   93.89   43.90
  -2   8  -9   -8.00   32.40
  -3   8  -9   36.60   36.10
   2  -9  -9  266.17   73.29
   1  -9  -9  346.57   74.89
   7   0 -10  153.28   41.50
   6   0 -10   16.20   26.90
   5   0 -10  259.17   45.60
   4   0 -10  548.05   67.79
   3   0 -10  363.96   53.49
   2   0 -10  376.76   52.99
   1   0 -10  122.49   31.90
   0   0 -10  614.34   74.19
  -1   0 -10   43.70   27.50
  -2   0 -10  373.56   60.09
  -3   0 -10  146.89   43.50
  -4   0 -10  126.99   42.80
  -5   0 -10   71.29   38.80
  -6   0 -10   35.50   36.50
   8  -1 -10   45.50   39.70
   7  -1 -10   78.39   37.90
   6  -1 -10    6.70   29.20
   6   1 -10    0.00   25.60
   5  -1 -10  132.39   40.80
   5   1 -10  121.89   37.00
   4  -1 -10  101.19   34.90
   4   1 -10   32.80   24.50
   3  -1 -10   54.69   27.80
   3   1 -10   35.20   25.60
   2  -1 -10   26.30   23.40
   2   1 -10   68.09   27.70
   1  -1 -10   16.50   23.70
   1   1 -10   11.60   23.40
   0  -1 -10   88.49   32.90
   0   1 -10   95.59   32.50
  -1  -1 -10   82.19   28.70
  -1   1 -10   91.29   34.10
  -2  -1 -10   14.40   26.20
  -2   1 -10    3.70   26.30
  -3  -1 -10   -8.90   29.10
  -3   1 -10   -1.20   24.70
  -4  -1 -10   48.70   42.10
  -4   1 -10   64.09   38.40
  -5  -1 -10  -15.00   29.70
  -5   1 -10   12.70   29.40
  -6  -1 -10   30.20   38.80
  -6   1 -10   29.30   40.60
   7  -2 -10  340.77   66.79
   6  -2 -10   37.80   35.90
   5  -2 -10  250.67   57.19
   5   2 -10  198.78   40.20
   4  -2 -10  366.06   63.09
   4   2 -10  293.37   48.60
   3  -2 -10  236.58   51.89
   3   2 -10  112.09   32.60
   2  -2 -10   75.49   30.10
   2   2 -10   55.89   27.30
   1  -2 -10   29.00   23.90
   1   2 -10   72.59   30.60
   0  -2 -10  164.48   36.20
   0   2 -10  359.66   55.19
  -1  -2 -10   49.50   26.20
  -1   2 -10   52.79   27.90
  -2  -2 -10  106.09   43.80
  -2   2 -10  111.09   40.00
  -3  -2 -10  125.09   50.89
  -3   2 -10  210.98   50.99
  -4  -2 -10  309.37   67.99
  -4   2 -10  188.28   48.10
  -5  -2 -10  245.18   63.89
  -5   2 -10  145.19   42.60
  -6  -2 -10   -5.80   34.50
   7  -3 -10   66.39   41.80
   6  -3 -10  124.89   45.80
   5  -3 -10  258.47   59.39
   4  -3 -10  123.59   41.40
   4   3 -10  173.78   42.60
   3  -3 -10  162.78   46.30
   3   3 -10  128.99   37.60
   2  -3 -10  362.46   64.49
   2   3 -10  233.08   46.80
   1  -3 -10  258.97   53.09
   1   3 -10  190.58   44.90
   0  -3 -10  394.66   66.59
   0   3 -10  185.08   44.80
  -1  -3 -10  391.56   65.29
  -1   3 -10  488.95   71.59
  -2  -3 -10  226.78   53.69
  -2   3 -10  102.69   36.60
  -3  -3 -10  189.38   52.99
  -3   3 -10  208.88   52.89
  -4  -3 -10   97.79   43.60
  -4   3 -10  154.68   51.69
  -5  -3 -10   76.29   38.60
  -5   3 -10  171.98   47.10
  -6  -3 -10  121.59   43.20
   6  -4 -10    8.60   37.90
   5  -4 -10    8.30   39.60
   4  -4 -10   48.50   36.60
   3  -4 -10   60.59   32.70
   3   4 -10   30.50   29.30
   2  -4 -10    6.40   29.30
   2   4 -10   14.80   25.10
   1  -4 -10   42.20   28.30
   1   4 -10   13.20   27.40
   0  -4 -10   35.40   29.60
   0   4 -10   11.90   28.20
  -1  -4 -10    8.80   29.80
  -1   4 -10   37.00   26.10
  -2  -4 -10   -3.50   28.10
  -2   4 -10    1.40   28.30
  -3  -4 -10   34.30   34.60
  -3   4 -10   -7.50   26.40
  -4  -4 -10  -49.40   33.60
  -4   4 -10   10.70   31.30
  -5  -4 -10   82.29   41.70
  -5   4 -10    7.20   34.00
   6  -5 -10   69.69   69.49
   5  -5 -10  179.38   66.29
   4  -5 -10  168.68   55.99
   3  -5 -10  320.27   71.19
   2  -5 -10  161.58   49.90
   2   5 -10  284.27   54.99
   1  -5 -10  230.58   56.19
   1   5 -10  182.68   45.40
   0  -5 -10  376.46   68.49
   0   5 -10  352.46   61.69
  -1  -5 -10  224.98   54.59
  -1   5 -10  312.77   56.69
  -2  -5 -10  235.48   58.39
  -2   5 -10  136.09   43.00
  -3   5 -10  354.86   67.79
  -4  -5 -10  104.89   52.49
  -4   5 -10  113.79   43.70
   5  -6 -10   71.69   43.20
   4  -6 -10  236.38   68.69
   3  -6 -10   43.00   41.20
   2  -6 -10   23.70   36.50
   1  -6 -10   22.20   38.20
   1   6 -10   34.00   34.20
   0  -6 -10   55.19   43.30
   0   6 -10   17.80   29.40
  -1  -6 -10   35.00   37.30
  -1   6 -10   43.40   33.10
  -2  -6 -10   71.09   43.90
  -2   6 -10  121.19   41.90
  -3  -6 -10   25.60   46.80
  -3   6 -10  -21.70   28.00
  -4   6 -10   38.70   39.10
   4  -7 -10  -47.60   39.20
   3  -7 -10  -25.70   37.00
   2  -7 -10   56.59   44.40
   1  -7 -10   51.19   39.60
   0  -7 -10   14.60   38.90
  -1  -7 -10  140.79   45.40
  -1   7 -10   76.49   35.10
  -2  -7 -10  135.39   49.70
  -2   7 -10  110.39   41.60
  -3   7 -10   79.39   44.00
   3  -8 -10   62.69   61.19
   2  -8 -10   25.50   44.90
   1  -8 -10   -4.40   41.80
   0  -8 -10    6.90   43.20
  -2   8 -10  114.89   48.60
   1  -9 -10   30.10   50.49
   7   0 -11  -44.50   29.40
   6   0 -11   -2.10   27.40
   5   0 -11  -41.70   24.70
   4   0 -11   26.70   27.30
   3   0 -11   -5.90   18.40
   2   0 -11   -3.70   19.80
   1   0 -11   11.90   23.10
   0   0 -11  -14.20   19.30
  -1   0 -11   -2.00   25.10
  -2   0 -11   18.50   27.50
  -3   0 -11   -3.70   30.40
  -4   0 -11   93.79   41.30
  -5   0 -11  -34.90   28.30
   7  -1 -11  238.58   51.29
   6  -1 -11   59.19   34.20
   6   1 -11   13.60   31.00
   5  -1 -11   70.69   33.10
   5   1 -11   81.79   34.20
   4  -1 -11  179.98   43.80
   4   1 -11  158.98   39.80
   3  -1 -11  109.39   37.10
   3   1 -11  162.48   40.00
   2  -1 -11  321.77   57.29
   2   1 -11  290.47   52.49
   1  -1 -11  294.57   52.49
   1   1 -11  290.97   52.49
   0  -1 -11  133.99   40.40
   0   1 -11   87.19   32.50
  -1  -1 -11  249.58   53.19
  -1   1 -11  244.98   53.09
  -2  -1 -11  154.98   46.30
  -2   1 -11  132.19   45.30
  -3  -1 -11  186.78   55.99
  -3   1 -11  150.48   52.99
  -4  -1 -11   47.80   39.60
  -4   1 -11   81.49   44.80
  -5  -1 -11   32.50   44.60
  -5   1 -11   98.39   39.90
   7  -2 -11   24.40   37.20
   6  -2 -11   36.40   36.30
   5  -2 -11   66.19   36.00
   4  -2 -11    6.60   28.60
   4   2 -11   15.50   24.00
   3  -2 -11   82.79   34.30
   3   2 -11  113.69   37.70
   2  -2 -11   69.29   33.30
   2   2 -11   54.99   29.70
   1  -2 -11   88.29   35.10
   1   2 -11  111.59   37.80
   0  -2 -11  154.28   44.60
   0   2 -11  145.89   42.70
  -1  -2 -11  143.09   40.40
  -1   2 -11  161.78   47.70
  -2  -2 -11   50.59   35.40
  -2   2 -11   31.70   33.50
  -3  -2 -11   94.99   44.70
  -3   2 -11  151.28   46.00
  -4  -2 -11   88.49   49.99
  -4   2 -11   50.39   35.20
  -5  -2 -11  -12.20   33.60
   6  -3 -11   91.69   51.49
   5  -3 -11    1.00   30.00
   4  -3 -11  102.89   44.10
   4   3 -11  140.49   40.90
   3  -3 -11   41.40   33.30
   3   3 -11   75.89   32.60
   2  -3 -11  201.98   50.99
   2   3 -11  159.08   42.80
   1  -3 -11   37.30   31.50
   1   3 -11  101.69   37.30
   0  -3 -11   46.20   29.00
   0   3 -11   39.30   31.80
  -1  -3 -11   19.60   31.10
  -1   3 -11   44.00   33.60
  -2  -3 -11    6.90   34.70
  -2   3 -11   44.60   32.50
  -3  -3 -11   17.30   30.60
  -3   3 -11   32.50   41.50
  -4  -3 -11   53.69   42.80
  -4   3 -11   40.20   39.00
  -5  -3 -11    3.00   36.80
   5  -4 -11   50.29   43.80
   4  -4 -11  133.29   51.69
   3  -4 -11  184.18   52.69
   3   4 -11  197.28   50.09
   2  -4 -11  130.29   45.90
   2   4 -11  166.48   41.60
   1  -4 -11  378.86   66.89
   1   4 -11  366.06   64.39
   0  -4 -11  221.28   52.89
   0   4 -11  263.87   57.09
  -1  -4 -11   81.89   42.60
  -1   4 -11  181.78   48.40
  -2  -4 -11  100.69   47.70
  -2   4 -11  112.79   45.80
  -3  -4 -11  319.57   71.89
  -3   4 -11  149.69   48.20
  -4  -4 -11   58.29   41.80
  -4   4 -11   95.79   48.20
  -5  -4 -11   31.00   37.90
   5  -5 -11   28.10   44.90
   4  -5 -11   -1.40   36.90
   3  -5 -11  -12.30   35.60
   2  -5 -11  -10.30   30.00
   2   5 -11   -1.70   31.50
   1  -5 -11  -23.50   26.40
   1   5 -11    9.10   31.80
   0  -5 -11   41.00   37.40
   0   5 -11    1.60   29.50
  -1  -5 -11  117.29   55.29
  -1   5 -11   28.60   35.00
  -2  -5 -11   21.30   39.20
  -2   5 -11   22.80   28.80
  -3  -5 -11   -4.10   33.40
  -3   5 -11    7.00   34.80
  -4  -5 -11   22.50   47.50
   4  -6 -11  131.69   54.19
   3  -6 -11   26.60   46.30
   2  -6 -11   69.59   48.80
   1  -6 -11  315.07   68.39
   1   6 -11    5.20   39.50
   0  -6 -11  156.88   54.59
   0   6 -11  124.99   42.70
  -1  -6 -11   79.19   48.60
  -1   6 -11  136.29   48.50
  -2  -6 -11    6.60   43.30
  -2   6 -11   34.10   33.70
  -3  -6 -11  131.59   51.39
  -3   6 -11   98.39   43.60
   3  -7 -11   37.20   54.29
   2  -7 -11  127.59   56.09
   1  -7 -11  116.79   56.49
   0  -7 -11  143.89   55.39
  -1  -7 -11   77.99   43.90
  -1   7 -11   55.59   35.30
  -2   7 -11  142.39   47.40
   1  -8 -11    4.50   48.00
   0  -8 -11   15.40   42.50
   7   0 -12    9.30   40.20
   6   0 -12   97.99   40.00
   5   0 -12  162.98   46.20
   4   0 -12  297.87   52.99
   3   0 -12  187.98   43.00
   2   0 -12  324.37   54.29
   1   0 -12  376.06   64.89
   0   0 -12  161.68   48.10
  -1   0 -12  150.98   45.60
  -2   0 -12   30.00   35.60
  -3   0 -12   51.59   40.60
  -4   0 -12  105.89   44.80
   6  -1 -12   26.50   36.50
   6   1 -12   14.30   28.60
   5  -1 -12   18.50   33.50
   5   1 -12  -20.20   26.10
   4  -1 -12   31.90   29.90
   4   1 -12   28.80   28.90
   3  -1 -12   -0.60   26.70
   3   1 -12   63.89   30.40
   2  -1 -12    9.40   27.00
   2   1 -12   16.00   27.10
   1  -1 -12    8.60   28.30
   1   1 -12   59.89   34.40
   0  -1 -12    4.00   27.70
   0   1 -12    0.60   28.90
  -1  -1 -12   32.60   32.40
  -1   1 -12   62.59   39.40
  -2  -1 -12   47.60   38.90
  -2   1 -12   48.10   39.90
  -3  -1 -12   17.20   39.20
  -3   1 -12   -1.10   31.70
  -4  -1 -12  -24.10   32.50
  -4   1 -12   -9.70   37.80
   6  -2 -12  136.39   53.09
   5  -2 -12   42.70   36.40
   5   2 -12   76.29   31.10
   4  -2 -12  273.27   61.29
   4   2 -12  179.08   48.10
   3  -2 -12   28.10   29.00
   3   2 -12   52.59   34.10
   2  -2 -12  124.29   43.10
   2   2 -12  172.68   45.70
   1  -2 -12  164.28   43.20
   1   2 -12  144.19   43.10
   0  -2 -12   20.10   29.30
   0   2 -12   59.89   35.80
  -1  -2 -12  133.49   48.80
  -1   2 -12   77.39   44.60
  -2   2 -12   58.79   42.40
  -3  -2 -12  184.08   55.69
  -3   2 -12  159.38   49.70
  -4  -2 -12   90.09   51.59
  -4   2 -12   90.19   54.79
   5  -3 -12   77.09   46.50
   4  -3 -12   84.29   40.70
   4   3 -12  110.09   44.30
   3  -3 -12   69.49   46.30
   3   3 -12   -1.40   33.70
   2  -3 -12   33.50   32.90
   2   3 -12   49.00   38.30
   1  -3 -12  295.27   63.19
   1   3 -12  139.09   43.40
   0  -3 -12  132.79   45.10
   0   3 -12  187.28   52.99
  -1  -3 -12    4.90   35.70
  -1   3 -12   27.30   37.30
  -2  -3 -12   81.49   44.40
  -2   3 -12  114.69   42.50
  -3  -3 -12  202.98   62.19
  -3   3 -12   46.00   47.70
  -4  -3 -12  117.69   58.19
   5  -4 -12   17.40   48.30
   4  -4 -12   31.10   42.70
   3  -4 -12   -6.00   33.10
   3   4 -12  -10.60   30.60
   2  -4 -12   -3.30   31.40
   2   4 -12   15.40   35.50
   1  -4 -12   48.60   38.10
   1   4 -12   36.70   38.00
   0  -4 -12   10.80   35.40
   0   4 -12    4.00   35.20
  -1  -4 -12   61.59   41.00
  -1   4 -12   87.29   41.20
  -2  -4 -12   -9.30   38.40
  -2   4 -12  -65.09   29.40
  -3  -4 -12   81.89   51.39
  -3   4 -12   83.69   42.80
  -4  -4 -12   20.10   53.69
   4  -5 -12  126.19   67.29
   3  -5 -12   82.29   47.10
   2  -5 -12   53.59   45.30
   1  -5 -12  293.47   68.79
   1   5 -12  250.47   61.89
   0  -5 -12  304.17   71.99
   0   5 -12  255.97   60.29
  -1  -5 -12   -0.20   44.50
  -1   5 -12   35.70   40.50
  -2  -5 -12  -13.90   40.70
  -2   5 -12  150.08   47.40
  -3  -5 -12   70.29   52.69
   2  -6 -12   -0.80   44.50
   1  -6 -12  113.89   54.69
   0  -6 -12   78.89   42.90
   0   6 -12   -2.50   34.40
  -1  -6 -12  -39.10   45.50
  -1   6 -12   -3.20   33.90
  -2  -6 -12   30.30   50.79
  -2   6 -12  -29.50   32.20
   0  -7 -12    1.70   48.40
  -1  -7 -12 -165.78   75.89
   6   0 -13  -31.20   29.50
   5   0 -13   16.40   31.20
   4   0 -13  -22.70   28.00
   3   0 -13    8.80   25.60
   2   0 -13  -22.50   28.60
   1   0 -13   27.70   33.00
   0   0 -13   37.70   39.30
  -1   0 -13   -0.10   33.50
  -2   0 -13   -9.50   32.90
  -3   0 -13   21.20   40.00
   5  -1 -13   91.79   40.20
   5   1 -13   84.39   38.50
   4  -1 -13  105.49   45.00
   4   1 -13  144.79   41.30
   3  -1 -13  133.19   49.60
   3   1 -13  122.29   44.10
   2  -1 -13   61.09   35.40
   2   1 -13   71.59   35.90
   1  -1 -13  109.29   46.30
   1   1 -13  128.09   43.30
   0  -1 -13   90.29   42.30
   0   1 -13  113.99   45.90
  -1  -1 -13  100.99   46.20
  -1   1 -13  184.38   57.09
  -2  -1 -13  102.29   45.60
  -2   1 -13   43.90   45.70
  -3  -1 -13  190.08   64.49
  -3   1 -13   74.59   52.99
   5  -2 -13  -13.60   35.50
   4  -2 -13   -5.30   35.30
   4   2 -13    0.10   35.30
   3  -2 -13   51.79   40.30
   3   2 -13    0.40   30.40
   2  -2 -13    7.70   35.30
   2   2 -13   36.50   33.60
   1  -2 -13   84.19   45.00
   1   2 -13   90.39   41.70
   0  -2 -13  149.88   49.30
   0   2 -13   66.59   43.40
  -1  -2 -13   71.39   44.40
  -1   2 -13  132.69   57.39
  -2  -2 -13   61.89   46.60
  -2   2 -13   39.60   41.80
  -3  -2 -13   -0.30   53.49
   4  -3 -13   31.90   40.90
   3  -3 -13    0.20   33.80
   3   3 -13   33.20   38.60
   2  -3 -13   -6.40   38.70
   2   3 -13  -22.60   31.40
   1  -3 -13   65.49   34.80
   1   3 -13   40.40   35.90
   0  -3 -13   81.29   45.50
   0   3 -13  -22.90   33.30
  -1  -3 -13   37.70   41.00
  -1   3 -13  -16.10   38.50
  -2  -3 -13   19.50   46.10
  -2   3 -13   36.30   42.10
   3  -4 -13   71.19   49.30
   2  -4 -13  105.59   45.20
   2   4 -13  173.18   55.79
   1  -4 -13  115.19   43.80
   1   4 -13   25.30   42.30
   0  -4 -13  139.19   52.69
   0   4 -13  130.19   50.69
  -1  -4 -13   53.59   41.60
  -1   4 -13   50.69   36.90
  -2  -4 -13   74.69   55.99
  -2   4 -13   39.20   50.19
   1  -5 -13    5.90   38.70
   1   5 -13   -5.00   39.00
   0  -5 -13   -5.50   40.80
   0   5 -13   52.69   39.50
  -1  -5 -13   67.29   53.39
  -1   5 -13  -65.89   35.50
   0   6 -13   54.79   52.89
   4   0 -14  146.49   43.20
   3   0 -14   39.60   38.20
   2   0 -14   36.20   41.40
   1   0 -14   91.79   44.50
   0   0 -14  122.49   50.79
  -1   0 -14  110.79   53.19
   5   1 -14   49.90   32.60
   4  -1 -14  -25.60   30.50
   4   1 -14  -24.40   30.30
   3  -1 -14   20.30   32.50
   3   1 -14  -31.50   31.10
   2  -1 -14    7.10   34.50
   2   1 -14   61.19   42.60
   1  -1 -14   32.20   36.40
   1   1 -14    2.90   33.20
   0  -1 -14   61.09   42.00
   0   1 -14   17.50   37.20
  -1  -1 -14   -4.50   39.30
  -1   1 -14  -21.60   39.30
   4   2 -14   -5.70   34.80
   3  -2 -14    1.30   34.70
   3   2 -14   -0.50   38.60
   2  -2 -14    5.90   36.70
   2   2 -14   68.69   41.60
   1  -2 -14   60.69   45.20
   1   2 -14  105.29   48.80
   0  -2 -14   97.79   51.59
   0   2 -14   84.49   47.90
  -1   2 -14   62.89   50.09
   3   3 -14   33.60   44.40
   2   3 -14  116.19   48.60
   1  -3 -14   14.00   42.50
   1   3 -14   -1.70   41.00
   0   3 -14    7.80   39.10
   2   4 -14   27.80   45.50
   1   4 -14  -11.70   40.20
   0   4 -14    9.90   41.80

_computing_structure_solution     'SHELXT 2014/4 (Sheldrick, 2014)'
;
_shelx_hkl_checksum              4345
loop_
_space_group_symop_operation_xyz
'x, y, z'
'x, -y, z+1/2'
loop_
_atom_site_label
_atom_site_type_symbol
_atom_site_fract_x
_atom_site_fract_y
_atom_site_fract_z
_atom_site_U_iso_or_equiv
_atom_site_adp_type
_atom_site_occupancy
_atom_site_site_symmetry_order
_atom_site_calc_flag
_atom_site_refinement_flags_posn
_atom_site_refinement_flags_adp
_atom_site_refinement_flags_occupancy
_atom_site_disorder_assembly
_atom_site_disorder_group
B5 B 1.086(2) 0.311(2) 0.3599(14) 0.019(3) Uani 1 1 d . . . . .
Ga Ga 0.95794(11) 0.80483(17) 0.59538(10) 0.0186(4) Uani 1 1 d . . . . .
O8 O 0.2336(13) 0.2048(12) 0.1056(8) 0.017(2) Uani 1 1 d . . . . .
O10 O 0.9190(13) 0.2812(12) 0.2520(8) 0.018(2) Uani 1 1 d . . . . .
O6 O 0.8789(14) 0.0175(12) 0.5781(10) 0.029(2) Uani 1 1 d . . . . .
O2 O 1.0501(13) 0.4743(14) 0.4174(9) 0.029(3) Uani 1 1 d . . . . .
O7 O 0.5556(13) 0.2521(12) 0.2008(9) 0.021(2) Uani 1 1 d . . . . .
N1 N 0.453(2) 0.1142(12) 0.5761(14) 0.019(3) Uani 1 1 d . . . . .
H1E H 0.478023 0.012018 0.605410 0.029 Uiso 1 1 calc R U . . .
H1D H 0.535091 0.138693 0.518451 0.029 Uiso 1 1 calc R U . . .
H1C H 0.325444 0.120582 0.539460 0.029 Uiso 1 1 calc R U . . .
O1 O 0.8293(14) 0.6913(12) 0.4626(10) 0.025(2) Uani 1 1 d . . . . .
O3 O 0.6985(13) 0.4587(12) 0.3491(9) 0.022(2) Uani 1 1 d . . . . .
O5 O 1.0772(13) 0.1762(13) 0.4525(10) 0.029(3) Uani 1 1 d . . . . .
B4 B 0.355(2) 0.258(2) 0.2112(15) 0.017(3) Uani 1 1 d . U . . .
N2 N 0.3978(18) 0.3190(16) 0.8909(12) 0.027(3) Uani 1 1 d . . . . .
H2E H 0.386804 0.421609 0.859963 0.041 Uiso 1 1 calc R U . . .
H2D H 0.522238 0.302984 0.930017 0.041 Uiso 1 1 calc R U . . .
H2C H 0.309835 0.304445 0.947013 0.041 Uiso 1 1 calc R U . . .
B1 B 0.864(2) 0.540(2) 0.4126(15) 0.023(4) Uani 1 1 d . U . . .
B3 B 0.892(2) 0.1191(19) 0.4814(15) 0.016(3) Uani 1 1 d . U . . .
B2 B 0.713(2) 0.295(2) 0.3049(15) 0.019(3) Uani 1 1 d . . . . .
C2 C 0.485(3) 0.234(2) 0.6853(16) 0.036(4) Uani 1 1 d . . . . .
H2A H 0.625151 0.228717 0.723015 0.043 Uiso 1 1 calc R U . . .
H2B H 0.459128 0.345001 0.652486 0.043 Uiso 1 1 calc R U . . .
O9 O 0.2825(13) 0.3139(12) 0.3188(9) 0.022(2) Uani 1 1 d . . . . .
O4 O 0.7189(14) 0.1691(13) 0.4082(10) 0.030(3) Uani 1 1 d . . . . .
C1 C 0.356(3) 0.201(2) 0.7854(15) 0.043(5) Uani 1 1 d . . . . .
H1A H 0.215402 0.209403 0.749068 0.051 Uiso 1 1 calc R U . . .
H1B H 0.379375 0.089216 0.817779 0.051 Uiso 1 1 calc R U . . .
loop_
_atom_site_aniso_label
_atom_site_aniso_U_11
_atom_site_aniso_U_22
_atom_site_aniso_U_33
_atom_site_aniso_U_23
_atom_site_aniso_U_13
_atom_site_aniso_U_12
B5 0.009(7) 0.027(10) 0.021(7) -0.005(7) 0.004(6) -0.007(8)
Ga 0.0139(7) 0.0161(7) 0.0263(7) 0.0011(11) 0.0041(5) 0.0010(12)
O8 0.013(5) 0.019(6) 0.020(5) -0.005(4) 0.004(4) -0.002(5)
O10 0.014(5) 0.017(5) 0.022(5) -0.010(4) 0.003(4) -0.002(4)
O6 0.023(5) 0.018(6) 0.046(6) 0.003(5) 0.007(5) 0.001(5)
O2 0.015(5) 0.033(7) 0.039(6) -0.011(5) 0.006(4) 0.002(5)
O7 0.011(5) 0.024(5) 0.030(5) -0.008(4) 0.007(4) -0.007(4)
N1 0.024(5) 0.008(5) 0.027(8) 0.005(6) 0.011(5) 0.000(7)
O1 0.017(5) 0.016(6) 0.040(6) -0.001(5) -0.003(4) 0.005(5)
O3 0.014(5) 0.012(5) 0.042(6) -0.009(4) 0.006(4) -0.007(4)
O5 0.014(5) 0.030(7) 0.045(6) 0.007(5) 0.010(5) 0.001(5)
B4 0.014(6) 0.011(6) 0.026(7) -0.002(5) 0.006(6) -0.003(6)
N2 0.018(6) 0.032(8) 0.034(7) -0.001(6) 0.009(5) 0.006(6)
B1 0.023(7) 0.027(8) 0.023(6) 0.007(6) 0.011(6) 0.013(7)
B3 0.016(7) 0.003(6) 0.032(7) -0.001(6) 0.009(5) -0.002(6)
B2 0.011(7) 0.020(9) 0.026(8) 0.002(7) 0.005(6) -0.009(7)
C2 0.034(10) 0.030(10) 0.048(10) -0.005(8) 0.022(8) -0.002(9)
O9 0.011(5) 0.025(6) 0.031(5) -0.008(5) 0.007(4) -0.002(5)
O4 0.009(5) 0.039(7) 0.043(6) 0.008(5) 0.004(4) 0.009(5)
C1 0.072(14) 0.026(10) 0.036(9) -0.008(8) 0.030(9) -0.014(11)
loop_
_atom_type_symbol
_atom_type_description
_atom_type_scat_dispersion_real
_atom_type_scat_dispersion_imag
_atom_type_scat_source
C C 0.0033 0.0016 'International Tables Vol C Tables 4.2.6.8 and 6.1.1.4'
H H 0.0000 0.0000 'International Tables Vol C Tables 4.2.6.8 and 6.1.1.4'
B B 0.0013 0.0007 'International Tables Vol C Tables 4.2.6.8 and 6.1.1.4'
Ga Ga 0.2307 1.6083 'International Tables Vol C Tables 4.2.6.8 and 6.1.1.4'
N N 0.0061 0.0033 'International Tables Vol C Tables 4.2.6.8 and 6.1.1.4'
O O 0.0106 0.0060 'International Tables Vol C Tables 4.2.6.8 and 6.1.1.4'
loop_
_geom_angle_atom_site_label_1
_geom_angle_atom_site_label_2
_geom_angle_atom_site_label_3
_geom_angle
_geom_angle_site_symmetry_1
_geom_angle_site_symmetry_3
_geom_angle_publ_flag
O9 B5 O5 108.9(12) 1_655 . ?
O9 B5 O2 108.1(12) 1_655 . ?
O5 B5 O2 111.7(11) . . ?
O9 B5 O10 113.5(11) 1_655 . ?
O5 B5 O10 106.8(12) . . ?
O2 B5 O10 107.8(12) . . ?
O1 Ga O6 107.7(4) . 1_565 ?
O1 Ga O10 113.2(4) . 2_565 ?
O6 Ga O10 112.3(5) 1_565 2_565 ?
O1 Ga O8 113.8(4) . 2_665 ?
O6 Ga O8 109.1(4) 1_565 2_665 ?
O10 Ga O8 100.7(4) 2_565 2_665 ?
B4 O8 Ga 123.6(9) . 2_464 ?
B5 O10 B2 109.1(10) . . ?
B5 O10 Ga 124.0(8) . 2_564 ?
B2 O10 Ga 125.4(8) . 2_564 ?
B3 O6 Ga 128.8(10) . 1_545 ?
B1 O2 B5 122.3(12) . . ?
B4 O7 B2 124.0(11) . . ?
C2 N1 H1E 109.5 . . ?
C2 N1 H1D 109.5 . . ?
H1E N1 H1D 109.5 . . ?
C2 N1 H1C 109.5 . . ?
H1E N1 H1C 109.5 . . ?
H1D N1 H1C 109.5 . . ?
B1 O1 Ga 132.0(9) . . ?
B1 O3 B2 121.3(12) . . ?
B3 O5 B5 120.1(11) . . ?
O8 B4 O9 123.1(13) . . ?
O8 B4 O7 114.6(13) . . ?
O9 B4 O7 122.3(13) . . ?
C1 N2 H2E 109.5 . . ?
C1 N2 H2D 109.5 . . ?
H2E N2 H2D 109.5 . . ?
C1 N2 H2C 109.5 . . ?
H2E N2 H2C 109.5 . . ?
H2D N2 H2C 109.5 . . ?
O2 B1 O1 123.0(15) . . ?
O2 B1 O3 120.4(14) . . ?
O1 B1 O3 116.5(13) . . ?
O6 B3 O4 119.0(14) . . ?
O6 B3 O5 121.4(14) . . ?
O4 B3 O5 119.6(13) . . ?
O3 B2 O7 113.2(12) . . ?
O3 B2 O4 113.5(12) . . ?
O7 B2 O4 109.5(12) . . ?
O3 B2 O10 106.6(12) . . ?
O7 B2 O10 107.8(11) . . ?
O4 B2 O10 105.7(11) . . ?
C1 C2 N1 112.8(14) . . ?
C1 C2 H2A 109.0 . . ?
N1 C2 H2A 109.0 . . ?
C1 C2 H2B 109.0 . . ?
N1 C2 H2B 109.0 . . ?
H2A C2 H2B 107.8 . . ?
B4 O9 B5 132.7(11) . 1_455 ?
B3 O4 B2 123.7(12) . . ?
N2 C1 C2 110.4(14) . . ?
N2 C1 H1A 109.6 . . ?
C2 C1 H1A 109.6 . . ?
N2 C1 H1B 109.6 . . ?
C2 C1 H1B 109.6 . . ?
H1A C1 H1B 108.1 . . ?
loop_
_geom_bond_atom_site_label_1
_geom_bond_atom_site_label_2
_geom_bond_distance
_geom_bond_site_symmetry_2
_geom_bond_publ_flag
B5 O9 1.432(17) 1_655 ?
B5 O5 1.47(2) . ?
B5 O2 1.48(2) . ?
B5 O10 1.507(16) . ?
Ga O1 1.795(10) . ?
Ga O6 1.801(10) 1_565 ?
Ga O10 1.832(9) 2_565 ?
Ga O8 1.834(9) 2_665 ?
O8 B4 1.358(17) . ?
O10 B2 1.550(17) . ?
O6 B3 1.316(19) . ?
O2 B1 1.348(18) . ?
O7 B4 1.363(18) . ?
O7 B2 1.460(17) . ?
N1 C2 1.493(19) . ?
N1 H1E 0.8900 . ?
N1 H1D 0.8900 . ?
N1 H1C 0.8900 . ?
O1 B1 1.359(19) . ?
O3 B1 1.39(2) . ?
O3 B2 1.41(2) . ?
O5 B3 1.390(18) . ?
B4 O9 1.358(18) . ?
N2 C1 1.46(2) . ?
N2 H2E 0.8900 . ?
N2 H2D 0.8900 . ?
N2 H2C 0.8900 . ?
B3 O4 1.367(18) . ?
B2 O4 1.482(19) . ?
C2 C1 1.47(2) . ?
C2 H2A 0.9700 . ?
C2 H2B 0.9700 . ?
C1 H1A 0.9700 . ?
C1 H1B 0.9700 . ?
