#------------------------------------------------------------------------------
#$Date: 2021-07-08 07:41:02 +0300 (Thu, 08 Jul 2021) $
#$Revision: 267369 $
#$URL: file:///home/coder/svn-repositories/cod/cif/7/24/31/7243177.cif $
#------------------------------------------------------------------------------
#
# This file is available in the Crystallography Open Database (COD),
# http://www.crystallography.net/
#
# All data on this site have been placed in the public domain by the
# contributors.
#
data_7243177
loop_
_publ_author_name
'Vu\<sak, Darko'
'Smre\<cki, Neven'
'Muratovi\'c, Senada'
'\<Zili\'c, Dijana'
'Prugove\<cki, Biserka'
'Matkovi\'c-\<Calogovi\'c, Dubravka'
_publ_section_title
;
 Structural diversity in the coordination compounds of cobalt, nickel and
 copper with N-alkylglycinates: crystallographic and ESR study in the
 solid state
;
_journal_issue                   38
_journal_name_full               'RSC Advances'
_journal_page_first              23779
_journal_page_last               23790
_journal_paper_doi               10.1039/D1RA04219J
_journal_volume                  11
_journal_year                    2021
_chemical_formula_moiety         'C8 H20 Co N2 O6'
_chemical_formula_sum            'C8 H20 Co N2 O6'
_chemical_formula_weight         299.19
_chemical_name_systematic        diaquabis(N-ethylglycine)cobalt(ii)
_space_group_crystal_system      triclinic
_space_group_IT_number           2
_space_group_name_Hall           '-P 1'
_space_group_name_H-M_alt        'P -1'
_atom_sites_solution_hydrogens   mixed
_audit_creation_method           SHELXL-2017/1
_audit_update_record
;
2021-05-18 deposited with the CCDC.	2021-07-01 downloaded from the CCDC.
;
_cell_angle_alpha                113.095(4)
_cell_angle_beta                 92.008(4)
_cell_angle_gamma                106.385(5)
_cell_formula_units_Z            1
_cell_length_a                   5.4717(3)
_cell_length_b                   7.1941(4)
_cell_length_c                   8.8468(4)
_cell_measurement_reflns_used    2170
_cell_measurement_temperature    295(2)
_cell_measurement_theta_max      78.6240
_cell_measurement_theta_min      5.5570
_cell_volume                     303.11(3)
_computing_cell_refinement       'CrysAlisPro 1.171.41.92a (Rigaku OD, 2020)'
_computing_data_collection       'CrysAlisPro 1.171.41.92a (Rigaku OD, 2020)'
_computing_data_reduction        'CrysAlisPro 1.171.41.92a (Rigaku OD, 2020)'
_computing_molecular_graphics    'MERCURY (C.F. Macrae et al., 2008)'
_computing_publication_material  'SHELXL-2014/7 (Sheldrick, 2014)'
_computing_structure_refinement  'SHELXL-2017/1 (Sheldrick, 2017)'
_computing_structure_solution    'SHELXT 2018/2 (Sheldrick, 2018)'
_diffrn_ambient_temperature      295(2)
_diffrn_detector_area_resol_mean 10.0000
_diffrn_measured_fraction_theta_full 0.995
_diffrn_measured_fraction_theta_max 0.991
_diffrn_measurement_device_type  'XtaLAB Synergy, Dualflex, HyPix'
_diffrn_measurement_method       '\w scans'
_diffrn_radiation_type           CuK\a
_diffrn_radiation_wavelength     1.54184
_diffrn_reflns_av_R_equivalents  0.0511
_diffrn_reflns_av_unetI/netI     0.0464
_diffrn_reflns_Laue_measured_fraction_full 0.995
_diffrn_reflns_Laue_measured_fraction_max 0.991
_diffrn_reflns_limit_h_max       6
_diffrn_reflns_limit_h_min       -6
_diffrn_reflns_limit_k_max       8
_diffrn_reflns_limit_k_min       -8
_diffrn_reflns_limit_l_max       10
_diffrn_reflns_limit_l_min       -10
_diffrn_reflns_number            3012
_diffrn_reflns_point_group_measured_fraction_full 0.995
_diffrn_reflns_point_group_measured_fraction_max 0.991
_diffrn_reflns_theta_full        67.684
_diffrn_reflns_theta_max         72.390
_diffrn_reflns_theta_min         5.512
_diffrn_source                   'micro-focus sealed X-ray tube'
_exptl_absorpt_coefficient_mu    11.317
_exptl_absorpt_correction_T_max  1.00000
_exptl_absorpt_correction_T_min  0.88440
_exptl_absorpt_correction_type   multi-scan
_exptl_absorpt_process_details
;
CrysAlisPro 1.171.40.53 (Rigaku Oxford Diffraction, 2019)
Empirical absorption correction using spherical harmonics,
 implemented in SCALE3 ABSPACK scaling algorithm.
;
_exptl_crystal_colour            orange
_exptl_crystal_density_diffrn    1.639
_exptl_crystal_description       prism
_exptl_crystal_F_000             157
_exptl_crystal_recrystallization_method
'Re-crystallisation from solvent: water'
_exptl_crystal_size_max          0.058
_exptl_crystal_size_mid          0.056
_exptl_crystal_size_min          0.025
_refine_diff_density_max         0.977
_refine_diff_density_min         -0.767
_refine_diff_density_rms         0.109
_refine_ls_extinction_method     none
_refine_ls_goodness_of_fit_ref   1.058
_refine_ls_hydrogen_treatment    mixed
_refine_ls_matrix_type           full
_refine_ls_number_parameters     87
_refine_ls_number_reflns         1186
_refine_ls_number_restraints     3
_refine_ls_restrained_S_all      1.056
_refine_ls_R_factor_all          0.0484
_refine_ls_R_factor_gt           0.0484
_refine_ls_shift/su_max          0.000
_refine_ls_shift/su_mean         0.000
_refine_ls_structure_factor_coef Fsqd
_refine_ls_weighting_details
'w=1/[\s^2^(Fo^2^)+(0.1030P)^2^] where P=(Fo^2^+2Fc^2^)/3'
_refine_ls_weighting_scheme      calc
_refine_ls_wR_factor_gt          0.1261
_refine_ls_wR_factor_ref         0.1261
_reflns_Friedel_coverage         0.000
_reflns_number_gt                1186
_reflns_number_total             1186
_reflns_threshold_expression     'I > 2\s(I)'
_cod_data_source_file            d1ra04219j2.cif
_cod_data_source_block           3_RT
_cod_database_code               7243177
_shelx_shelxl_version_number     2017/1
_shelx_space_group_comment
;
The symmetry employed for this shelxl refinement is uniquely defined
by the following loop, which should always be used as a source of
symmetry information in preference to the above space-group names.
They are only intended as comments.
;
_shelx_estimated_absorpt_t_min   0.560
_shelx_estimated_absorpt_t_max   0.765
_shelx_res_file
;
TITL shelxt_a.res in P-1
    shelx.res
    created by SHELXL-2017/1 at 13:29:43 on 18-May-2021
CELL  1.54184   5.4717   7.1941   8.8468  113.095   92.008  106.385
ZERR     1.00   0.0003   0.0004   0.0004    0.004    0.004    0.005
LATT   1
SFAC  C    H    N    O    CO
UNIT  8 20 2 6 1
MERG   2
omit -1 145
DFIX     0.850   0.010 O1W H1WA
DFIX     0.850   0.010 O1W H1WB
DANG     1.390   0.020 H1WB H1WA
omit 2  -2   1
omit  4   4   0
omit 5 2 2
FMAP   2
PLAN   20
BOND   $H
acta
size 0.058 0.056 0.025
LIST   6

L.S.  10
TEMP    22.00
WGHT    0.103000
FVAR      17.01080
CO    5    0.500000    1.000000    0.500000    10.50000    0.02455    0.02139 =
         0.02541    0.00971    0.00473    0.01059
O1W   4    0.226170    0.872726    0.631687    11.00000    0.02953    0.03076 =
         0.03551    0.01700    0.00715    0.01144
O1    4    0.722527    0.804020    0.485058    11.00000    0.02621    0.02684 =
         0.03917    0.01255    0.00236    0.01191
O2    4    0.757623    0.487460    0.334478    11.00000    0.03758    0.03309 =
         0.05573    0.02094    0.01313    0.02105
N1    3    0.287143    0.722519    0.274520    11.00000    0.02227    0.02748 =
         0.02823    0.01139    0.00450    0.01018
AFIX  13
H1    2    0.103110    0.693882    0.282386    11.00000   -1.20000
AFIX   0
C1    1    0.635077    0.615466    0.371937    11.00000    0.03034    0.02947 =
         0.03371    0.01900    0.01151    0.01434
C3    1    0.320969    0.738300    0.113982    11.00000    0.03674    0.03571 =
         0.02700    0.01103    0.00451    0.01276
AFIX  23
H3A   2    0.239058    0.599044    0.023039    11.00000   -1.20000
H3B   2    0.503731    0.781306    0.107905    11.00000   -1.20000
AFIX   0
C2    1    0.360236    0.542949    0.282167    11.00000    0.03144    0.02395 =
         0.03381    0.00875    0.00449    0.00979
AFIX  23
H2A   2    0.344336    0.436537    0.169822    11.00000   -1.20000
H2B   2    0.242026    0.476814    0.339517    11.00000   -1.20000
AFIX   0
C4    1    0.206361    0.896572    0.094039    11.00000    0.05348    0.05387 =
         0.03963    0.02367    0.00388    0.02604
AFIX  33
H4A   2    0.232077    0.902208   -0.011067    11.00000   -1.50000
H4B   2    0.024759    0.853060    0.097835    11.00000   -1.50000
H4C   2    0.289279    1.035217    0.182652    11.00000   -1.50000
AFIX   0
H1WB  2    0.075003    0.853415    0.589064    11.00000    0.06389
H1WA  2    0.228760    0.768330    0.653236    11.00000    0.07081
HKLF    4




REM  shelxt_a.res in P-1
REM R1 =  0.0484 for    1186 Fo > 4sig(Fo)  and  0.0484 for all    1186 data
REM     87 parameters refined using      3 restraints

END

WGHT      0.1020      0.0000

REM Highest difference peak  0.977,  deepest hole -0.767,  1-sigma level  0.109
Q1    1   0.4247  0.8904  0.3891  11.00000  0.05    0.98
Q2    1   0.4666  1.0206  0.6021  11.00000  0.05    0.81
Q3    1   0.3566  0.7721  0.2389  11.00000  0.05    0.42
Q4    1   0.7416  0.7585  0.3776  11.00000  0.05    0.41
Q5    1   0.3593  0.9838  0.4381  11.00000  0.05    0.40
Q6    1   0.6712  0.3829  0.2561  11.00000  0.05    0.36
Q7    1   0.2198  0.9396  0.7392  11.00000  0.05    0.35
Q8    1   0.6829  0.4400  0.4003  11.00000  0.05    0.28
Q9    1   0.3401  0.9872  0.7106  11.00000  0.05    0.28
Q10   1   0.8149  0.5732  0.4472  11.00000  0.05    0.28
Q11   1   0.6099  0.6832  0.4783  11.00000  0.05    0.27
Q12   1   0.2700  0.7591  0.3547  11.00000  0.05    0.24
Q13   1   0.6236  0.3387  0.3426  11.00000  0.05    0.23
Q14   1   0.8007  0.8569  0.6364  11.00000  0.05    0.23
Q15   1   0.5652  0.8450  0.5376  11.00000  0.05    0.22
Q16   1   0.2307  0.4000  0.2382  11.00000  0.05    0.22
Q17   1   0.8398  0.5599  0.3055  11.00000  0.05    0.21
Q18   1   0.6609  0.5800  0.2830  11.00000  0.05    0.21
Q19   1   0.4823  0.5559  0.3180  11.00000  0.05    0.19
Q20   1   0.2950  0.5355  0.4341  11.00000  0.05    0.19
;
_shelx_res_checksum              61395
loop_
_space_group_symop_operation_xyz
'x, y, z'
'-x, -y, -z'
loop_
_atom_site_label
_atom_site_type_symbol
_atom_site_fract_x
_atom_site_fract_y
_atom_site_fract_z
_atom_site_U_iso_or_equiv
_atom_site_adp_type
_atom_site_occupancy
_atom_site_site_symmetry_order
_atom_site_calc_flag
_atom_site_refinement_flags_posn
_atom_site_refinement_flags_adp
_atom_site_refinement_flags_occupancy
_atom_site_disorder_assembly
_atom_site_disorder_group
Co Co 0.500000 1.000000 0.500000 0.0231(3) Uani 1 2 d S . P . .
O1W O 0.2262(4) 0.8727(3) 0.6317(3) 0.0305(5) Uani 1 1 d D . . . .
O1 O 0.7225(4) 0.8040(3) 0.4851(3) 0.0305(5) Uani 1 1 d . . . . .
O2 O 0.7576(5) 0.4875(4) 0.3345(3) 0.0390(6) Uani 1 1 d . . . . .
N1 N 0.2871(5) 0.7225(4) 0.2745(3) 0.0256(5) Uani 1 1 d . . . . .
H1 H 0.103110 0.693882 0.282386 0.031 Uiso 1 1 calc R U . . .
C1 C 0.6351(6) 0.6155(5) 0.3719(4) 0.0280(6) Uani 1 1 d . . . . .
C3 C 0.3210(7) 0.7383(5) 0.1140(4) 0.0336(7) Uani 1 1 d . . . . .
H3A H 0.239058 0.599044 0.023039 0.040 Uiso 1 1 calc R U . . .
H3B H 0.503731 0.781306 0.107905 0.040 Uiso 1 1 calc R U . . .
C2 C 0.3602(6) 0.5429(5) 0.2822(4) 0.0307(6) Uani 1 1 d . . . . .
H2A H 0.344336 0.436537 0.169822 0.037 Uiso 1 1 calc R U . . .
H2B H 0.242026 0.476814 0.339517 0.037 Uiso 1 1 calc R U . . .
C4 C 0.2064(8) 0.8966(7) 0.0940(5) 0.0458(9) Uani 1 1 d . . . . .
H4A H 0.232077 0.902208 -0.011067 0.069 Uiso 1 1 calc R U . . .
H4B H 0.024759 0.853060 0.097835 0.069 Uiso 1 1 calc R U . . .
H4C H 0.289279 1.035217 0.182652 0.069 Uiso 1 1 calc R U . . .
H1WB H 0.075(4) 0.853(8) 0.589(7) 0.064(16) Uiso 1 1 d D . . . .
H1WA H 0.229(9) 0.768(6) 0.653(7) 0.071(17) Uiso 1 1 d D . . . .
loop_
_atom_site_aniso_label
_atom_site_aniso_U_11
_atom_site_aniso_U_22
_atom_site_aniso_U_33
_atom_site_aniso_U_23
_atom_site_aniso_U_13
_atom_site_aniso_U_12
Co 0.0245(4) 0.0214(3) 0.0254(3) 0.0097(2) 0.0047(2) 0.0106(2)
O1W 0.0295(11) 0.0308(11) 0.0355(11) 0.0170(9) 0.0071(8) 0.0114(9)
O1 0.0262(10) 0.0268(10) 0.0392(12) 0.0126(9) 0.0024(8) 0.0119(8)
O2 0.0376(12) 0.0331(12) 0.0557(15) 0.0209(11) 0.0131(10) 0.0211(10)
N1 0.0223(12) 0.0275(12) 0.0282(12) 0.0114(9) 0.0045(9) 0.0102(10)
C1 0.0303(15) 0.0295(14) 0.0337(15) 0.0190(12) 0.0115(12) 0.0143(12)
C3 0.0367(16) 0.0357(16) 0.0270(15) 0.0110(12) 0.0045(12) 0.0128(13)
C2 0.0314(15) 0.0240(14) 0.0338(15) 0.0087(11) 0.0045(12) 0.0098(12)
C4 0.053(2) 0.054(2) 0.0396(18) 0.0237(16) 0.0039(15) 0.0260(18)
loop_
_atom_type_symbol
_atom_type_description
_atom_type_scat_dispersion_real
_atom_type_scat_dispersion_imag
_atom_type_scat_source
C C 0.0181 0.0091 'International Tables Vol C Tables 4.2.6.8 and 6.1.1.4'
H H 0.0000 0.0000 'International Tables Vol C Tables 4.2.6.8 and 6.1.1.4'
N N 0.0311 0.0180 'International Tables Vol C Tables 4.2.6.8 and 6.1.1.4'
O O 0.0492 0.0322 'International Tables Vol C Tables 4.2.6.8 and 6.1.1.4'
Co Co -2.3653 3.6143 'International Tables Vol C Tables 4.2.6.8 and 6.1.1.4'
loop_
_geom_angle_atom_site_label_1
_geom_angle_atom_site_label_2
_geom_angle_atom_site_label_3
_geom_angle
_geom_angle_site_symmetry_1
_geom_angle_site_symmetry_3
_geom_angle_publ_flag
O1 Co O1 180.0 . 2_676 ?
O1 Co O1W 84.50(8) . 2_676 ?
O1 Co O1W 95.50(8) 2_676 2_676 ?
O1 Co O1W 95.50(8) . . ?
O1 Co O1W 84.50(8) 2_676 . ?
O1W Co O1W 180.0 2_676 . ?
O1 Co N1 99.63(8) . 2_676 ?
O1 Co N1 80.37(8) 2_676 2_676 ?
O1W Co N1 87.02(9) 2_676 2_676 ?
O1W Co N1 92.98(9) . 2_676 ?
O1 Co N1 80.37(8) . . ?
O1 Co N1 99.63(8) 2_676 . ?
O1W Co N1 92.98(9) 2_676 . ?
O1W Co N1 87.02(9) . . ?
N1 Co N1 180.0 2_676 . ?
Co O1W H1WB 109(3) . . ?
Co O1W H1WA 123(4) . . ?
H1WB O1W H1WA 110(3) . . ?
C1 O1 Co 115.99(18) . . ?
C2 N1 C3 111.9(2) . . ?
C2 N1 Co 105.35(17) . . ?
C3 N1 Co 117.0(2) . . ?
C2 N1 H1 107.4 . . ?
C3 N1 H1 107.4 . . ?
Co N1 H1 107.4 . . ?
O2 C1 O1 123.8(3) . . ?
O2 C1 C2 118.9(3) . . ?
O1 C1 C2 117.3(2) . . ?
N1 C3 C4 112.0(3) . . ?
N1 C3 H3A 109.2 . . ?
C4 C3 H3A 109.2 . . ?
N1 C3 H3B 109.2 . . ?
C4 C3 H3B 109.2 . . ?
H3A C3 H3B 107.9 . . ?
N1 C2 C1 112.0(2) . . ?
N1 C2 H2A 109.2 . . ?
C1 C2 H2A 109.2 . . ?
N1 C2 H2B 109.2 . . ?
C1 C2 H2B 109.2 . . ?
H2A C2 H2B 107.9 . . ?
C3 C4 H4A 109.5 . . ?
C3 C4 H4B 109.5 . . ?
H4A C4 H4B 109.5 . . ?
C3 C4 H4C 109.5 . . ?
H4A C4 H4C 109.5 . . ?
H4B C4 H4C 109.5 . . ?
loop_
_geom_bond_atom_site_label_1
_geom_bond_atom_site_label_2
_geom_bond_distance
_geom_bond_site_symmetry_2
_geom_bond_publ_flag
Co O1 2.079(2) . ?
Co O1 2.079(2) 2_676 ?
Co O1W 2.151(2) 2_676 ?
Co O1W 2.151(2) . ?
Co N1 2.173(2) 2_676 ?
Co N1 2.173(2) . ?
O1W H1WB 0.847(10) . ?
O1W H1WA 0.848(10) . ?
O1 C1 1.267(4) . ?
O2 C1 1.238(4) . ?
N1 C2 1.480(4) . ?
N1 C3 1.482(4) . ?
N1 H1 0.9800 . ?
C1 C2 1.521(4) . ?
C3 C4 1.508(5) . ?
C3 H3A 0.9700 . ?
C3 H3B 0.9700 . ?
C2 H2A 0.9700 . ?
C2 H2B 0.9700 . ?
C4 H4A 0.9600 . ?
C4 H4B 0.9600 . ?
C4 H4C 0.9600 . ?
