#------------------------------------------------------------------------------
#$Date: 2022-02-04 21:21:59 +0200 (Fri, 04 Feb 2022) $
#$Revision: 272620 $
#$URL: file:///home/coder/svn-repositories/cod/cif/7/24/41/7244144.cif $
#------------------------------------------------------------------------------
#
# This file is available in the Crystallography Open Database (COD),
# http://www.crystallography.net/
#
# All data on this site have been placed in the public domain by the
# contributors.
#
data_7244144
loop_
_publ_author_name
'Rixson, Daniel'
'G\"unay Sezer, G\"une\,s'
'Alp, Emre'
'Mahon, Mary F.'
'Burrows, Andrew D.'
_publ_section_title
;
 Synthesis, structures and properties of metal--organic frameworks
 prepared using a semi-rigid tricarboxylate linker
;
_journal_issue                   4
_journal_name_full               CrystEngComm
_journal_page_first              863
_journal_page_last               876
_journal_paper_doi               10.1039/D1CE01284C
_journal_volume                  24
_journal_year                    2022
_chemical_formula_moiety         'C20 H12 Cd3 N2 O12'
_chemical_formula_sum            'C20 H12 Cd3 N2 O12'
_chemical_formula_weight         809.52
_space_group_crystal_system      triclinic
_space_group_IT_number           2
_space_group_name_Hall           '-P 1'
_space_group_name_H-M_alt        'P -1'
_atom_sites_solution_hydrogens   mixed
_atom_sites_solution_primary     iterative
_audit_creation_date             2018-10-25
_audit_creation_method
;
Olex2 1.2
(compiled 2018.05.29 svn.r3508 for OlexSys, GUI svn.r5506)
;
_audit_update_record
;
2021-07-22 deposited with the CCDC.	2021-12-20 downloaded from the CCDC.
;
_cell_angle_alpha                72.651(13)
_cell_angle_beta                 81.681(13)
_cell_angle_gamma                65.767(17)
_cell_formula_units_Z            1
_cell_length_a                   8.0862(15)
_cell_length_b                   8.1863(13)
_cell_length_c                   8.4893(11)
_cell_measurement_reflns_used    1188
_cell_measurement_temperature    150.00(10)
_cell_measurement_theta_max      71.6780
_cell_measurement_theta_min      5.4630
_cell_volume                     488.97(15)
_computing_cell_refinement       'CrysAlisPro 1.171.39.46 (Rigaku OD, 2018)'
_computing_data_collection       'CrysAlisPro 1.171.39.46 (Rigaku OD, 2018)'
_computing_data_reduction        'CrysAlisPro 1.171.39.46 (Rigaku OD, 2018)'
_computing_molecular_graphics    'Olex2 (Dolomanov et al., 2009)'
_computing_publication_material  'Olex2 (Dolomanov et al., 2009)'
_computing_structure_refinement  'ShelXL (Sheldrick, 2015)'
_computing_structure_solution    'olex2.solve (Bourhis et al., 2015)'
_diffrn_ambient_temperature      150.00(10)
_diffrn_detector                 'CCD plate'
_diffrn_detector_area_resol_mean 8.1150
_diffrn_detector_type            EosS2
_diffrn_measured_fraction_theta_full 0.915
_diffrn_measured_fraction_theta_max 0.914
_diffrn_measurement_device       'four-circle diffractometer'
_diffrn_measurement_device_type  'SuperNova, Dual, Cu at home/near, EosS2'
_diffrn_measurement_method       '\w scans'
_diffrn_radiation_monochromator  mirror
_diffrn_radiation_probe          x-ray
_diffrn_radiation_type           CuK\a
_diffrn_radiation_wavelength     1.54184
_diffrn_reflns_av_R_equivalents  0.0286
_diffrn_reflns_av_unetI/netI     0.0537
_diffrn_reflns_Laue_measured_fraction_full 0.915
_diffrn_reflns_Laue_measured_fraction_max 0.914
_diffrn_reflns_limit_h_max       9
_diffrn_reflns_limit_h_min       -8
_diffrn_reflns_limit_k_max       9
_diffrn_reflns_limit_k_min       -9
_diffrn_reflns_limit_l_max       10
_diffrn_reflns_limit_l_min       -10
_diffrn_reflns_number            2549
_diffrn_reflns_point_group_measured_fraction_full 0.915
_diffrn_reflns_point_group_measured_fraction_max 0.914
_diffrn_reflns_theta_full        67.684
_diffrn_reflns_theta_max         68.176
_diffrn_reflns_theta_min         6.003
_diffrn_source                   'micro-focus sealed X-ray tube'
_diffrn_source_type              'SuperNova (Cu) X-ray Source'
_exptl_absorpt_coefficient_mu    26.648
_exptl_absorpt_correction_T_max  0.54577
_exptl_absorpt_correction_T_min  0.50765
_exptl_absorpt_correction_type   sphere
_exptl_absorpt_process_details
;
CrysAlisPro 1.171.39.46 (Rigaku Oxford Diffraction, 2018)
Spherical absorption correction
 using equivalent radius and absorption coefficient.
Empirical absorption correction using spherical harmonics,
 implemented in SCALE3 ABSPACK scaling algorithm.
;
_exptl_crystal_colour            colourless
_exptl_crystal_colour_primary    colourless
_exptl_crystal_density_diffrn    2.749
_exptl_crystal_description       plate
_exptl_crystal_F_000             386
_exptl_crystal_size_max          0.064
_exptl_crystal_size_mid          0.033
_exptl_crystal_size_min          0.015
_exptl_crystal_size_rad          0.044
_refine_diff_density_max         1.883
_refine_diff_density_min         -1.312
_refine_diff_density_rms         0.218
_refine_ls_extinction_method     none
_refine_ls_goodness_of_fit_ref   1.045
_refine_ls_hydrogen_treatment    mixed
_refine_ls_matrix_type           full
_refine_ls_number_parameters     173
_refine_ls_number_reflns         1632
_refine_ls_number_restraints     1
_refine_ls_restrained_S_all      1.045
_refine_ls_R_factor_all          0.0614
_refine_ls_R_factor_gt           0.0488
_refine_ls_shift/su_max          0.000
_refine_ls_shift/su_mean         0.000
_refine_ls_structure_factor_coef Fsqd
_refine_ls_weighting_details
'w=1/[\s^2^(Fo^2^)+(0.0790P)^2^] where P=(Fo^2^+2Fc^2^)/3'
_refine_ls_weighting_scheme      calc
_refine_ls_wR_factor_gt          0.1187
_refine_ls_wR_factor_ref         0.1273
_reflns_Friedel_coverage         0.000
_reflns_number_gt                1356
_reflns_number_total             1632
_reflns_threshold_expression     'I > 2\s(I)'
_iucr_refine_instructions_details
;
TITL s18adb31
CELL 1.54184 8.0862 8.1863 8.4893 72.651 81.681 65.767
ZERR 1 0.0015 0.0013 0.0011 0.013 0.013 0.017
LATT 1
SFAC C H Cd N O
UNIT 20 12 3 2 12
DFIX 0.98 0.005 N1 H1
 
L.S. 4 0 0
PLAN  20
more -3
fmap 2 53
acta
SHEL 999 0.83
REM <olex2.extras>
REM <HklSrc "%.\\s18adb31.hkl">
REM </olex2.extras>
 
WGHT    0.079000
FVAR       0.59624
CD2   3    0.500000    1.000000    0.000000    10.50000    0.02665    0.02752 =
         0.02395   -0.00033   -0.00235   -0.01116
CD1   3    0.887441   -0.009362    0.206010    11.00000    0.02495    0.02475 =
         0.02038    0.00282   -0.00172   -0.00870
O4    5    0.094629    0.776315    0.077186    11.00000    0.02166    0.02217 =
         0.02704   -0.00179   -0.00613   -0.00490
O3    5    0.340906    0.822208   -0.022342    11.00000    0.03271    0.02394 =
         0.01703    0.00449   -0.00037   -0.01397
O1    5    1.159216    0.008529    0.239991    11.00000    0.03134    0.02903 =
         0.02951   -0.00404   -0.00364   -0.00985
O5    5    0.140381    0.221083    0.563482    11.00000    0.03476    0.03625 =
         0.02500    0.01154    0.00564   -0.01986
N1    4    0.846297    0.246278    0.316846    11.00000    0.02728    0.02934 =
         0.01902   -0.00077    0.00332   -0.01314
O2    5    1.263814    0.222742    0.085190    11.00000    0.03113    0.03354 =
         0.04045   -0.00822    0.00735   -0.01282
O6    5    0.358546    0.137920    0.737017    11.00000    0.05497    0.04231 =
         0.02255    0.01344   -0.01200   -0.01848
C8    1    0.377987    0.333494    0.467845    11.00000    0.02696    0.02766 =
         0.01803   -0.00373    0.00263   -0.01382
C9    1    0.288434    0.226735    0.597547    11.00000    0.03935    0.02345 =
         0.01924    0.00290    0.00255   -0.00864
C4    1    0.559039    0.500434    0.208741    11.00000    0.02927    0.02483 =
         0.01960    0.00168   -0.00012   -0.01650
AFIX  43
H4    2    0.618619    0.556950    0.122070    11.00000   -1.20000
AFIX   0
C3    1    0.656003    0.344969    0.328965    11.00000    0.02646    0.03401 =
         0.01902   -0.00220   -0.00276   -0.01041
C2    1    0.968882    0.329862    0.211441    11.00000    0.02640    0.03090 =
         0.02785   -0.00608    0.00026   -0.01306
AFIX  23
H2A   2    0.995489    0.403912    0.266806    11.00000   -1.20000
H2B   2    0.911056    0.410382    0.108312    11.00000   -1.20000
AFIX   0
C6    1    0.261135    0.734028    0.086157    11.00000    0.03878    0.02222 =
         0.01137    0.00338   -0.00004   -0.01453
C5    1    0.369985    0.570608    0.220303    11.00000    0.02546    0.02470 =
         0.01764   -0.00053   -0.00237   -0.01114
C10   1    0.565671    0.263746    0.460669    11.00000    0.03858    0.02124 =
         0.01830   -0.00358   -0.00103   -0.00667
AFIX  43
H10   2    0.631586    0.162647    0.543734    11.00000   -1.20000
AFIX   0
C7    1    0.276685    0.486852    0.346304    11.00000    0.03044    0.03124 =
         0.02512   -0.00631   -0.00203   -0.01285
AFIX  43
H7    2    0.150650    0.531883    0.349241    11.00000   -1.20000
AFIX   0
C1    1    1.144089    0.174794    0.177263    11.00000    0.02390    0.03472 =
         0.01896    0.00345   -0.00299   -0.01621
H1    2    0.882632    0.172572    0.429706    11.00000    0.05386
HKLF 4
 
REM  s18adb31
REM R1 =  0.0488 for    1356 Fo > 4sig(Fo)  and  0.0614 for all    1632 data
REM    173 parameters refined using      1 restraints
 
END  
     
WGHT      0.0790      0.0000 

REM Highest difference peak  1.883,  deepest hole -1.312,  1-sigma level  0.218
Q1    1   0.3805  1.0762  0.0070  11.00000  0.05    1.88
Q2    1   0.7746  0.0616  0.2071  11.00000  0.05    1.87
Q3    1   0.9986 -0.0950  0.1800  11.00000  0.05    1.57
Q4    1   0.4140  0.7765  0.1407  11.00000  0.05    1.20
Q5    1   0.1698  0.2655  0.6938  11.00000  0.05    0.98
Q6    1   0.9847  0.0471  0.1826  11.00000  0.05    0.93
Q7    1   0.2142  0.9751  0.0329  11.00000  0.05    0.65
Q8    1   0.5748  1.0775 -0.0173  11.00000  0.05    0.63
Q9    1   0.2320  0.9174 -0.0401  11.00000  0.05    0.63
Q10   1   1.2792  0.2359 -0.0956  11.00000  0.05    0.61
Q11   1   0.3252  0.7930 -0.1005  11.00000  0.05    0.60
Q12   1   0.2413  0.1425  0.5658  11.00000  0.05    0.58
Q13   1   0.3590  0.0990  0.8382  11.00000  0.05    0.57
Q14   1   0.7868  0.2813  0.4982  11.00000  0.05    0.55
Q15   1   0.8973  0.0311  0.0225  11.00000  0.05    0.54
Q16   1   0.1459  0.0803  0.6319  11.00000  0.05    0.54
Q17   1   0.7432  0.2388  0.3042  11.00000  0.05    0.53
Q18   1   0.0985  0.7433  0.2789  11.00000  0.05    0.52
Q19   1   1.2372  0.1233  0.0791  11.00000  0.05    0.52
Q20   1   0.9366  0.2338  0.3033  11.00000  0.05    0.52

  REM The information below was added by Olex2.
  REM
  REM R1 = 0.0488 for 1356 Fo > 4sig(Fo) and 0.0614 for all 2656 data
  REM n/a parameters refined using n/a restraints
  REM Highest difference peak 1.88, deepest hole -1.31
  REM Mean Shift 0, Max Shift 0.000.

  REM +++ Tabular Listing of Refinement Information +++
  REM R1_all = 0.0614
  REM R1_gt = 0.0488
  REM wR_ref = 0.1273
  REM GOOF = 1.045
  REM Shift_max = 0.000
  REM Shift_mean = 0
  REM Reflections_all = 2656
  REM Reflections_gt = 1356
  REM Parameters = n/a
  REM Hole = -1.31
  REM Peak = 1.88
  REM Flack = n/a

  
;
_cod_data_source_file            d1ce01284c2.cif
_cod_data_source_block           s18adb31
_cod_depositor_comments
'Adding full bibliography for 7244143--7244152.cif.'
_cod_database_code               7244144
_shelxl_version_number           2014-3
_chemical_oxdiff_usercomment     'Colourless Plate'
_shelx_space_group_comment
;
The symmetry employed for this shelxl refinement is uniquely defined
by the following loop, which should always be used as a source of
symmetry information in preference to the above space-group names.
They are only intended as comments.
;
_olex2_refinement_description
;
1. Fixed Uiso
 At 1.2 times of:
  All C(H) groups, All C(H,H) groups
2. Restrained distances
 N1-H1
 0.98 with sigma of 0.005
3.a Secondary CH2 refined with riding coordinates:
 C2(H2A,H2B)
3.b Aromatic/amide H refined with riding coordinates:
 C4(H4), C10(H10), C7(H7)
;
loop_
_space_group_symop_operation_xyz
'x, y, z'
'-x, -y, -z'
loop_
_atom_site_label
_atom_site_type_symbol
_atom_site_fract_x
_atom_site_fract_y
_atom_site_fract_z
_atom_site_U_iso_or_equiv
_atom_site_adp_type
_atom_site_occupancy
_atom_site_site_symmetry_order
_atom_site_calc_flag
_atom_site_refinement_flags_posn
_atom_site_refinement_flags_adp
_atom_site_refinement_flags_occupancy
_atom_site_disorder_assembly
_atom_site_disorder_group
Cd2 Cd 0.5000 1.0000 0.0000 0.0272(3) Uani 1 2 d S T P . .
Cd1 Cd 0.88744(9) -0.00936(8) 0.20601(8) 0.0256(2) Uani 1 1 d . . . . .
O4 O 0.0946(9) 0.7763(8) 0.0772(8) 0.0254(14) Uani 1 1 d . . . . .
O3 O 0.3409(9) 0.8222(8) -0.0223(7) 0.0259(14) Uani 1 1 d . . . . .
O1 O 1.1592(9) 0.0085(9) 0.2400(8) 0.0312(15) Uani 1 1 d . . . . .
O5 O 0.1404(10) 0.2211(10) 0.5635(8) 0.0353(17) Uani 1 1 d . . . . .
N1 N 0.8463(11) 0.2463(11) 0.3168(9) 0.0263(17) Uani 1 1 d D . . . .
O2 O 1.2638(10) 0.2227(10) 0.0852(9) 0.0362(17) Uani 1 1 d . . . . .
O6 O 0.3585(12) 0.1379(10) 0.7370(9) 0.044(2) Uani 1 1 d . . . . .
C8 C 0.3780(13) 0.3335(13) 0.4678(11) 0.0240(19) Uani 1 1 d . . . . .
C9 C 0.2884(15) 0.2267(13) 0.5975(12) 0.031(2) Uani 1 1 d . . . . .
C4 C 0.5590(13) 0.5004(12) 0.2087(11) 0.0244(19) Uani 1 1 d . . . . .
H4 H 0.6186 0.5569 0.1221 0.029 Uiso 1 1 calc R . . . .
C3 C 0.6560(13) 0.3450(13) 0.3290(11) 0.028(2) Uani 1 1 d . . . . .
C2 C 0.9689(13) 0.3299(13) 0.2114(12) 0.028(2) Uani 1 1 d . . . . .
H2A H 0.9955 0.4039 0.2668 0.034 Uiso 1 1 calc R . . . .
H2B H 0.9111 0.4104 0.1083 0.034 Uiso 1 1 calc R . . . .
C6 C 0.2611(14) 0.7340(12) 0.0862(10) 0.025(2) Uani 1 1 d . . . . .
C5 C 0.3700(13) 0.5706(12) 0.2203(10) 0.0231(19) Uani 1 1 d . . . . .
C10 C 0.5657(14) 0.2637(12) 0.4607(11) 0.028(2) Uani 1 1 d . . . . .
H10 H 0.6316 0.1626 0.5437 0.034 Uiso 1 1 calc R . . . .
C7 C 0.2767(14) 0.4869(13) 0.3463(12) 0.029(2) Uani 1 1 d . . . . .
H7 H 0.1506 0.5319 0.3492 0.035 Uiso 1 1 calc R . . . .
C1 C 1.1441(13) 0.1748(13) 0.1773(11) 0.026(2) Uani 1 1 d . . . . .
H1 H 0.883(16) 0.173(14) 0.430(5) 0.05(4) Uiso 1 1 d D . . . .
loop_
_atom_site_aniso_label
_atom_site_aniso_U_11
_atom_site_aniso_U_22
_atom_site_aniso_U_33
_atom_site_aniso_U_23
_atom_site_aniso_U_13
_atom_site_aniso_U_12
Cd2 0.0267(5) 0.0275(5) 0.0240(5) -0.0003(4) -0.0023(4) -0.0112(4)
Cd1 0.0249(4) 0.0247(3) 0.0204(3) 0.0028(2) -0.0017(2) -0.0087(3)
O4 0.022(4) 0.022(3) 0.027(3) -0.002(3) -0.006(3) -0.005(2)
O3 0.033(4) 0.024(3) 0.017(3) 0.004(3) 0.000(3) -0.014(3)
O1 0.031(4) 0.029(3) 0.030(3) -0.004(3) -0.004(3) -0.010(3)
O5 0.035(4) 0.036(4) 0.025(3) 0.012(3) 0.006(3) -0.020(3)
N1 0.027(5) 0.029(4) 0.019(4) -0.001(3) 0.003(3) -0.013(3)
O2 0.031(4) 0.034(4) 0.040(4) -0.008(3) 0.007(3) -0.013(3)
O6 0.055(5) 0.042(4) 0.023(4) 0.013(3) -0.012(3) -0.018(4)
C8 0.027(5) 0.028(4) 0.018(4) -0.004(4) 0.003(4) -0.014(4)
C9 0.039(6) 0.023(4) 0.019(4) 0.003(4) 0.003(4) -0.009(4)
C4 0.029(5) 0.025(4) 0.020(4) 0.002(4) 0.000(4) -0.017(4)
C3 0.026(5) 0.034(5) 0.019(4) -0.002(4) -0.003(4) -0.010(4)
C2 0.026(5) 0.031(5) 0.028(5) -0.006(4) 0.000(4) -0.013(4)
C6 0.039(6) 0.022(4) 0.011(4) 0.003(3) 0.000(4) -0.015(4)
C5 0.025(5) 0.025(4) 0.018(4) -0.001(4) -0.002(4) -0.011(4)
C10 0.039(6) 0.021(4) 0.018(4) -0.004(4) -0.001(4) -0.007(4)
C7 0.030(6) 0.031(5) 0.025(5) -0.006(4) -0.002(4) -0.013(4)
C1 0.024(5) 0.035(5) 0.019(4) 0.003(4) -0.003(4) -0.016(4)
loop_
_atom_type_symbol
_atom_type_description
_atom_type_scat_dispersion_real
_atom_type_scat_dispersion_imag
_atom_type_scat_source
C C 0.0181 0.0091 'International Tables Vol C Tables 4.2.6.8 and 6.1.1.4'
H H 0.0000 0.0000 'International Tables Vol C Tables 4.2.6.8 and 6.1.1.4'
Cd Cd 0.1185 4.6533 'International Tables Vol C Tables 4.2.6.8 and 6.1.1.4'
N N 0.0311 0.0180 'International Tables Vol C Tables 4.2.6.8 and 6.1.1.4'
O O 0.0492 0.0322 'International Tables Vol C Tables 4.2.6.8 and 6.1.1.4'
loop_
_geom_angle_atom_site_label_1
_geom_angle_atom_site_label_2
_geom_angle_atom_site_label_3
_geom_angle
_geom_angle_site_symmetry_1
_geom_angle_site_symmetry_3
_geom_angle_publ_flag
O3 Cd2 O3 180.0 2_675 . ?
O3 Cd2 O6 72.6(2) . 1_564 ?
O3 Cd2 O6 72.6(2) 2_675 2_666 ?
O3 Cd2 O6 107.4(2) 2_675 1_564 ?
O3 Cd2 O6 107.4(2) . 2_666 ?
O2 Cd2 O3 82.9(3) 1_465 2_675 ?
O2 Cd2 O3 97.1(3) 1_465 . ?
O2 Cd2 O3 82.9(3) 2_765 . ?
O2 Cd2 O3 97.1(3) 2_765 2_675 ?
O2 Cd2 O2 180.0 2_765 1_465 ?
O2 Cd2 O6 94.4(3) 2_765 1_564 ?
O2 Cd2 O6 85.6(3) 2_765 2_666 ?
O2 Cd2 O6 94.4(3) 1_465 2_666 ?
O2 Cd2 O6 85.6(3) 1_465 1_564 ?
O6 Cd2 O6 180.0 2_666 1_564 ?
O4 Cd1 O4 82.7(2) 1_645 2_665 ?
O4 Cd1 O1 77.6(2) 1_645 . ?
O4 Cd1 N1 143.3(3) 1_645 . ?
O4 Cd1 O6 97.7(3) 1_645 2_656 ?
O4 Cd1 C9 147.5(3) 2_665 2_656 ?
O4 Cd1 C9 98.6(3) 1_645 2_656 ?
O3 Cd1 O4 52.3(2) 2_665 2_665 ?
O3 Cd1 O4 106.1(2) 2_665 1_645 ?
O3 Cd1 O1 131.3(2) 2_665 . ?
O3 Cd1 N1 91.7(2) 2_665 . ?
O3 Cd1 O6 71.1(2) 2_665 2_656 ?
O3 Cd1 C9 97.1(3) 2_665 2_656 ?
O1 Cd1 O4 81.2(2) . 2_665 ?
O1 Cd1 N1 66.8(3) . . ?
O1 Cd1 O6 157.6(2) . 2_656 ?
O1 Cd1 C9 131.0(3) . 2_656 ?
O5 Cd1 O4 174.4(2) 2_656 2_665 ?
O5 Cd1 O4 95.0(2) 2_656 1_645 ?
O5 Cd1 O3 124.1(3) 2_656 2_665 ?
O5 Cd1 O1 103.4(3) 2_656 . ?
O5 Cd1 N1 101.2(3) 2_656 . ?
O5 Cd1 O6 54.8(2) 2_656 2_656 ?
O5 Cd1 C9 27.7(3) 2_656 2_656 ?
N1 Cd1 O4 83.5(2) . 2_665 ?
N1 Cd1 O6 118.5(3) . 2_656 ?
N1 Cd1 C9 111.0(3) . 2_656 ?
O6 Cd1 O4 120.3(2) 2_656 2_665 ?
O6 Cd1 C9 27.2(3) 2_656 2_656 ?
Cd1 O4 Cd1 97.3(2) 1_465 2_665 ?
C6 O4 Cd1 120.2(6) . 1_465 ?
C6 O4 Cd1 86.3(5) . 2_665 ?
Cd1 O3 Cd2 107.9(2) 2_665 . ?
C6 O3 Cd2 131.0(6) . . ?
C6 O3 Cd1 101.0(6) . 2_665 ?
C1 O1 Cd1 108.2(6) . . ?
C9 O5 Cd1 98.6(6) . 2_656 ?
C3 N1 Cd1 105.9(6) . . ?
C3 N1 C2 123.2(8) . . ?
C2 N1 Cd1 103.4(5) . . ?
C1 O2 Cd2 117.3(6) . 1_645 ?
Cd2 O6 Cd1 99.5(3) 1_546 2_656 ?
C9 O6 Cd2 173.3(7) . 1_546 ?
C9 O6 Cd1 86.1(7) . 2_656 ?
C10 C8 C9 117.9(8) . . ?
C10 C8 C7 120.9(9) . . ?
C7 C8 C9 120.8(9) . . ?
O5 C9 Cd1 53.8(5) . 2_656 ?
O5 C9 C8 119.0(8) . . ?
O6 C9 Cd1 66.7(6) . 2_656 ?
O6 C9 O5 120.3(9) . . ?
O6 C9 C8 120.7(10) . . ?
C8 C9 Cd1 170.1(7) . 2_656 ?
C3 C4 C5 118.6(9) . . ?
C4 C3 N1 123.2(9) . . ?
C4 C3 C10 120.3(9) . . ?
C10 C3 N1 116.0(8) . . ?
N1 C2 C1 108.9(7) . . ?
O4 C6 O3 120.1(8) . . ?
O4 C6 C5 120.3(8) . . ?
O3 C6 C5 119.5(9) . . ?
C4 C5 C6 119.6(8) . . ?
C7 C5 C4 122.1(8) . . ?
C7 C5 C6 118.1(8) . . ?
C8 C10 C3 120.0(8) . . ?
C5 C7 C8 117.9(9) . . ?
O1 C1 O2 124.6(9) . . ?
O1 C1 C2 118.2(8) . . ?
O2 C1 C2 117.2(8) . . ?
loop_
_geom_bond_atom_site_label_1
_geom_bond_atom_site_label_2
_geom_bond_distance
_geom_bond_site_symmetry_2
_geom_bond_publ_flag
Cd2 O3 2.363(6) . ?
Cd2 O3 2.363(6) 2_675 ?
Cd2 O2 2.241(7) 2_765 ?
Cd2 O2 2.241(7) 1_465 ?
Cd2 O6 2.396(7) 2_666 ?
Cd2 O6 2.396(7) 1_564 ?
Cd1 O4 2.614(6) 2_665 ?
Cd1 O4 2.298(6) 1_645 ?
Cd1 O3 2.297(6) 2_665 ?
Cd1 O1 2.325(7) . ?
Cd1 O5 2.248(6) 2_656 ?
Cd1 N1 2.426(8) . ?
Cd1 O6 2.537(8) 2_656 ?
Cd1 C9 2.755(10) 2_656 ?
O4 Cd1 2.614(6) 2_665 ?
O4 Cd1 2.298(6) 1_465 ?
O4 C6 1.253(12) . ?
O3 Cd1 2.297(6) 2_665 ?
O3 C6 1.265(11) . ?
O1 C1 1.265(11) . ?
O5 Cd1 2.248(6) 2_656 ?
O5 C9 1.293(13) . ?
N1 C3 1.419(12) . ?
N1 C2 1.479(12) . ?
O2 Cd2 2.241(7) 1_645 ?
O2 C1 1.270(11) . ?
O6 Cd2 2.396(7) 1_546 ?
O6 Cd1 2.537(8) 2_656 ?
O6 C9 1.263(11) . ?
C8 C9 1.488(13) . ?
C8 C10 1.384(14) . ?
C8 C7 1.393(13) . ?
C9 Cd1 2.755(10) 2_656 ?
C4 C3 1.383(12) . ?
C4 C5 1.395(13) . ?
C3 C10 1.395(13) . ?
C2 C1 1.526(13) . ?
C6 C5 1.509(11) . ?
C5 C7 1.392(13) . ?
loop_
_refln_index_h
_refln_index_k
_refln_index_l
_refln_F_squared_meas
_refln_F_squared_sigma
0 0 3 157.56 13.5
0 0 -3 172.95 15.58
0 0 -4 2421.31 66.62
0 0 4 2389 58.7
0 0 -5 2697.77 81.71
0 0 5 2739.35 73.37
0 0 -6 104.52 21.82
0 0 6 86.65 17.12
0 0 -7 387.41 35.35
0 0 -8 56.58 14.17
0 0 -9 535.28 33.92
0 0 -10 260.32 17.93
0 1 -9 294.88 23.81
0 1 -8 -5.13 8.4
0 1 -7 66.12 17.41
0 1 -6 96.71 20.48
0 1 -5 2038.38 76.14
0 -1 5 1945.99 64.02
0 1 -4 2482.1 71.46
0 -1 4 2506.51 62.65
0 -1 3 183.43 15.17
0 1 -3 208.98 18.24
0 -1 2 251.86 13.22
0 -1 1 2963.92 43.76
0 -1 1 2940.68 33.77
0 1 0 6481.63 44.77
0 1 2 145.56 10.34
0 1 3 11.93 4.27
0 1 3 11.14 5
0 -1 -3 24.46 8.92
0 1 3 23.5 6.37
0 1 4 1660.27 47.97
0 -1 -4 1694.85 54.57
0 1 5 3353.34 78.78
0 -1 -6 192.27 27.17
0 1 6 144.46 19.37
0 1 7 303.72 30.3
0 -1 -7 294.96 30.32
0 1 8 -6.08 10.59
0 -1 -8 31.13 17.59
0 -1 -9 123.97 17.84
0 -1 -10 212.3 16.81
0 2 -9 268.16 20.87
0 2 -8 66.76 13.34
0 2 -7 207.55 25.02
0 2 -6 516.08 39.99
0 2 -5 2954.91 105.49
0 2 -4 2353.96 82.3
0 2 -3 75.17 16.28
0 -2 3 48.27 10.19
0 2 -2 1151.1 41.94
0 -2 1 453.24 20.52
0 2 -1 453.88 24.99
0 2 -1 438.53 22.92
0 2 0 1071.44 24.46
0 2 2 3621.49 45.58
0 2 2 3534.71 57.35
0 2 3 230.5 17.21
0 2 3 283.12 17.15
0 2 4 1479.62 41.53
0 -2 -4 1516.16 49.52
0 2 4 1504.36 45.35
0 2 4 1582.4 45.04
0 -2 -5 3948.25 97.36
0 2 5 3961.81 82.53
0 2 6 313.22 26.81
0 -2 -7 198.01 25.15
0 2 7 215.24 25.69
0 2 8 9.57 11.26
0 -2 -8 -6.08 10.49
0 2 9 348.53 27.63
0 -2 -9 309.94 26.9
0 2 10 226.05 16.51
0 -2 -10 242.08 17.77
0 3 -8 6.77 7.49
0 3 -7 290.76 27.39
0 3 -6 124.84 18.87
0 3 -6 128.27 19.83
0 3 -5 1353.94 61.69
0 3 -4 1318.84 69.17
0 3 -4 1495.31 74.88
0 3 -3 14.4 11.06
0 3 -3 10.13 10.41
0 3 -2 464.61 32.96
0 3 -2 450.66 30.96
0 3 -1 135.75 17.35
0 3 0 2172.31 56.02
0 -3 0 2036.11 51.59
0 3 0 2106.59 51.69
0 3 1 1078.95 36.63
0 3 2 237.91 17.99
0 -3 -2 206.84 15.94
0 3 3 918.8 28.87
0 3 3 1071.19 38.59
0 3 4 951.77 34.63
0 3 5 1423.69 55.36
0 -3 -5 1421.57 59.08
0 3 5 1548.72 51.22
0 -3 -6 326.29 34.46
0 3 6 356.34 29
0 -3 -7 40.49 18.24
0 3 7 36.47 12.55
0 3 8 20.37 9.36
0 3 9 369.54 27.88
0 3 10 332.63 20.82
0 4 -7 244.08 26.95
0 4 -6 8.31 9.88
0 4 -5 1355.96 62.09
0 4 -4 395.22 35.16
0 4 -3 25.32 12.73
0 4 -2 252.19 27.17
0 4 -2 284.27 25.4
0 4 -1 599.18 34.15
0 -4 1 595.13 35.62
0 4 -1 566.91 36.79
0 4 0 5124.93 106.2
0 4 0 5133.36 97.22
0 -4 0 5100.73 98.72
0 4 1 754.76 37.94
0 -4 -2 19.7 9.39
0 -4 -3 94.82 16.11
0 4 5 831.5 46.97
0 -4 -5 841.73 49.3
0 -4 -7 99.9 21.7
0 4 7 129.25 19.66
0 4 8 1.88 9.7
0 4 9 263.53 23.81
0 4 10 270.56 18.56
0 5 -6 8.32 9.06
0 5 -5 869.64 47.44
0 5 -5 893.75 54.93
0 5 -4 858.66 50.69
0 5 -4 832.73 55.57
0 5 -3 42.52 14.57
0 5 -3 43.21 16.74
0 -5 2 115.04 17.28
0 5 -1 250.76 26.08
0 -5 1 251.06 28.8
0 5 -1 258.78 27.47
0 5 -1 209.66 27.28
0 5 0 2519.47 80.14
0 -5 -2 10.08 13.3
0 -5 -3 34.34 14.86
0 5 4 185.09 21.09
0 -5 -7 30.45 18.5
0 5 7 20.02 11.33
0 -5 -8 34.07 15.34
0 5 8 24.67 8.62
0 5 9 86.14 14.74
0 6 -5 797.75 44.85
0 6 -4 1065.24 56.99
0 6 -3 26.15 13.55
0 6 -2 131.41 24.68
0 6 -1 128.08 22.64
0 6 0 1176.48 63.04
0 6 2 171.04 23.4
0 6 3 34.95 13.4
0 6 3 26.12 12.59
0 6 4 218.98 26.37
0 6 4 222.05 30.5
0 6 5 1111.38 59.54
0 6 5 1155.46 56.66
0 6 6 365.48 35.34
0 -6 -7 9.3 12.83
0 -6 -8 21.71 10.09
0 7 -4 457.74 29.85
0 7 -4 507.45 32.1
0 7 -3 8.22 12.92
0 7 -2 99.99 19.54
0 7 -1 110.16 19.72
0 7 0 462.14 34.56
0 7 1 334.26 31.22
0 7 2 56.26 17.49
0 7 3 137.91 22.24
0 7 4 276.62 31.59
0 7 5 488.86 38.86
0 -7 -7 -0.33 10.65
0 -7 -8 -10.35 7.29
0 8 -2 105.71 13.15
0 8 -1 16.91 10.73
0 8 0 565.19 33.4
0 8 1 287.36 28.38
0 8 1 243.8 23.87
0 8 2 3.3 10.62
0 8 2 1.1 8.22
0 8 3 59.95 15.51
0 8 4 57.42 14.85
0 8 5 171.41 17.68
0 8 5 178.03 20.78
0 -8 -6 68.46 14.34
0 -8 -7 7.99 6.49
0 9 1 125.75 12.89
0 9 2 0.91 5.86
0 9 2 7.79 6.03
0 9 3 32.96 8.22
0 9 3 18.09 7.72
0 9 4 30.57 8.01
0 9 4 18.92 7.36
1 -8 -6 30.11 8.57
-1 8 5 14.14 7.47
-1 8 4 21.9 8.75
-1 8 3 125.79 15.69
-1 8 2 396.07 29.33
-1 8 2 430.22 26.45
-1 8 1 31.76 9.4
-1 8 1 41.24 12.9
-1 8 0 36.65 10.2
-1 8 -1 17.7 6.34
1 -7 -7 310.15 27.11
-1 7 5 9.8 10.09
-1 7 4 29.25 13.42
-1 7 4 -7.16 10.06
-1 7 3 360.68 31.16
-1 7 3 373.33 31.33
-1 7 3 354.28 31.46
-1 7 2 992.99 48.81
-1 7 2 831.62 46.05
-1 7 1 71.18 13.6
-1 7 1 69.54 17.44
-1 7 0 61.02 13.91
1 -6 -8 65.83 16.86
1 -6 -7 428.81 36.5
-1 6 5 99.76 18.5
-1 6 5 112.54 20.48
-1 6 4 9.29 10.92
-1 6 4 17.68 13.15
-1 6 3 718.09 44.69
-1 6 3 705.1 44.61
-1 6 3 673.96 45.7
-1 6 2 1320.86 61.29
-1 6 2 1343.81 60.54
-1 6 2 1352.39 60.37
-1 6 1 102.58 21.25
-1 6 0 83.32 17.74
-1 6 0 105.63 19.78
-1 6 -1 -1.39 10.34
-1 6 -1 8.44 12.47
-1 6 -2 301.21 32.46
-1 6 -2 300.87 27.57
-1 6 -3 1116.13 58.06
-1 6 -4 24.13 13.3
-1 6 -5 138.27 17.67
-1 5 9 15.57 7.49
1 -5 -8 155.74 22.59
-1 5 8 159.26 18.91
-1 5 7 640.16 39.4
1 -5 -7 664.78 51.39
-1 5 6 252.01 29.6
-1 5 5 192.43 25.08
-1 5 5 228.74 27.25
1 -5 -3 605.36 46.31
1 -5 -2 783.63 51.84
-1 5 1 194.43 25.91
-1 5 0 260.47 30.04
-1 5 -1 -16.17 14.13
-1 5 -2 894.62 53.2
-1 5 -2 868.24 45.06
-1 5 -3 824.16 46.15
-1 5 -3 771.13 52.51
-1 5 -4 74.63 17.31
-1 5 -4 67.71 19.14
-1 5 -5 102.84 21.67
-1 5 -6 8.84 10.95
-1 4 9 56.16 12.74
-1 4 8 140.66 21.67
-1 4 7 793.25 46.62
1 -4 -7 784.38 57.92
1 -4 -6 431.14 43.38
-1 4 6 396.18 32.95
1 -4 -5 -5.37 15.83
-1 4 3 451.83 31.68
1 -4 -3 429.2 34.82
-1 4 2 1716.54 59.35
-1 4 1 128.24 18.63
-1 4 0 244.19 25.14
-1 4 0 343.02 28.32
1 -4 1 16.88 9.65
-1 4 -1 -1.64 8.99
-1 4 -1 -3.91 11.58
1 -4 2 1051.25 53.51
-1 4 -2 949.99 52.87
-1 4 -3 879.01 57.63
-1 4 -4 116.54 23.31
-1 4 -5 91.39 18.11
-1 4 -6 -14.13 12.29
-1 4 -7 302.36 27.11
-1 3 10 23.89 7.71
-1 3 9 100.66 14.9
-1 3 8 35.04 13.83
1 -3 -7 1206.49 73.63
-1 3 6 468.59 33.95
1 -3 -5 69.01 18.04
-1 3 5 92.89 15.89
-1 3 5 92.19 15.83
-1 3 4 361.73 26.39
-1 3 4 343.82 22.41
1 -3 -3 885.32 40.9
-1 3 3 882.33 38.9
-1 3 2 5597.65 92.75
-1 3 2 5559.23 95.61
-1 3 1 455.12 27.32
-1 3 1 504.76 27.44
1 -3 0 413.96 26.2
-1 3 0 451.72 27.62
-1 3 -1 498.67 31.82
1 -3 1 463.28 28.96
-1 3 -2 1617.67 66.28
-1 3 -2 1678 63.8
-1 3 -3 1405.99 71.42
-1 3 -3 1484.58 69.53
-1 3 -4 69.27 19.18
-1 3 -4 57.48 18.42
-1 3 -5 99.08 18.67
-1 3 -6 18.4 14.52
-1 3 -7 490.03 35.54
-1 2 10 27.8 6.55
1 -2 -9 76.67 14.29
-1 2 9 85.76 15.79
1 -2 -8 54.41 17.77
-1 2 8 46.1 17.3
1 -2 -7 799.23 59.42
1 -2 -7 900.57 55
-1 2 6 501.44 35.19
-1 2 5 48.06 11.37
-1 2 4 95.65 12.36
1 -2 -4 122.07 18.23
-1 2 4 109.49 14.28
-1 2 3 1298.63 38.41
1 -2 -2 8085.33 91.42
-1 2 1 1014.23 32.59
-1 2 0 391.2 20.1
1 -2 0 322.19 19.42
-1 2 -1 48.3 9.71
-1 2 -1 43.36 11.2
-1 2 -2 759.23 39.64
-1 2 -3 2943.85 84.56
-1 2 -4 259.29 30.25
-1 2 -5 124.18 23.01
-1 2 -6 21.59 13.94
-1 2 -7 516.93 38.09
-1 2 -8 623.01 37.74
1 -1 -10 9.47 5.74
1 -1 -9 44.88 14.58
-1 1 9 74.72 14.9
1 -1 -8 162.59 22.26
-1 1 8 164.18 22.54
1 -1 -7 1031.28 58.26
1 -1 -7 995.19 62.81
-1 1 6 1538.47 62.16
1 -1 -6 1354.18 74.52
-1 1 5 385.02 27.6
-1 1 4 250.7 20.2
1 -1 -4 171.84 19.25
1 -1 -3 1069.33 36.32
-1 1 2 4432.46 63.96
-1 1 2 4474.72 57.34
-1 1 1 4516.14 52.06
-1 1 0 753.22 22.75
-1 1 0 715.88 21.09
-1 1 -1 61.29 7.71
-1 1 -2 2830.32 57.09
-1 1 -3 9999 130.65
-1 1 -4 807.77 43.73
-1 1 -5 240.16 28.47
-1 1 -6 24.35 14.03
-1 1 -7 746.75 46.74
-1 1 -8 679.51 41.96
-1 1 -9 80.08 13.61
1 0 -9 44.39 12.68
1 0 -8 370.12 33.25
1 0 -7 1585.37 70.43
1 0 -7 1370.51 68.72
1 0 -6 837.76 57.68
-1 0 6 955.19 50.11
1 0 -5 5.65 8.97
-1 0 5 12.65 6.72
-1 0 4 166.18 16.93
-1 0 3 517.04 30.96
-1 0 3 523.36 25.15
-1 0 3 459.38 18.3
-1 0 2 2510.38 55.01
1 0 -2 2506.97 49.23
1 0 -2 2487.11 39.49
1 0 0 97.33 8.22
1 0 0 115.97 10.21
-1 0 -1 492.58 15.07
-1 0 -2 5984.88 64.16
-1 0 -2 6005.89 59.92
1 0 3 5489.98 78.27
-1 0 -3 5416.8 75.94
-1 0 -3 5466.65 67.67
-1 0 -3 5478.87 81.91
1 0 4 1743.63 53.91
-1 0 -4 1716.39 55.42
-1 0 -4 1679.63 52.79
-1 0 -5 157.82 20.57
-1 0 -6 -5.03 10.4
-1 0 -7 418.1 35.97
-1 0 -8 588.42 40.83
-1 0 -9 64.03 13.28
1 1 -9 92.67 13.19
1 1 -8 77.33 18.33
1 1 -7 2012.9 79.34
-1 -1 6 468.5 35.67
1 1 -5 29.98 11.93
-1 -1 5 33.8 11.92
1 1 -4 343.62 28.85
-1 -1 4 302.45 22.75
-1 -1 3 1933.83 60.52
1 1 -3 1973.18 54.69
-1 -1 3 1918.93 48.62
1 1 -2 4627.94 65.95
1 1 -2 4551.18 75.34
1 1 -1 867.91 20.53
1 1 0 869.12 18.56
-1 -1 -1 487.52 15.68
1 1 1 499.28 14.46
-1 -1 -3 1283.62 37.82
1 1 3 1233.5 34.55
-1 -1 -4 610.67 34.58
1 1 4 611.92 30.69
1 1 5 316.84 25.57
-1 -1 -5 282.07 26.75
-1 -1 -6 119.2 19.93
1 1 6 93.77 16.36
-1 -1 -7 673.94 43.1
1 1 7 634.55 39.8
-1 -1 -8 1272.67 59.8
1 1 8 1235.7 54.09
-1 -1 -9 12.04 10.16
-1 -1 -10 50.01 10.88
1 2 -9 126.46 14.77
1 2 -8 17.31 11.13
1 2 -7 574.96 41.03
1 2 -6 891.54 51.39
1 2 -6 941.03 53.64
1 2 -5 -11.7 11.17
1 2 -5 19.89 12.08
-1 -2 4 273.33 22.09
1 2 -4 371.36 33.62
-1 -2 3 799.24 44.75
-1 -2 3 748.67 31.03
-1 -2 2 6430.62 73.19
-1 -2 2 6431.22 104.23
1 2 -2 6417.51 89.11
1 2 -2 6398.94 93.04
1 2 -2 6421.32 68.45
1 2 -1 1506.53 33.55
1 2 -1 1544.47 39.25
-1 -2 1 1456.36 26.53
1 2 -1 1510.48 42.32
1 2 -1 1436.33 37.47
1 2 0 265.29 11.98
1 2 0 250.47 18.53
1 2 0 256.47 14.19
1 2 0 249.52 12.36
1 2 0 248.82 15.13
-1 -2 -1 15.35 6.21
1 2 2 1452.94 30.4
1 2 2 1486.98 31.69
1 2 3 2216.11 46.37
1 2 3 2283.51 38.7
-1 -2 -3 2306.52 50.07
1 2 3 2361.59 50.43
-1 -2 -4 475.21 28.01
1 2 4 487.64 26.02
-1 -2 -5 140.83 21.55
1 2 5 135.08 17.91
1 2 6 333.92 29.89
-1 -2 -6 306.56 30.91
-1 -2 -7 405.88 32.44
1 2 7 443.09 34.46
-1 -2 -8 787.97 48.11
1 2 8 736.95 44.07
-1 -2 -9 295.85 26.89
1 2 9 266.41 24.21
-1 -2 -10 -5.2 6.52
1 2 10 4.93 6.49
1 3 -8 36.02 12.57
1 3 -7 884.28 43.79
1 3 -7 923.09 45.9
1 3 -6 1246.24 58.91
1 3 -6 1205.9 55.95
1 3 -5 979.49 53.57
1 3 -4 284.57 33.9
1 3 -4 208.04 25.61
1 3 -3 368.54 30.33
1 3 -3 412.14 35.18
-1 -3 2 4004.05 91.42
1 3 -2 3848.3 67.4
1 3 -2 4001.65 85.6
1 3 -2 3983.16 87.29
1 3 -1 1096.2 40.72
1 3 -1 1022.3 42.81
1 3 -1 1070.9 35.43
1 3 -1 1096.1 33.18
1 3 0 143.43 14.83
1 3 0 150.44 12.69
1 3 0 145.85 15.11
1 3 0 144.05 13.19
1 3 0 161.89 15.71
-1 -3 0 162.68 13.07
1 3 1 187.36 13.68
1 3 1 192.81 14.22
-1 -3 -2 1716.48 43.46
1 3 2 1721.36 42.3
1 3 3 4311.4 64.81
1 3 3 4186.56 67.21
1 3 3 4350.88 77.45
1 3 4 311.97 21.01
-1 -3 -4 277.02 23.52
1 3 4 305.76 23.57
-1 -3 -5 16.98 10.88
1 3 5 21.53 9.46
-1 -3 -6 41.65 16.52
1 3 6 35.66 11.1
1 3 7 313.59 30.96
1 3 8 683.44 42.52
1 3 9 180.15 20.68
1 3 10 57.8 9.91
1 4 -7 667.36 32.82
1 4 -6 701.25 41.32
1 4 -5 3.79 10.28
1 4 -4 506.79 38.79
1 4 -3 35.98 17.16
1 4 -3 42.76 15
1 4 -2 1574.3 62.6
1 4 -1 1376.83 54.76
1 4 -1 1480.33 49.35
1 4 -1 1414.87 45.85
1 4 0 205.55 19.91
-1 -4 0 182.1 19.32
1 4 0 158.41 19.17
1 4 0 194.88 18.33
1 4 1 39.96 10.42
-1 -4 -2 1531.96 50.68
1 4 2 1507.09 47.87
1 4 3 2336.42 58.98
1 4 4 2814.81 65.35
1 4 4 2842.68 76.09
-1 -4 -5 47.18 13.77
1 4 5 48.79 13.42
-1 -4 -6 18.06 14.58
1 4 7 98.25 18.14
-1 -4 -7 71.95 18.3
1 4 8 712.49 42.5
1 4 9 187.21 21.47
1 4 10 3.28 5.69
1 5 -6 600.91 39.71
1 5 -6 612.49 33.75
1 5 -5 74.16 16.51
1 5 -5 48.07 16.49
1 5 -4 296.67 33.63
1 5 -4 282.64 29.62
1 5 -3 436.15 37.1
1 5 -3 474.94 38.04
1 5 -2 1338.03 67.01
1 5 -1 969.38 54.53
1 5 -1 1097.82 49.04
1 5 -1 1133.33 50.64
1 5 0 128.02 18.53
1 5 1 95.74 15.53
-1 -5 -2 723.69 44.2
1 5 2 778.79 40.1
1 5 3 1708.03 58.6
-1 -5 -3 1657.02 64.65
1 5 4 679.72 37.45
1 5 4 632.85 39.67
-1 -5 -5 2.91 10.56
1 5 5 -4.17 9.12
-1 -5 -6 53.95 18.29
1 5 7 207.32 22.71
-1 -5 -7 194.52 28.68
1 5 8 636.31 38.12
1 5 9 150.95 17.87
1 5 10 8.8 6.25
1 6 -5 36.92 11.22
1 6 -4 61.15 17.21
1 6 -4 55.53 13.98
1 6 -3 46.79 17.21
1 6 -3 33.44 13.22
1 6 -2 1651.93 69.82
1 6 -2 1655.95 73.07
1 6 -1 684.26 43.84
1 6 -1 749.95 48.73
1 6 0 20.91 11.71
1 6 1 225.84 25.49
-1 -6 -1 184.03 27.32
1 6 2 75.68 15.63
1 6 2 37.61 9.43
-1 -6 -2 51.26 18.49
-1 -6 -3 1031.6 59.49
1 6 3 920.3 50.54
1 6 3 1096.46 52.76
1 6 4 195.97 25.98
1 6 5 114.81 20.85
1 6 6 213.67 29.39
-1 -6 -7 163.15 25.08
1 6 8 421.71 27.17
-1 -6 -8 320.37 31.27
1 6 9 188.68 16.48
1 7 -4 6.03 9.11
1 7 -4 22.58 7.95
1 7 -3 5.04 10.26
1 7 -2 512.3 40.83
1 7 -1 338.5 34.44
1 7 0 25.68 11.95
1 7 2 56.97 18.01
1 7 3 489.69 40.7
1 7 4 177.87 26.11
1 7 5 17.55 14.46
1 7 6 53.76 17.4
-1 -7 -7 22.59 10.65
-1 -7 -8 173.44 21.01
1 8 -3 28.3 11.58
1 8 -2 181.61 18.95
1 8 -2 165.29 21.46
1 8 -1 379.85 28.44
1 8 0 12.22 11.32
1 8 0 3.43 9.37
1 8 1 56.39 14.41
1 8 1 48.51 13.25
1 8 2 22.61 11.15
1 8 2 2.33 9.79
1 8 3 505.73 34.08
1 8 3 509.88 38.87
1 8 4 455.47 30.76
1 8 4 494.83 38.07
1 8 5 16.34 7.74
1 8 5 8.79 11.1
-1 -8 -6 1.7 11.23
-1 -8 -7 18.19 11.77
1 9 0 2.32 7.55
1 9 0 7.09 7.43
1 9 1 52.25 11.94
1 9 1 51.24 11.01
1 9 1 71.96 18.11
1 9 2 33.17 9.69
1 9 2 34.61 11.7
1 9 3 236.12 22.05
1 9 3 252.46 21.23
1 9 4 226.14 19.05
1 9 4 222.41 20.16
1 9 5 11.74 5.8
-1 -9 -5 9.49 7.86
1 9 6 9.34 5.11
-2 8 4 134.55 12.8
-2 8 3 -1.07 5.83
-2 8 2 26.91 8.7
2 -7 -6 18.52 8.21
-2 7 4 223.81 24.29
-2 7 3 209.02 23.79
-2 7 2 79.48 12.49
-2 7 2 75.8 16.69
-2 7 1 7.51 11.45
-2 7 1 0.49 7.39
-2 7 0 334.11 25.47
-2 7 0 297.16 23.27
-2 7 -1 446.84 26.43
-2 7 -1 467.27 28.99
-2 7 -2 84.52 11.64
-2 7 -2 98.89 12.19
2 -6 -7 16.58 7.43
2 -6 -6 29.98 12.67
-2 6 5 245.4 28.88
-2 6 5 204.2 22.54
-2 6 4 783.24 48.55
-2 6 3 69.56 18.74
-2 6 3 68.43 16.3
-2 6 2 75.05 22.82
-2 6 2 25.07 12.07
-2 6 1 25.23 16.26
-2 6 1 1.47 8.59
-2 6 0 390.16 30.72
-2 6 -1 361.85 30
-2 6 -1 377.36 32.77
-2 6 -2 -7.65 12.38
-2 6 -2 22.04 12.17
-2 6 -3 28.59 8.76
-2 6 -3 61.84 14.75
-2 6 -4 31.83 8.45
-2 6 -4 16.46 8.89
-2 5 8 178.49 18.14
2 -5 -7 38.39 11.6
-2 5 7 9.92 8.89
-2 5 6 27.21 12.13
-2 5 6 25.96 11.52
-2 5 5 175.43 25.73
-2 5 5 148.95 21.78
-2 5 4 1402.94 64.53
-2 5 4 1294.12 64.56
-2 5 3 125.15 21.04
-2 5 3 141.85 22.25
-2 5 2 41.24 18.93
-2 5 1 89.13 19.71
-2 5 0 280.33 30.8
-2 5 0 302.95 29.35
-2 5 -1 666.82 40.32
-2 5 -1 674.17 44.36
-2 5 -2 57.78 15.62
-2 5 -2 61.5 14.01
-2 5 -3 117.97 19.16
-2 5 -3 139.7 24.74
-2 5 -4 9.1 10.83
-2 5 -4 10.19 9.48
-2 5 -5 338.39 24.49
-2 5 -5 286.18 25.56
-2 5 -6 643.16 27.11
-2 4 9 313.99 22
-2 4 8 194.52 22.88
2 -4 -7 49.51 16.36
2 -4 -6 76.49 20.94
-2 4 6 33.4 11.35
-2 4 6 45.38 15.18
-2 4 5 264.76 33.18
-2 4 5 228.95 29.46
-2 4 4 784.15 49.83
2 -4 -3 347.9 34.16
-2 4 3 467.33 37.12
2 -4 -2 112.51 21
-2 4 2 143.63 23.24
-2 4 2 149.33 21.03
-2 4 1 184.63 24.39
-2 4 1 202.32 24.63
-2 4 0 194.71 23.87
-2 4 -1 1814.67 77.83
-2 4 -3 82.26 17.82
-2 4 -4 -1.13 12.28
-2 4 -5 253.79 25.99
-2 4 -6 683.87 40.99
-2 4 -6 677.05 35.44
-2 4 -7 89.23 13.57
-2 3 9 354.95 25.21
-2 3 8 200.01 24.47
2 -3 -7 89.03 19.93
2 -3 -7 96.36 24.46
-2 3 6 108.27 17.97
2 -3 -6 139.08 26.07
2 -3 -6 153.36 28.17
-2 3 5 153.17 21.97
-2 3 4 1155.81 52.76
2 -3 -3 962.26 48.79
-2 3 3 1103.15 48.87
-2 3 2 598.33 35.83
-2 3 1 91.35 15.55
-2 3 1 92.02 14.7
2 -3 -1 61.54 10.06
-2 3 0 1305.42 48.66
2 -3 0 1174.23 54.94
2 -3 1 2762.76 76.63
-2 3 -1 2777.2 74.94
2 -3 2 969.14 50.4
-2 3 -2 940.62 50.1
2 -3 3 54.35 16.12
-2 3 -3 70.35 18.03
-2 3 -6 1070.01 57.56
-2 3 -7 57.31 13.87
-2 3 -8 29.11 7.62
-2 2 9 298.02 24.27
2 -2 -9 276.83 22.83
-2 2 8 214.24 24.22
2 -2 -8 204.9 24.71
2 -2 -7 10.84 13.8
2 -2 -7 9.42 16.61
2 -2 -6 167.75 31.66
-2 2 5 506.3 35.41
-2 2 5 396.54 32.04
-2 2 4 1431.45 52.4
-2 2 2 52.54 11.89
-2 2 2 59.16 12.64
-2 2 1 31.25 12.73
2 -2 -1 21.54 11.22
-2 2 0 1489.25 41.82
2 -2 0 1467.87 53.97
2 -2 1 3150.57 70.92
-2 2 -1 3094.33 73.32
-2 2 -2 1592.18 63.16
-2 2 -3 148.21 21.83
-2 2 -4 56.92 18.52
-2 2 -5 699.94 45.73
-2 2 -5 657.48 45.64
-2 2 -6 1481.16 71.04
-2 2 -7 209.85 27.91
-2 2 -8 63.87 13.46
-2 1 9 593.78 31.42
2 -1 -9 558.01 32.16
2 -1 -8 345.35 33.23
-2 1 8 380.73 31.38
2 -1 -7 7.38 16.34
2 -1 -7 12.74 13.34
2 -1 -6 3.75 14.87
-2 1 5 616.32 38.36
-2 1 4 2867.29 72.75
-2 1 3 1057.21 45.46
-2 1 3 997.02 39.93
-2 1 2 154.53 18.16
2 -1 -1 148.77 14.82
-2 1 1 128.19 14.11
-2 1 0 634.45 22.03
-2 1 0 647.8 28.69
2 -1 0 654.92 32.12
-2 1 0 553.81 26.32
-2 1 -1 2206.44 52.87
-2 1 -1 2236.16 46.18
2 -1 1 2228.56 35.98
-2 1 -1 2200.14 57.11
-2 1 -2 1174.83 44.12
-2 1 -2 1167.13 45.82
-2 1 -3 17.33 10.47
-2 1 -4 657.73 42.58
-2 1 -5 956.71 57.62
-2 1 -6 2000.83 79.83
-2 1 -6 2008.56 76.03
-2 1 -7 311.02 33.26
-2 1 -7 271.15 28.34
-2 1 -8 119.14 20.67
-2 1 -9 18.94 8.35
2 0 -9 445.06 28.76
2 0 -8 629.13 42.24
2 0 -7 3.03 13.47
2 0 -7 40.82 20.23
2 0 -6 4.12 12.75
-2 0 5 532.95 35.63
2 0 -5 521.14 44.98
-2 0 4 4325.33 90.23
-2 0 4 4324.91 111.7
2 0 -3 502.41 31.49
-2 0 3 447.48 27.82
-2 0 3 514.46 34.58
2 0 -2 3.14 7.85
-2 0 1 109.26 12.87
2 0 0 104.72 11.48
-2 0 -1 3161.44 50.24
-2 0 -2 554.98 28.59
-2 0 -2 596.9 25.43
-2 0 -3 331.32 26.81
-2 0 -3 326.69 24.3
-2 0 -4 148.78 22.21
-2 0 -4 164.73 19.53
-2 0 -5 805.59 46.03
-2 0 -6 1570.8 73.39
-2 0 -7 342.58 33.27
-2 0 -8 145.43 22.59
-2 0 -9 30.44 9.36
2 1 -9 390.89 25.9
2 1 -8 552.35 37.07
2 1 -7 60.66 14.62
2 1 -7 38.85 15.09
2 1 -6 228.03 27.8
2 1 -6 155.09 18.58
2 1 -5 83.51 19.45
-2 -1 5 104.05 16.75
2 1 -4 963.11 47.94
-2 -1 4 983.99 43.33
-2 -1 4 928.93 55.04
2 1 -3 2012.3 66.09
-2 -1 3 1997.47 70.83
2 1 -3 1924.31 59.08
2 1 -2 112.8 10.77
2 1 -2 148.03 15.54
2 1 -1 76.6 6.75
-2 -1 1 81.65 9.85
-2 -1 0 330.86 14.98
2 1 1 2541.66 46.45
-2 -1 -1 2445.29 29.39
-2 -1 -2 1903.16 35.56
-2 -1 -2 1930.55 44.34
-2 -1 -3 143.04 14.81
-2 -1 -3 136.45 13.66
-2 -1 -4 73.82 12.68
-2 -1 -4 114.67 15.05
-2 -1 -4 101.2 14.61
-2 -1 -5 31.73 13.14
-2 -1 -5 4.72 9.49
-2 -1 -6 1529.46 66.89
2 1 7 394.46 32.18
-2 -1 -7 336.06 31.24
-2 -1 -8 45.03 14.1
-2 -1 -9 80.83 15.84
-2 -1 -10 158.8 16.47
2 2 -8 486.45 32.98
2 2 -7 8.57 13.2
2 2 -7 -5.79 11.64
2 2 -6 768.51 48.72
-2 -2 5 8.36 7.01
-2 -2 4 1531.34 72.65
-2 -2 4 1509.21 53.98
2 2 -4 1631.44 65.53
-2 -2 3 1885.65 72.98
2 2 -3 1888.17 55.44
-2 -2 3 1925.55 54.84
2 2 -3 1844.4 58.69
2 2 -2 856.19 41.4
2 2 -2 808.95 31.64
-2 -2 2 872.82 30.39
2 2 -2 740.96 30.11
2 2 -1 120.3 11.58
2 2 -1 115.55 9.38
2 2 -1 118.87 14.95
2 2 0 1340.14 37.46
-2 -2 -2 3004.4 51.62
2 2 2 2956.2 43.15
-2 -2 -3 108.61 16.47
-2 -2 -4 216.43 20.84
-2 -2 -5 362.36 28.67
-2 -2 -6 1509.75 63.96
2 2 7 380.67 32.85
-2 -2 -7 382.55 32.93
-2 -2 -8 75.68 17.95
2 2 8 62.14 16.97
-2 -2 -9 7 10.83
2 2 9 24.45 11.13
-2 -2 -10 174.82 18.64
2 3 -8 352.12 24.43
2 3 -7 59.89 16.28
2 3 -7 48.58 13.4
2 3 -6 208.9 24.78
2 3 -6 183.37 25.8
2 3 -5 64.2 20.36
2 3 -4 2456.19 79.56
2 3 -3 1272.47 51.2
-2 -3 3 1303.95 64.5
2 3 -2 21.12 6.27
2 3 -2 32.39 7.82
2 3 -1 839.85 33.56
2 3 -1 825.87 34.47
2 3 -1 869.22 40.97
2 3 -1 955.64 44.55
2 3 -1 827.95 35.61
2 3 0 716.43 29.68
2 3 0 751.3 40.44
2 3 0 780.13 35.14
-2 -3 -1 3339.86 51.86
2 3 1 3283.2 76.05
2 3 1 3306.4 61.22
2 3 1 3345.74 61.86
2 3 2 3507.4 64.32
2 3 3 17.85 7.8
-2 -3 -3 13.06 8.35
-2 -3 -4 443.18 27.87
-2 -3 -5 894.35 45.56
-2 -3 -6 1914.39 73.24
2 3 7 778.9 44.71
2 3 8 16.75 12.01
2 3 9 25.6 9.54
2 3 10 20.62 8.34
2 4 -7 32.77 9.46
2 4 -6 8.18 11.22
2 4 -5 368.03 35.79
2 4 -4 2198.13 108.12
2 4 -4 2055.56 98.71
2 4 -4 2155.57 81.36
2 4 -3 981.34 50.29
-2 -4 2 308.67 33.83
2 4 -2 327.5 27.5
2 4 -1 276.7 23.09
2 4 -1 241.17 23.41
2 4 -1 321.44 30.26
2 4 0 164.14 17.95
2 4 0 176.82 23.95
2 4 0 197.91 22.81
-2 -4 -1 2713.22 58.57
2 4 1 2670.63 57.24
2 4 1 2556.83 83.54
2 4 1 2683.83 62.76
2 4 1 2606.55 66.95
2 4 2 786.94 34.76
2 4 2 890.43 37.12
2 4 3 410.09 25.97
2 4 3 399.39 27.53
-2 -4 -4 21.48 10.64
2 4 4 22.2 9
-2 -4 -5 370.7 30.06
-2 -4 -6 1407.6 65.53
2 4 7 620.05 39.97
-2 -4 -7 606.42 46.28
2 4 8 14.41 10.42
2 4 9 27.33 10.42
2 4 10 130.8 14.36
2 5 -7 18.8 5.8
2 5 -6 14.41 6.79
2 5 -5 4.55 9.11
2 5 -4 626.99 44.55
2 5 -3 2492.04 114.66
2 5 -3 2636.52 88.49
2 5 -2 11.64 8.07
2 5 -1 93.43 16.06
2 5 -1 96.23 15.62
2 5 0 32.59 10.28
-2 -5 -1 2736.99 73.18
2 5 1 2727.06 67.58
2 5 1 2928.25 77.35
-2 -5 -2 1394.4 54.51
2 5 2 1388.67 52.6
2 5 2 1373.5 51.68
2 5 3 61.07 14.07
2 5 3 69.26 14.42
2 5 4 695.31 37.97
-2 -5 -5 41.64 12.5
2 5 6 1468.2 56.33
-2 -5 -6 1503.52 66.15
2 5 7 293.3 27.44
-2 -5 -7 265.47 32.52
2 5 8 68.91 15.68
2 5 9 69.12 14.03
2 5 10 107.9 12.62
2 6 -5 18.7 11.53
2 6 -4 479.54 36.4
2 6 -3 337.46 31.09
2 6 -3 354.62 33.01
2 6 -2 5.62 11.32
2 6 -2 19.42 13.02
2 6 -1 -2.82 12.23
2 6 -1 -2.97 12.95
2 6 0 25.36 10.22
2 6 1 1343.23 61.62
-2 -6 -2 1333.95 62.96
2 6 2 1225.31 55.26
2 6 3 39.83 12.88
2 6 3 51.5 15.17
2 6 4 189.4 24
2 6 5 190.04 26.73
-2 -6 -6 283.43 34.09
-2 -6 -7 101.12 22.46
2 6 8 70.87 14.04
2 6 9 32.67 10.68
2 7 -3 396.17 33.34
2 7 -3 361.77 29.38
2 7 -3 398.54 33.61
2 7 -2 36.11 12.2
2 7 -2 32.2 12.58
2 7 -1 300.49 31.4
2 7 0 -3.46 9.12
2 7 1 419.88 32.99
2 7 1 455.78 35.45
2 7 2 1044.78 51.53
2 7 2 1048.05 52.55
2 7 3 14.14 12.74
2 7 3 32.17 14.69
2 7 4 97.85 18.98
2 7 4 75.96 15.58
2 7 5 10.95 13.95
-2 -7 -6 576.97 44.82
-2 -7 -7 247.33 26.14
2 7 8 1.5 6.61
2 8 -3 379.99 26.08
2 8 -2 27.23 9.78
2 8 -2 23.3 10.2
2 8 -1 20.37 8.59
2 8 -1 50.94 16.14
2 8 0 1.39 8.66
2 8 0 -24.63 15.15
2 8 1 266.65 27.32
2 8 1 303.87 27.6
2 8 2 321.3 29.2
2 8 2 374.59 33.68
2 8 2 344.91 30.94
2 8 3 5.81 10.27
2 8 3 26.93 13.75
2 8 4 43.12 11.75
2 8 4 22.17 14.25
2 8 5 5.56 10.54
2 8 5 5.14 7.72
-2 -8 -6 422.75 33.7
-2 -8 -7 293.96 24.89
2 8 8 8.06 7.3
2 9 -1 33.58 10.06
2 9 0 15.53 8.65
2 9 0 -5.85 7.59
2 9 1 419.63 31.51
2 9 1 484.81 30.61
2 9 1 418.45 26.41
2 9 2 197.5 19.93
2 9 2 241.97 21.33
2 9 3 11.87 7.69
2 9 3 15.89 8.57
2 9 4 84.31 12.48
2 9 4 72.27 12.61
2 9 5 14.55 7.09
2 9 5 18.38 8.78
2 9 6 268.91 17.79
2 9 7 157.76 11.79
-3 7 1 398.28 24.67
-3 7 0 56.75 10.92
-3 7 -1 46.04 8.64
3 -6 -6 209.67 19.97
-3 6 5 133.99 20.07
-3 6 5 144.72 15.81
-3 6 4 40.62 13.44
-3 6 4 42.03 17.12
-3 6 3 79.53 16.61
-3 6 3 114.81 20.27
-3 6 2 167.35 23.97
-3 6 2 146.49 22.09
-3 6 1 984.83 47.23
-3 6 0 114.99 16.9
-3 6 -1 21.46 11.79
-3 6 -2 38.81 10.58
-3 6 -3 219.91 17.47
-3 5 6 248.25 26.09
3 -5 -6 293.48 26.73
-3 5 6 301.69 28.21
-3 5 5 171.03 24.04
-3 5 5 136.45 20.63
-3 5 4 12.85 12.16
-3 5 3 52.83 18.73
-3 5 3 52.23 14.87
-3 5 2 250.35 29.17
-3 5 2 205 25.07
-3 5 1 373.2 31.84
-3 5 0 463.92 33.98
-3 5 -1 23.14 12.9
-3 5 -2 59.86 15.04
-3 5 -2 78.5 17.23
-3 5 -3 213.76 22.9
-3 5 -3 199.3 22.63
-3 5 -4 757.11 36.06
-3 5 -4 628.39 37.24
-3 5 -5 48.72 9.32
-3 5 -5 29.74 9.71
-3 4 8 164.27 17.5
-3 4 6 617.19 41.71
-3 4 6 669.1 43.85
-3 4 5 369.04 36.55
-3 4 4 -7.97 17.12
-3 4 3 111.01 22.6
-3 4 3 103.64 22.13
-3 4 1 1254.35 69.08
-3 4 1 1324.11 67.17
-3 4 0 559.95 36.16
-3 4 -1 334.33 29.23
-3 4 -2 140.41 20.49
-3 4 -3 435.99 34.44
-3 4 -3 401.97 34.04
-3 4 -4 1555.23 61.58
-3 4 -4 1672.04 68.29
-3 4 -5 165.54 19.99
-3 4 -5 188.46 21.86
-3 4 -6 64.28 11.56
-3 4 -6 43.92 10.4
-3 3 9 5.64 5.95
-3 3 8 11.77 9.45
3 -3 -7 122 27.79
-3 3 6 690.95 45.01
3 -3 -6 714.73 51.66
-3 3 5 406.46 37.23
-3 3 4 16 9.13
-3 3 2 221.31 24.64
-3 3 1 1826.38 70.91
3 -3 -1 1740.86 67.21
-3 3 0 404.38 35.08
3 -3 0 421.7 36.53
3 -3 1 5.42 20.68
3 -3 2 134.9 25.47
3 -3 2 162.83 34.54
-3 3 -3 525.66 37.76
-3 3 -6 114.44 18.31
-3 3 -7 23.24 8.62
-3 3 -7 2.76 6.39
3 -2 -9 4.73 5.84
-3 2 9 6.04 7.8
-3 2 8 14.83 10.08
3 -2 -8 14.44 11.14
3 -2 -7 13.55 11.19
3 -2 -7 21.54 16.93
-3 2 6 955.82 52
3 -2 -6 1012.85 62.11
-3 2 2 785.47 43.82
-3 2 1 2419.55 72.11
-3 2 1 2518.23 75.94
3 -2 -1 2518.11 72.85
3 -2 0 956.72 48.64
3 -2 1 20.38 15.98
3 -2 1 47.35 12.05
3 -2 2 72.47 17.21
3 -2 3 533.69 45.56
-3 2 -5 431.9 36.11
-3 2 -5 399.77 42.77
-3 2 -6 253.95 33.18
-3 2 -8 286.4 19.11
3 -1 -9 44.91 10.46
-3 1 9 15.87 5.9
3 -1 -8 111.01 19.03
-3 1 8 130.32 19.87
3 -1 -8 122.41 22.44
3 -1 -7 27.07 15.42
3 -1 -7 0.61 14.2
3 -1 -6 718.84 52.81
-3 1 5 1311.06 62.02
-3 1 4 25.06 9.93
-3 1 3 73.78 16.63
-3 1 2 250.42 24.04
-3 1 1 2508.72 71.21
3 -1 -1 2587.33 70.14
-3 1 0 3436.88 78.87
-3 1 0 3313.35 82.04
3 -1 0 3280 77.39
3 -1 1 1.58 9.28
-3 1 -1 -3.15 12.55
-3 1 -1 7.21 11.52
3 -1 1 -7.63 14.31
-3 1 -2 331.04 29.88
3 -1 2 327.62 26.53
-3 1 -2 292.4 25.99
-3 1 -3 301.39 28.17
-3 1 -4 1993.04 81.09
-3 1 -5 294.44 32.77
-3 1 -6 107.87 24.62
-3 1 -6 94.23 23.27
-3 1 -7 178.87 25.75
-3 1 -7 200.09 28.91
-3 1 -8 207.07 25.68
-3 1 -9 464.16 21.01
3 0 -9 6.45 8.34
-3 0 8 265.84 22.97
3 0 -8 252.62 25.64
3 0 -7 43.03 14.35
3 0 -7 74.34 15.56
3 0 -6 810.9 51.47
-3 0 5 1053.24 56.01
-3 0 4 -15 14.05
-3 0 3 372.75 30.93
-3 0 3 419.44 36.14
3 0 -2 162.68 18.91
-3 0 1 4026.92 83.13
3 0 0 1254.57 38.42
-3 0 0 1197.89 43.43
3 0 0 1250.37 41.68
3 0 1 548.24 24.9
3 0 1 515.1 29.99
3 0 1 537.46 24.57
-3 0 -2 325.94 23.09
-3 0 -3 280.31 23.36
-3 0 -4 2135.18 72.08
-3 0 -5 621.53 45.02
-3 0 -6 70.24 19.01
-3 0 -7 52.82 21.03
-3 0 -7 31.23 15.67
-3 0 -8 167 25.04
-3 0 -8 229.57 27.95
-3 0 -9 424.07 31.51
3 1 -9 12.57 8.67
3 1 -8 60.41 16.05
3 1 -7 -5.26 10.54
3 1 -7 -0.04 15.34
3 1 -6 874.42 52.82
3 1 -6 972.16 58.13
-3 -1 5 1220.88 59.5
-3 -1 4 17.11 9.88
-3 -1 4 4.06 13.95
3 1 -3 850.14 44.53
3 1 -2 34.15 14.17
-3 -1 1 2325.71 58.98
3 1 0 1729.63 51.26
3 1 1 239.56 18.86
3 1 1 235.47 17.72
3 1 1 245.35 19.21
-3 -1 -1 267.37 18.69
3 1 2 782.39 36.33
-3 -1 -2 876.88 30.08
-3 -1 -2 792.17 36.58
-3 -1 -3 744.49 31.91
-3 -1 -3 742.53 38.94
-3 -1 -4 3594.14 81.11
-3 -1 -4 3509.58 87.14
-3 -1 -5 940.83 50.99
-3 -1 -5 1076.88 53.15
-3 -1 -6 22.28 15.83
-3 -1 -7 2.64 11.47
-3 -1 -8 124.86 22.08
-3 -1 -9 632.55 40.4
3 2 -8 23.94 9.55
3 2 -8 9.73 7.32
3 2 -7 15.03 12.22
3 2 -7 -2.33 10.1
3 2 -6 947.28 56.98
-3 -2 5 1040.67 52.14
-3 -2 4 37.18 16.06
-3 -2 4 55.66 11.11
3 2 -3 688.37 43
3 2 -2 18.85 10.31
3 2 -1 6013.39 114.22
-3 -2 1 6039.9 88.89
-3 -2 0 2640.88 46.3
3 2 0 2673.03 72.11
-3 -2 0 2635.57 57.42
3 2 1 70.09 10.99
3 2 1 85.06 18.16
-3 -2 -1 68.61 12.17
-3 -2 -1 68.36 9.81
-3 -2 -2 689.24 28.91
-3 -2 -2 631.27 31.51
-3 -2 -3 921.94 44.56
-3 -2 -3 887.92 30.53
-3 -2 -4 4326.89 97.13
-3 -2 -4 4618.98 91.03
-3 -2 -4 4375.89 81.94
-3 -2 -5 1995.3 75.72
-3 -2 -5 2148.12 71.4
-3 -2 -5 2239.03 69.75
-3 -2 -6 109.17 18.45
-3 -2 -6 97.21 17.64
-3 -2 -7 93.78 16.89
3 2 7 127.54 20.23
3 2 8 325.62 29.78
-3 -2 -8 362.71 32.15
3 2 9 549.73 34.13
-3 -2 -9 530.68 40.01
3 3 -8 6.2 6.16
3 3 -7 0.28 10.25
3 3 -7 -1.91 9.96
3 3 -6 664.02 49.65
3 3 -6 670.52 45.41
-3 -3 4 27.38 13.74
-3 -3 3 57.91 17.99
3 3 -2 583.07 40.69
3 3 -2 560.22 30.23
-3 -3 2 569.28 30.87
3 3 -1 3780.85 100.07
3 3 -1 3856.1 98.09
3 3 0 3878.98 99.47
-3 -3 0 3924.23 67.54
-3 -3 -1 145.1 12.87
3 3 1 106.98 16.85
3 3 1 137.8 18.21
-3 -3 -2 549.75 26.26
-3 -3 -3 874.85 37.36
-3 -3 -4 3811.13 89.98
-3 -3 -6 180.12 27.42
-3 -3 -6 223.94 25.61
3 3 7 20.75 11.82
3 3 8 279.36 28.06
3 3 9 443.1 31.41
3 3 10 64.83 10.95
3 4 -7 1.25 7.61
3 4 -6 507.77 39.87
3 4 -5 1028.99 61.29
3 4 -4 137.35 33.83
3 4 -4 148.19 35.05
3 4 -4 164.14 25.68
-3 -4 3 10.04 19.75
3 4 -2 34.23 13
3 4 -2 14.83 11.18
3 4 -1 2147.04 77.12
3 4 0 5295.31 131.87
3 4 0 5321.58 114.43
3 4 1 32.44 17.45
3 4 1 15.35 11.35
3 4 2 352.51 33.72
3 4 2 373.88 26.7
-3 -4 -3 48.61 9.65
-3 -4 -4 2479.57 70.02
-3 -4 -5 415.02 33.72
-3 -4 -6 51.4 19.9
3 4 7 215.88 24.17
3 4 8 190.3 23.55
3 4 9 558.58 34.18
3 4 10 80.06 12.11
3 5 -7 18.43 7.41
3 5 -6 426.94 31.69
3 5 -5 831.86 50.62
3 5 -4 34.35 27.77
3 5 -4 69.07 18.17
3 5 -3 252.31 41.42
3 5 -3 206.5 39.98
3 5 -3 216.92 29.14
3 5 0 1216.39 67.74
3 5 0 1263.44 60.89
3 5 1 6.13 9.89
3 5 1 -2.38 14.16
3 5 1 0.12 7.8
3 5 2 325.07 27.12
3 5 2 286.58 34.69
-3 -5 -3 68.15 13.18
-3 -5 -4 1240.27 53.03
-3 -5 -5 755.75 45.46
3 5 6 10.44 8.9
3 5 7 124.14 19.1
3 5 7 146.74 21.3
3 5 8 106.18 17.34
3 5 9 430.96 28.9
3 5 10 57.01 9.68
3 6 -6 637.02 31.14
3 6 -5 734.05 40.92
3 6 -4 42.76 13.89
3 6 -3 610.31 44.64
3 6 -3 608.01 44.73
3 6 -3 602.01 63.74
3 6 -2 21.29 21.25
3 6 -2 12.05 11.01
3 6 -1 1027.32 81.65
3 6 -1 939.74 45.99
3 6 1 18.6 11.88
3 6 2 386.32 34.18
3 6 3 54.86 14.29
-3 -6 -4 1273.6 59.91
3 6 4 1312.06 81.18
3 6 5 1309.72 60.12
3 6 7 28.75 12.66
3 6 7 33.12 9.95
3 6 8 72.42 13.54
3 6 8 118.82 17.45
3 6 9 345.99 23.4
3 7 -4 20.37 10.29
3 7 -3 73.85 14.38
3 7 -3 97.65 17.58
3 7 -2 19.99 17.55
3 7 -2 43.08 14.97
3 7 -2 34.18 13.77
3 7 -1 339.64 28.98
3 7 -1 418.1 40.92
3 7 0 818.67 46.13
3 7 0 906.51 56.72
3 7 1 53.51 15.59
3 7 1 56.86 17.49
3 7 2 154.26 21.53
3 7 2 161.25 22.19
3 7 3 -6.77 12.73
3 7 4 703.07 39.62
3 7 4 657.64 42.7
3 7 5 334.01 30.6
3 7 7 -1.25 12.97
3 7 8 16.28 7.91
3 8 -3 34.88 8.77
3 8 -2 9.31 13.24
3 8 -1 1034.9 56.13
3 8 0 939.84 46.56
3 8 0 975.44 54.48
3 8 1 1.82 10.46
3 8 1 1.42 9.24
3 8 2 110.35 21.17
3 8 2 74.59 15.24
3 8 2 101.39 25.52
3 8 3 71.83 17.78
3 8 3 44.73 10.91
3 8 4 561.18 35.88
3 8 4 566.06 38.42
3 8 5 245.94 22.06
3 8 5 237.65 25.44
3 8 6 16.77 11.46
3 8 7 138.33 18.14
3 8 8 114.9 13.65
3 9 -1 312.42 25.23
3 9 0 304.98 27.15
3 9 1 61.98 12.64
3 9 1 63.57 14.05
3 9 2 63.04 15.65
3 9 2 22.03 10.75
3 9 2 45.86 15.44
3 9 3 48.55 12.7
3 9 3 38.51 12.16
3 9 4 269.8 21.42
3 9 4 274.31 22.92
3 9 5 194.22 17.11
3 9 5 232.01 17.98
3 9 6 6.35 7.43
3 9 7 37.3 9.61
-4 6 5 29.2 8.58
-4 6 4 30.46 9.02
-4 6 4 16.77 8.62
-4 6 3 313.91 24.18
-4 6 3 279.09 20.48
-4 6 2 49.14 11.42
-4 6 2 46.82 13.88
-4 6 1 53.84 10.27
-4 6 0 63.13 9.93
-4 6 -1 166.59 15.87
-4 6 -2 409.87 20.66
-4 5 6 -6.43 8.18
-4 5 5 67.32 15.39
-4 5 5 46.58 12.84
-4 5 4 111.39 18.6
-4 5 4 126.61 20.11
-4 5 3 626.55 38.02
-4 5 3 605.76 37.95
-4 5 2 304.82 27.36
-4 5 2 278.06 26.13
-4 5 1 135.09 20.02
-4 5 1 156.82 20.37
-4 5 0 67.53 17.1
-4 5 -1 153.66 18.99
-4 5 -2 746.97 37.44
-4 5 -3 219.99 19.63
-4 5 -4 121.98 12.66
-4 4 7 237.32 19.82
-4 4 6 4.41 12.44
-4 4 6 11.99 12.05
-4 4 5 39.83 13.84
-4 4 4 195.46 26.77
-4 4 3 1049.91 52.8
-4 4 3 1079.85 56.11
-4 4 2 532.15 36.95
-4 4 2 531.2 38.66
-4 4 1 24.05 14.09
-4 4 1 18.76 13.91
-4 4 0 32.3 15.45
-4 4 0 20.5 12.39
-4 4 -1 129.38 20.2
-4 4 -1 135.59 19.35
-4 4 -2 1094.09 50.91
-4 4 -2 1083.73 49.76
-4 4 -3 152.87 21.42
-4 4 -4 104.68 15.85
-4 4 -5 88.06 12.5
-4 3 8 366.63 23.42
4 -3 -7 306.79 28.57
-4 3 6 38.12 15.25
-4 3 5 15.81 14.08
-4 3 4 164.85 26.71
-4 3 3 1548.91 63.52
-4 3 3 1582.41 67.65
-4 3 2 663.43 41.56
-4 3 1 27.42 10.71
-4 3 0 89.09 19.99
-4 3 0 113.09 20.53
-4 3 -1 993.95 49.01
-4 3 -1 959.76 48.13
-4 3 -2 1015.01 49.79
-4 3 -2 1100.21 51.49
-4 3 -3 121.7 21.91
-4 3 -3 107.06 16.8
-4 3 -4 46.41 15.33
-4 3 -4 19.13 10.67
-4 3 -5 11.55 10.38
-4 3 -6 239.05 20.31
-4 2 8 301.03 24.06
4 -2 -8 294.89 23.6
4 -2 -7 429.86 38.77
4 -2 -7 365.4 30.82
4 -2 -6 208.03 30.83
-4 2 6 203.84 23.92
4 -2 -5 313.37 36.15
-4 2 5 306.15 30.29
-4 2 4 22.16 14.6
-4 2 2 801.39 50.84
-4 2 1 149.9 23.97
4 -2 0 76.71 22.04
4 -2 1 169.34 29.29
4 -2 2 1409.85 79.82
-4 2 -3 853.93 45.55
-4 2 -3 820.16 45.12
-4 2 -4 3.04 15.85
-4 2 -4 24.38 10.9
-4 2 -5 71.45 18.85
-4 2 -5 27.13 13.22
-4 2 -6 109.94 18.33
-4 2 -6 112.7 17.69
-4 2 -7 663.72 31.74
-4 1 8 352.19 26.91
4 -1 -8 350.17 28.57
4 -1 -7 643.63 49.62
4 -1 -7 586.65 43.46
4 -1 -6 32.43 17.29
4 -1 -5 396.39 41.28
-4 1 4 75.85 20.46
-4 1 3 1402.63 64.8
-4 1 2 830.57 47.18
-4 1 1 464.12 37.26
-4 1 0 495.74 38.87
4 -1 0 471.3 36.37
-4 1 -1 308.62 30.83
-4 1 -1 309.06 30.2
4 -1 1 322.21 32.51
4 -1 2 3086.85 88.69
-4 1 -2 2884.52 96.46
4 -1 2 3061.41 103.97
4 -1 3 420.91 42.04
4 -1 3 416.7 37.85
-4 1 -5 52.66 21.95
-4 1 -5 39.97 20.21
-4 1 -6 366.01 37.78
-4 1 -6 293.92 37.61
-4 1 -6 325.49 31.09
-4 1 -7 558.21 35.3
-4 1 -8 120.12 12.75
-4 0 8 196.48 18.32
4 0 -8 257.56 26.69
4 0 -8 239.28 24.61
4 0 -7 415.62 36.02
4 0 -7 435.05 38.16
4 0 -6 11.58 13.15
4 0 -5 190.27 29.57
-4 0 4 25.29 11.22
-4 0 3 1492.91 83.72
-4 0 3 2034.47 75.65
-4 0 2 1378.25 60.07
-4 0 1 10.5 13.01
-4 0 0 1102.09 51.2
4 0 0 1220.22 50.76
-4 0 -1 548.13 37.34
4 0 1 572.67 36.16
4 0 2 3100.44 90.64
4 0 3 609.59 47.23
-4 0 -5 106.85 23.79
-4 0 -6 368.34 38.67
-4 0 -6 308.93 38.34
-4 0 -7 615.84 47.05
-4 0 -7 497.13 44.08
4 1 -8 189.37 20.76
4 1 -8 268.38 24.66
4 1 -7 299.04 31.96
4 1 -7 347.91 35.91
4 1 -6 -1.49 14.03
4 1 -5 83.82 22
-4 -1 4 42.52 15.8
4 1 -3 1913.01 74.12
4 1 -2 2071.29 81.61
-4 -1 1 -12.59 14.3
4 1 0 413.46 27.73
4 1 1 919.25 39.45
4 1 1 884.46 40.22
4 1 1 991.11 43.45
4 1 2 2928.27 79.4
4 1 2 2859.57 80.57
4 1 2 2925.6 76.7
-4 -1 -2 2958.92 78.34
-4 -1 -3 913.93 48.2
4 1 3 788.06 45.69
-4 -1 -4 69.73 18.49
4 1 4 54.47 19.77
4 1 6 334.24 30.83
-4 -1 -6 359.5 40.54
-4 -1 -7 912.36 59.19
-4 -1 -8 161.47 25.63
-4 -1 -8 127.99 21.41
4 2 -8 238.34 21
4 2 -8 215.55 20.58
4 2 -7 874.36 52.96
4 2 -6 131.2 24.46
4 2 -6 151.04 24.15
4 2 -5 197.18 25.88
-4 -2 4 48.37 16.35
-4 -2 4 36.64 12.74
4 2 -3 1971.51 81.64
4 2 -2 2188.65 84.03
4 2 0 161.39 20.19
-4 -2 0 173.31 20.31
4 2 1 120.51 19.31
-4 -2 -1 122.12 16.29
4 2 1 119.83 17.36
-4 -2 -1 125.3 17.26
4 2 2 5176.91 116.82
4 2 2 4872.53 105.8
4 2 2 4896.04 95.35
-4 -2 -2 5038.01 95.71
-4 -2 -2 4958.74 97.18
-4 -2 -3 1958.67 65.79
-4 -2 -4 15.03 12.94
-4 -2 -5 61.09 19.16
4 2 6 517.38 38.17
-4 -2 -6 509.86 42.5
4 2 7 1192.26 58.32
-4 -2 -7 1181.26 63.83
4 2 8 124.72 20.82
-4 -2 -8 106.1 24.1
-4 -2 -8 135.72 23.26
4 2 9 4.06 7.65
4 3 -7 665.58 43.55
4 3 -7 700.51 40.05
4 3 -6 40.84 16.72
4 3 -5 129.21 35
4 3 -4 56.28 26.23
4 3 -4 109.34 31.79
4 3 -3 1160.44 68.51
4 3 -2 1323.18 68.71
4 3 -1 12.11 15.62
4 3 -1 -3.63 14.66
-4 -3 1 -5.31 8.84
4 3 0 103.52 19.06
-4 -3 0 112.46 15.68
4 3 1 376.05 28.82
4 3 1 336.12 31.76
-4 -3 -1 379.44 23.67
-4 -3 -2 2678.77 64.74
4 3 2 2715.78 89.72
-4 -3 -2 2881.15 77.12
4 3 2 2842.87 78.71
-4 -3 -3 1528.71 63.25
-4 -3 -3 1591.99 55.76
-4 -3 -4 -9.18 11.4
-4 -3 -4 -13.18 12.06
-4 -3 -5 24.82 14.16
-4 -3 -5 33.96 14.22
4 3 6 184.73 23.21
4 3 7 1058.47 54.46
4 3 8 95.43 18.07
4 3 9 20.63 11.24
4 4 -7 576.7 34.08
4 4 -6 40.15 14.74
4 4 -5 308.8 39.37
4 4 -4 21.74 20.47
4 4 -4 -10.34 27.54
-4 -4 3 1031.65 75.16
4 4 -2 1223.74 70.05
4 4 -1 42.67 13.04
-4 -4 1 34.05 13.07
4 4 0 173.35 29.66
4 4 0 155.7 27.32
4 4 1 31.28 16.61
-4 -4 -1 41.85 13.31
4 4 2 1396.13 56.79
4 4 2 1432.19 69.13
-4 -4 -2 1429.39 58.22
-4 -4 -3 1622.9 56.16
-4 -4 -3 1762.26 66.64
-4 -4 -4 36.01 10.5
-4 -4 -4 49.39 16.73
-4 -4 -5 136.29 23.36
4 4 6 -2.11 19.26
4 4 6 69.28 14.69
4 4 7 323.15 31.29
4 4 8 332.19 30.85
4 4 9 11.49 7.83
4 4 10 24.03 7.39
4 5 -6 18.44 9.64
4 5 -5 257.72 29.39
4 5 -4 29.29 21.56
4 5 -4 56.95 34.47
4 5 -4 -2.64 14.33
4 5 -3 1445.16 87.14
4 5 -3 1406.79 97.92
4 5 -3 1453.78 73.8
4 5 -2 1519.48 88.51
4 5 -2 1508.01 100.37
4 5 -1 3.66 15.83
-4 -5 1 2.34 12.8
4 5 0 932.47 64
4 5 0 908.13 59.02
4 5 1 128.84 26.89
4 5 1 111.11 23.93
4 5 2 1378.19 60.78
4 5 2 1396.04 73.63
-4 -5 -2 1382.67 60.88
4 5 3 529.29 45.88
4 5 3 504.34 39.61
-4 -5 -4 7.41 8.78
-4 -5 -5 232.35 26.89
4 5 6 43.53 15.86
4 5 6 57.76 16.41
4 5 7 585.69 40.15
4 5 7 571.21 35.75
4 5 8 422.56 31.81
4 5 9 14.89 7.75
4 5 10 37.19 8.21
4 6 -6 48.31 9.63
4 6 -5 117.55 17.61
4 6 -4 8.9 10.06
4 6 -3 1183.32 77.06
4 6 -3 1238.25 93.63
4 6 -3 1048.57 59.53
4 6 -3 1098.61 60.11
4 6 -2 1044.9 75.01
4 6 -2 1011.97 86.18
4 6 -2 1005.91 59.41
4 6 -2 986.3 57.11
4 6 -1 4.11 14.96
4 6 -1 18.86 22.47
4 6 -1 8.41 12.38
4 6 2 738.62 59.71
4 6 3 613.77 56.16
4 6 4 10.43 10.24
4 6 5 52.08 12.86
4 6 6 81.29 16.53
4 6 7 566.82 36.81
4 6 7 560.62 34.64
4 6 8 213.27 21.53
4 6 8 178.69 18.46
4 6 9 24.9 9.67
4 7 -4 13.11 9.92
4 7 -3 467.08 35.87
4 7 -3 464.9 34.4
4 7 -2 918.04 76.5
4 7 -2 834.38 55.32
4 7 -1 -1.27 21.05
4 7 -1 7.74 11.75
4 7 0 53.08 15.97
4 7 0 50.93 30.12
4 7 0 46.36 14.09
4 7 1 19.85 13.28
4 7 1 30.33 14.12
4 7 2 1335.34 60.24
4 7 2 1331.7 66.33
4 7 3 690.68 41.49
4 7 3 687.99 39.13
4 7 4 17.51 13.09
4 7 4 16.54 12.49
4 7 5 30.37 13.06
4 7 6 92.27 15.53
4 7 7 509.42 30.37
4 7 8 129.04 14.2
4 8 -2 663.3 56.34
4 8 -2 503.27 36.17
4 8 -1 114.25 29.92
4 8 -1 88.51 19.54
4 8 0 45.91 24.88
4 8 0 43.06 16.07
4 8 1 9.36 11.59
4 8 1 -6.82 20.51
4 8 1 29.73 15.07
4 8 2 795.31 47.11
4 8 2 699.98 48.87
4 8 3 628.87 41.46
4 8 4 32.5 14.39
4 8 4 33.18 14.08
4 8 5 10.05 11.64
4 8 6 48.31 11.27
4 8 7 147.21 17.1
4 8 8 202.84 15.69
4 9 -1 10.66 9.49
4 9 0 110.84 17.31
4 9 1 25.22 9.85
4 9 2 247.87 24.29
4 9 2 179.93 21.77
4 9 3 253.59 23.9
4 9 4 9.11 9.37
4 9 5 32.8 13.12
4 9 6 20.98 8.32
4 9 7 182.12 13.96
-5 5 5 187.81 15.71
-5 5 4 154.59 15.8
-5 5 4 184.21 16.33
-5 5 3 1.83 11.35
-5 5 3 22.22 12.16
-5 5 2 5.4 10.59
-5 5 1 157.24 17.18
-5 5 1 144.89 16.84
-5 5 0 586.1 29.45
-5 5 0 579.59 29.96
-5 5 -1 139.88 15.38
-5 5 -2 2.4 5.77
-5 4 5 466 30.64
-5 4 5 520.88 29.74
-5 4 4 200.68 22.82
-5 4 3 51.51 14.09
-5 4 2 33.66 11.95
-5 4 2 36.76 15.47
-5 4 1 236.83 24.5
-5 4 1 217.7 24.44
-5 4 0 1112.44 47.69
-5 4 0 995.88 46.45
-5 4 -1 262.77 22.97
-5 4 -1 254.22 23.01
-5 4 -2 -9.61 10.74
-5 4 -2 -4.42 9.46
-5 4 -3 -21.16 10.4
-5 4 -4 296.63 19.67
-5 3 5 655.09 38.87
-5 3 4 455.77 37.29
-5 3 3 13.19 13.94
-5 3 2 127.49 20.4
-5 3 1 190.58 24.11
-5 3 1 174.25 23.54
-5 3 0 579.84 38.33
-5 3 0 556.18 36.98
-5 3 -1 474.71 33.53
-5 3 -1 463.5 34.48
-5 3 -2 69.74 15.6
-5 3 -2 76.01 17.4
-5 3 -3 2.27 8.89
-5 3 -3 29.13 11.57
-5 3 -4 127.76 17.62
-5 3 -4 134.21 17.01
-5 3 -5 462.52 27.02
5 -2 -7 52.9 12.11
5 -2 -7 87.78 15.57
5 -2 -6 123.81 20.18
-5 2 5 733.14 43.85
5 -2 -5 744.3 45.99
-5 2 4 897.79 49.56
-5 2 3 5.33 11.53
-5 2 2 257.14 29.69
-5 2 1 165.97 25.48
-5 2 0 1064.83 51.64
-5 2 -1 109.92 21.01
-5 2 -2 195 23.03
-5 2 -2 202.87 26.37
-5 2 -3 102.77 17.72
-5 2 -3 89.12 19.35
-5 2 -4 107.52 18.77
-5 2 -4 80.88 18.1
-5 2 -5 555.14 36.55
-5 2 -5 594.47 37.29
-5 2 -6 282.03 22.66
-5 2 -6 254.61 20.39
5 -1 -8 -5.45 7.13
-5 1 8 8.73 6.36
5 -1 -7 49.65 13.78
5 -1 -7 84.82 17.39
5 -1 -6 8 16.93
5 -1 -5 784.98 52.6
-5 1 4 946.4 49.98
5 -1 -4 932.92 58.19
-5 1 3 41.94 12.25
-5 1 2 167.08 26.55
-5 1 1 79.11 19.67
-5 1 0 1800.79 79.5
5 -1 0 1913.7 80.34
5 -1 1 638.13 47.9
-5 1 -3 668.11 40.89
-5 1 -4 230.71 25.82
-5 1 -4 223.07 27.49
-5 1 -4 245.31 28.24
-5 1 -5 1123.15 55.75
-5 1 -5 1020.69 54.6
-5 1 -6 175.61 22.02
-5 1 -6 214.59 24.24
-5 1 -6 158.24 21.79
-5 1 -7 17.4 7.24
-5 1 -7 32.39 10.22
5 0 -8 -17.17 8.65
5 0 -7 56.24 14.56
5 0 -7 87.78 19.06
5 0 -6 26.34 18.05
5 0 -5 749.01 53.2
5 0 -4 75.66 24.08
-5 0 3 38.97 19.05
-5 0 2 9.86 12.16
-5 0 1 176.99 27.98
-5 0 0 1886.57 75.02
-5 0 0 1933.18 81.51
-5 0 -1 1467.37 67.32
-5 0 -1 1384.67 66.5
5 0 1 1598.4 68.41
-5 0 -2 12.3 14.86
5 0 2 16.62 16.73
-5 0 -3 31.92 17.86
5 0 3 29 14.28
-5 0 -4 504.81 38.83
-5 0 -5 841.19 50.88
-5 0 -6 157.33 23.81
-5 0 -6 161.01 22.46
-5 0 -7 11.63 11.64
-5 0 -7 11.78 11.84
-5 0 -8 18.63 8.51
-5 0 -8 34.88 9.02
5 1 -8 34.2 7.51
5 1 -8 17.15 6.87
5 1 -7 90.09 19.84
5 1 -7 102.29 18.92
5 1 -6 11.68 12.94
5 1 -5 388.43 41.38
5 1 -4 1083.92 61.93
-5 -1 3 20.36 19.25
-5 -1 1 203.86 26.56
-5 -1 0 1581.65 67.26
5 1 1 2215.04 74.65
5 1 2 -9.11 13.68
5 1 3 3.77 13.97
5 1 5 1692.71 74.55
5 1 6 528.48 40.53
-5 -1 -7 17.75 14.48
-5 -1 -8 77.13 14.4
-5 -1 -8 70.76 15.25
5 2 -7 64.62 11.61
5 2 -7 61.7 16.44
5 2 -6 48.15 20.13
5 2 -6 -2.73 16.43
5 2 -5 939.89 57.62
5 2 -4 1206.48 65.6
5 2 -3 10.7 13.49
5 2 -2 10.41 15.27
-5 -2 1 280.66 27.85
5 2 0 1136.08 54.96
5 2 1 525.44 39
5 2 2 44.49 14.79
-5 -2 -2 28.02 13.57
5 2 2 25.58 13.3
-5 -2 -3 156.51 23.78
5 2 3 187.22 27.41
5 2 4 106.94 22.13
-5 -2 -4 95.76 23.05
5 2 5 708.5 47.7
5 2 6 732.91 49.66
5 2 7 -4.68 11.45
5 2 8 9.26 10.04
-5 -2 -8 8.41 10.34
-5 -2 -9 96.81 12.96
-5 -2 -9 107.53 13.44
5 3 -7 77.47 14.62
5 3 -6 -9.88 14.6
5 3 -5 1166.09 66.21
5 3 -4 1136.65 78.11
5 3 -2 233.08 34.35
5 3 -1 96.9 30.03
5 3 0 1236.18 63.1
5 3 1 734.7 50.3
-5 -3 -1 702.1 43.04
-5 -3 -1 731.52 39.01
5 3 2 6.95 14.99
-5 -3 -2 23.78 12.26
5 3 2 11.36 9.39
-5 -3 -2 20.5 11.7
5 3 3 681.05 53.72
5 3 3 682.69 47.92
-5 -3 -3 671.44 44.12
-5 -3 -3 617.52 43.05
5 3 4 81.08 17.91
5 3 4 59.92 16.74
-5 -3 -4 74.91 19.8
5 3 6 483.97 40.46
5 3 7 4.09 10.69
5 3 8 28.21 13.45
5 3 9 27.34 8.92
5 4 -7 51.61 9.07
5 4 -6 15.18 11.35
5 4 -4 659.57 67.41
5 4 -4 646.92 66.4
5 4 -3 25.65 19.3
5 4 -3 9.14 21.75
5 4 -2 273.74 39.28
5 4 -1 0.52 16.68
5 4 0 1548.08 75.95
5 4 0 1353.02 85.81
-5 -4 0 1335.75 62.06
5 4 1 1302.53 69.52
-5 -4 -1 1330.32 60.45
5 4 2 42.52 16.45
5 4 2 55.01 15.07
-5 -4 -2 40.28 10.31
-5 -4 -2 36.41 14.64
5 4 3 35.65 13.37
5 4 3 73.57 22.24
-5 -4 -3 32.5 16.24
-5 -4 -3 27.78 15.1
-5 -4 -3 27.26 14.39
5 4 4 13.11 13.96
5 4 4 5.29 15.6
-5 -4 -4 12.37 14.73
-5 -4 -4 17.88 13.83
5 4 5 630.51 41.82
5 4 6 386.41 35.72
5 4 6 378.36 30.89
5 4 7 12.18 11.78
5 4 8 158.01 20.99
5 4 9 10.1 9.97
5 5 -6 17.55 8.44
5 5 -5 344.01 33.92
5 5 -4 963.62 78.73
5 5 -4 1057.07 89.31
5 5 -4 906.12 59.12
5 5 -3 -17.35 21.04
5 5 -3 5.18 22.16
5 5 -3 14.64 11.35
5 5 -2 289.04 44.16
5 5 -2 307.24 48.32
5 5 -2 275.85 34.45
5 5 -1 38.92 23.81
5 5 -1 38.81 31.64
-5 -5 1 7.9 15.49
5 5 0 1708.41 87.39
5 5 0 1585.95 95.76
-5 -5 0 1726.16 76.44
5 5 1 1310.86 72.22
5 5 1 1149.17 83.2
5 5 2 5.12 16.85
5 5 3 58.5 23.53
-5 -5 -3 54.12 19.56
-5 -5 -3 59.36 17.22
5 5 3 27.6 12.11
5 5 4 64.46 17.73
-5 -5 -4 83.99 19.99
-5 -5 -4 62.56 16.13
5 5 5 1185.32 59.29
5 5 5 1176.73 54.09
5 5 6 402.1 36.15
5 5 6 392.15 32.1
5 5 7 -2.68 10.28
5 5 7 12.07 11.78
5 5 8 61.29 14.57
5 5 9 3.93 9.57
5 6 -5 231.18 21.4
5 6 -4 605.56 40.31
5 6 -3 129.64 34.42
5 6 -3 131.12 33.83
5 6 -3 117.82 19.97
5 6 -2 80.6 32.77
5 6 -2 18.83 20.98
5 6 -2 56.81 21.02
5 6 -1 18.36 21.17
5 6 -1 23.82 25.96
5 6 -1 41.02 18.49
5 6 0 760.46 74.42
5 6 0 897.97 59.42
5 6 1 917.93 78.54
5 6 1 1144.17 67.25
5 6 2 20.54 16.03
5 6 3 -10.62 11.89
5 6 4 69.46 16.03
5 6 5 518.84 35.89
5 6 6 673.38 42.71
5 6 6 660.31 40.27
5 6 7 3.59 9.16
5 6 7 34.3 13.36
5 6 8 11.99 6.94
5 6 8 9.58 7.56
5 6 9 57.17 10.63
5 7 -4 615.47 30.18
5 7 -3 218.28 35.95
5 7 -2 50.52 20.08
5 7 -2 29.53 21.01
5 7 -2 53.74 20.3
5 7 -1 -1.47 16.43
5 7 -1 17.82 20.85
5 7 -1 -3.02 13.26
5 7 0 317.86 45.61
5 7 0 330 58.44
5 7 0 352.01 39.21
5 7 1 612 67.16
5 7 1 658.44 52.8
5 7 2 159.28 40.06
5 7 2 176.61 26.97
5 7 2 165.45 27.49
5 7 3 114.68 19.1
5 7 3 119.1 22.28
5 7 4 10.75 10.38
5 7 5 446.68 33.35
5 7 6 453.08 30.63
5 7 7 15.73 9.06
5 7 8 -3.72 6.27
5 8 -2 24.41 27.32
5 8 -1 6.48 23.44
5 8 -1 2.53 11.2
5 8 0 301.24 41.55
5 8 0 329.42 35.62
5 8 1 562.94 68
5 8 1 576.29 45.21
5 8 2 52.94 14.07
5 8 4 37.14 12.84
5 8 5 289.32 23.92
5 8 6 266.54 22.37
5 8 7 13.76 7.58
5 8 8 58.23 9.19
5 9 0 224.61 30.74
5 9 1 346.91 42.5
5 9 2 65.83 17.8
5 9 3 -1.78 17
5 9 5 162.88 15.63
5 9 6 189.25 15.39
5 9 7 34.43 6.94
-6 4 4 56.69 11.32
-6 4 4 42.42 8.55
-6 4 3 43.31 10.12
-6 4 2 446.5 27.49
-6 4 1 159.85 15.55
-6 4 0 12.38 8.02
-6 4 -1 154.59 15.27
-6 4 -1 122.68 13.91
-6 4 -2 76.52 10.11
-6 3 5 27.57 11.34
-6 3 5 0.98 6.71
-6 3 4 55.68 14.04
-6 3 3 98.06 17.9
-6 3 2 589.83 36.48
-6 3 1 340.6 28.33
-6 3 0 -8.43 11.46
-6 3 -1 119.91 16.41
-6 3 -2 57.4 11.56
-6 3 -2 31.18 9.25
-6 3 -3 540.72 27.75
-6 3 -3 520.94 28.95
-6 3 -4 75.86 11.03
-6 3 -4 46.62 8.94
-6 2 5 -9.45 8.99
-6 2 4 66.65 17.47
-6 2 3 3.2 11.83
-6 2 2 996.39 48.75
-6 2 1 815.15 44.24
-6 2 0 19.36 11.17
-6 2 -1 76.89 18.33
-6 2 -2 18.27 11.41
-6 2 -3 776.7 42.03
-6 2 -4 261.9 21.98
-6 2 -4 271.4 24.65
-6 2 -5 53.31 10.76
-6 2 -5 58.54 11.9
6 -1 -7 201.77 16.64
6 -1 -7 121.34 12.69
6 -1 -6 259.69 23.55
6 -1 -5 -12.77 10.33
6 -1 -4 78.93 18.93
-6 1 3 64.35 16.83
6 -1 -3 61.65 15.15
-6 1 2 541.64 38.11
-6 1 1 466.08 35.73
-6 1 0 3.7 14.84
-6 1 -1 43.41 18.73
-6 1 -1 38.38 14.36
-6 1 -2 202.03 24.55
-6 1 -2 180.36 24
-6 1 -3 696.93 42.76
-6 1 -4 591.86 39.7
-6 1 -5 10.14 8.83
-6 1 -5 39.65 13.19
-6 1 -6 31.39 8.59
6 0 -7 417.57 25.61
6 0 -7 300.11 22.11
6 0 -6 509.83 34.29
6 0 -5 99.57 20.7
6 0 -4 143.76 24.98
6 0 -2 293.6 31.61
-6 0 1 541.49 37.32
-6 0 -1 157.32 22.28
-6 0 -2 84.02 18.43
6 0 2 65.87 19.05
-6 0 -3 1013.95 52.19
-6 0 -4 1103.1 52.78
-6 0 -4 1123.16 55.36
-6 0 -5 4.67 11.38
-6 0 -5 -18.56 13.62
-6 0 -6 12.41 9.22
-6 0 -6 23.5 12.41
-6 0 -7 133.92 16.61
6 1 -7 331.61 23.26
6 1 -7 246.74 19.49
6 1 -6 559.21 37.57
6 1 -5 55.37 16.57
6 1 -4 11.21 13.64
-6 -1 0 96.02 22.51
-6 -1 -1 171.01 26.61
-6 -1 -3 740.23 45.32
6 1 3 773.81 43.7
-6 -1 -4 347.91 32.38
-6 -1 -5 137.92 22.97
-6 -1 -6 123.92 20.65
-6 -1 -7 21.21 9.24
-6 -1 -7 38.92 12.67
-6 -1 -8 344.67 20.7
-6 -1 -8 369.68 21.09
6 2 -7 168.48 16.52
6 2 -7 177.04 15.31
6 2 -6 532.78 36.15
6 2 -6 426.72 33.79
6 2 -5 7.56 12.57
6 2 -4 151.86 28.15
6 2 -2 2423.56 87.8
-6 -2 0 24.69 16.27
-6 -2 -1 77.04 19.63
6 2 4 526.76 44.13
-6 -2 -4 556.24 39.97
6 2 4 546.8 39.49
6 2 5 24.89 14.88
6 2 6 342.28 33.72
6 2 7 46.93 13.6
-6 -2 -7 40.99 15.16
-6 -2 -8 340 24.02
-6 -2 -8 400.91 25.24
6 3 -6 373.48 27.46
6 3 -5 24.12 11.75
6 3 -5 60.36 18.48
6 3 -4 146.23 30.6
6 3 -4 133.09 23.85
6 3 -3 -5.83 19.84
6 3 -2 400.03 41.15
6 3 -2 384.35 39.6
6 3 -1 845.37 66.77
6 3 1 59.46 15.56
6 3 2 -18.99 21.8
6 3 3 1048.37 63.26
6 3 4 725.77 47.92
6 3 4 777.1 45.78
6 3 5 18.8 14.28
6 3 5 -6.94 13.93
6 3 6 46.36 14.39
6 3 7 28.2 13.37
6 3 8 264.28 23.66
-6 -3 -8 285.41 22.13
6 4 -6 554.33 31.1
6 4 -4 196.64 35.95
6 4 -3 -14.37 19.66
6 4 -2 308.7 41.44
6 4 -1 1292.74 79.19
6 4 0 12.73 16.28
6 4 0 5.18 17.08
6 4 1 459.9 46.23
6 4 2 14.49 18.67
6 4 3 1493.87 87.9
-6 -4 -3 1536.94 73.65
6 4 4 1121.35 58.48
6 4 4 1114.67 57.93
6 4 5 14.36 11.84
6 4 5 5.67 11.74
6 4 6 39.71 17.1
6 4 6 46.16 15.37
6 4 7 95.37 18.98
6 4 8 428.83 30.85
6 4 9 164.36 14.17
6 5 -5 145.69 18.35
6 5 -4 64.32 28.42
6 5 -4 11.05 9.49
6 5 -3 47.13 25.36
6 5 -3 23.35 22.01
6 5 -2 531.34 54.8
6 5 -2 503.36 55.65
6 5 -1 917.54 69.05
6 5 -1 860.82 71.4
6 5 0 192.21 32.61
6 5 1 279.02 40.6
6 5 2 14.72 11.81
6 5 3 728.7 43.52
6 5 4 809.7 49.14
6 5 4 816.48 47.51
6 5 5 63.98 16.02
6 5 5 68.78 17.42
6 5 6 81.83 18.01
6 5 6 71.73 16.03
6 5 7 102.87 15.7
6 5 7 125.94 19.52
6 5 8 400.92 28.74
6 5 9 211.08 17.05
6 6 -4 30.27 10.03
6 6 -3 19 16.1
6 6 -3 59.58 22.45
6 6 -2 736.59 61.95
6 6 -2 771.25 68.31
6 6 -1 989.51 73.35
6 6 -1 924.9 74.26
6 6 0 339.75 46.32
6 6 0 336.11 46.69
6 6 1 -2.25 16.2
6 6 3 511.36 36.56
6 6 4 510.54 36.8
6 6 5 7.8 10.22
6 6 6 89.86 16.96
6 6 6 78.49 19.16
6 6 7 11.18 8.48
6 6 7 28.21 11.18
6 6 8 270.84 22.15
6 7 -3 -22.68 29.4
6 7 -2 324.09 39.8
6 7 -2 246.5 35.86
6 7 -1 927.7 69.59
6 7 -1 980.62 73.62
6 7 0 188.18 36.02
6 7 0 181.08 34.18
6 7 1 2.24 16.52
6 7 1 -9.75 22.62
6 7 2 64.84 25.28
6 7 3 510.69 58.31
6 7 3 493.21 35.23
6 7 4 577.72 38.11
6 7 5 24.14 9.87
6 7 6 97.26 16.35
6 7 7 -0.36 7.37
6 7 8 228.56 15.97
6 8 -2 226.21 29.55
6 8 -1 481.41 44.31
6 8 -1 516.72 47.99
6 8 0 33.49 20.58
6 8 0 25.55 17.97
6 8 1 81.11 23.24
6 8 1 91.56 29.17
6 8 2 10.27 18.61
6 8 2 6.76 18.91
6 8 3 220.86 36.13
6 8 4 608.71 34.77
6 8 5 24.28 10.06
6 8 6 32.24 9.67
6 8 7 27.78 8.63
6 9 0 42.62 17.57
6 9 1 128.31 25.04
6 9 2 -16.24 13.94
6 9 3 138.38 26.02
6 9 4 215.2 31.02
6 9 5 23.26 7.87
6 9 6 11.42 6.03
-7 3 3 286.19 18.26
-7 3 2 11.23 7.55
-7 3 1 68.2 11.56
-7 3 0 64.43 11.8
-7 3 -1 388.65 22.16
-7 3 -2 256.52 16.45
-7 2 4 312.08 21.46
-7 2 3 311 23.83
-7 2 2 -4.65 9.13
-7 2 1 115.78 17.63
-7 2 0 64.88 13.98
-7 2 -1 583.22 32.44
-7 2 -2 479.05 28.19
-7 2 -3 17.94 10.15
-7 2 -4 31.56 8.23
7 -1 -5 7.65 9.86
-7 1 2 59.32 13.6
-7 1 1 141.9 19.83
-7 1 0 90.05 16.59
-7 1 -1 655.92 38.67
-7 1 -2 344.5 29.62
-7 1 -3 9.32 8.78
-7 1 -4 71.49 13.38
-7 1 -5 102.94 13.3
7 0 -6 17.43 6.84
7 0 -6 21.48 6.96
7 0 -5 6.72 7.61
7 0 -4 649.73 37.3
7 0 -3 767.25 43.29
-7 0 0 15.83 17.6
-7 0 0 21.76 12.52
-7 0 -1 569.17 40.76
-7 0 -1 620.35 41.02
-7 0 -2 509.96 38.18
-7 0 -2 451.12 35.35
-7 0 -3 -4.69 11.53
-7 0 -3 2.3 9.44
-7 0 -4 93.53 17.5
-7 0 -5 13.34 10.34
-7 0 -6 381.82 22.89
7 1 -6 39.9 9.36
7 1 -6 72.33 11.12
7 1 -5 -26.07 13.13
7 1 -4 370.57 32.18
7 1 -2 -12.95 15.23
-7 -1 1 224.25 25.95
7 1 -1 189.53 24.18
7 1 2 806.66 46.26
-7 -1 -3 -4.83 13
7 1 3 35.42 15.57
-7 -1 -4 154.56 22.29
-7 -1 -5 58.08 16.47
-7 -1 -5 38.66 13.13
-7 -1 -6 383.9 26.17
-7 -1 -6 478.7 29.58
-7 -1 -7 168.74 14.39
-7 -1 -7 191.83 15.23
7 2 -6 11.79 5.38
7 2 -6 17.38 6.68
7 2 -5 1.28 9.79
7 2 -4 178.9 23.93
7 2 0 58.74 16.75
7 2 2 1049.01 53.04
7 2 3 1.92 14.03
7 2 4 51.98 15.5
-7 -2 -5 47.3 13.48
-7 -2 -6 382.16 29.74
-7 -2 -7 264.73 21.5
-7 -2 -7 316.19 21.73
7 3 -6 47.48 8.27
7 3 -5 30.04 10.71
7 3 -5 26.36 11.3
7 3 -4 381.72 34.29
7 3 -2 24.36 14.04
7 3 1 640.24 42.31
7 3 2 824.46 49.95
7 3 3 9.48 12.35
7 3 4 177.05 21.92
7 3 5 78.56 16.31
-7 -3 -7 133.02 15.88
-7 -3 -8 15.31 7.56
7 4 -5 23.65 7.64
7 4 -3 840.23 56.93
7 4 -3 791.42 46.13
7 4 -2 246.06 33.79
7 4 -2 230.69 27.19
7 4 -1 5.95 18.1
7 4 -1 14.89 13.28
7 4 0 195.46 32.98
7 4 1 670.78 60.37
7 4 1 790.7 46.14
7 4 2 808.85 47.41
7 4 3 4.06 12.81
7 4 4 245.38 26.93
7 4 5 43.95 15.43
7 4 5 42.41 14.36
7 4 6 456.39 34.75
7 4 6 477.19 31.09
7 5 -4 311.42 23.01
7 5 -3 933.41 58.87
7 5 -2 144.2 25.05
7 5 -1 56.85 18.98
7 5 0 24.26 18.94
7 5 1 946.97 70.86
7 5 2 612.82 39.89
7 5 3 35.52 15.4
7 5 4 25.72 11.05
7 5 5 36.58 16.03
7 5 6 423.3 32.75
7 5 6 406.98 30.02
7 5 7 256.28 22.62
7 5 7 231.69 19.43
7 6 -3 752.23 48.78
7 6 -3 752.89 51.7
7 6 -2 60.04 19.84
7 6 -2 84.5 22.77
7 6 -1 111.2 24.67
7 6 -1 122.33 27.02
7 6 0 18.14 15.77
7 6 0 -18.28 13.86
7 6 1 301.16 38.52
7 6 2 1367.25 85.47
7 6 2 1254.38 53.99
7 6 3 91.35 18.38
7 6 4 17.19 12.26
7 6 5 20.7 12.59
7 6 6 295.09 24.94
7 6 7 264.67 19.91
7 7 -2 17.32 12.93
7 7 -2 32.44 16.29
7 7 -1 210.49 30.72
7 7 -1 172.56 25.6
7 7 0 -17.37 17.57
7 7 0 24.6 18.75
7 7 1 348.95 41.54
7 7 1 381.67 45.47
7 7 2 483.91 51.88
7 7 3 55.76 13.97
7 7 3 72.69 22.01
7 7 4 67.27 15.63
7 7 5 37.43 13.03
7 7 6 248.55 20.99
7 7 7 210.04 16.76
7 8 -1 89.61 18.7
7 8 -1 46.63 16.15
7 8 0 5.13 11.61
7 8 0 21.44 11.55
7 8 1 279.72 35.01
7 8 1 273.18 35.5
7 8 2 310.45 34.82
7 8 2 265.61 35.4
7 8 3 -10.7 11.13
7 8 4 197.4 25.52
7 8 4 167.94 18.71
7 8 5 2.82 7.66
7 8 5 -0.79 10.54
7 8 6 165.97 21.51
7 8 6 177.71 15.48
7 8 7 204.52 13.86
7 9 1 207.57 23.93
7 9 2 223.73 26.55
7 9 3 25.99 15.39
7 9 4 22.16 11.92
7 9 5 1.03 9.4
-8 2 1 477.17 21.53
-8 2 0 275.1 16.6
-8 2 -1 3.59 5.26
-8 1 1 584.74 29.25
-8 1 0 554.98 28.43
-8 1 -1 26.51 8.89
-8 1 -2 49.16 9.16
-8 1 -3 78.02 11.32
8 0 -4 50.71 11.12
8 0 -3 98.55 15.6
8 0 -2 6.31 10.28
-8 0 -1 4.58 9.77
-8 0 -2 76.18 12.78
-8 0 -3 35.74 9.93
-8 0 -4 358.43 22.93
8 1 -4 40.13 11.99
8 1 -3 132.48 19.79
8 1 -1 463.4 36.12
-8 -1 -1 11.74 14.53
-8 -1 -2 259.1 28.03
-8 -1 -3 30.01 15.48
-8 -1 -3 41.3 11.09
-8 -1 -4 633.93 32.88
-8 -1 -5 277.87 21.21
8 2 -5 301.37 18.09
8 2 -4 37.07 10.28
8 2 -3 44.1 13.25
-8 -2 -6 -7.88 6.53
-8 -2 -6 -0.6 6.1
8 3 -4 62.39 11.75
8 3 -3 37.09 12.58
8 3 1 95.79 20.79
-8 -3 -7 11.74 5.46
8 4 -3 69.14 15.22
8 4 2 10.15 11.78
8 4 3 41.12 13.89
8 4 4 413.25 31.88
8 4 5 357.19 26.1
8 5 -3 133.4 20.46
8 5 -2 9.76 11.25
8 5 -1 319.54 35.72
8 5 -1 273.3 25.92
8 5 0 581.95 50.66
8 5 0 505.95 37.13
8 5 1 88.21 20.29
8 5 1 86.04 14.53
8 5 2 143.05 19.84
8 5 2 131.32 28.43
8 5 3 23.4 11.36
8 5 4 283.91 26.16
8 5 5 404.44 28.16
8 5 6 36.56 9.8
8 6 -2 22.08 14.44
8 6 -1 326.63 32.75
8 6 0 293.8 32.46
8 6 1 14.56 12.47
8 6 2 31.5 11.7
8 6 2 26.03 19.87
8 6 3 -3.6 9.14
8 6 3 7.43 17.67
8 6 4 256.14 24.24
8 6 5 275.64 22.87
8 6 6 75.07 11.13
8 6 7 28.61 6.12
8 7 -2 34.96 10.97
8 7 -1 289.88 27.78
8 7 -1 303.59 28.96
8 7 0 338.64 32
8 7 0 331.48 33.31
8 7 1 43.91 16.54
8 7 1 27.01 13.13
8 7 2 102.98 21.49
8 7 2 111.64 23.55
8 7 3 21.92 7.93
8 7 3 27.57 16.14
8 7 4 382.04 39.07
8 7 4 358.95 24.61
8 7 5 267.89 30.81
8 7 5 256.74 20.14
8 7 6 5.62 5.3
8 7 6 30.03 11.94
8 8 0 466.38 30.79
8 8 0 391.69 29.36
8 8 1 100.13 18.48
8 8 1 66.36 15.76
8 8 2 -3.2 9.71
8 8 2 10.13 11.77
8 8 3 43.37 11.55
8 8 3 49.98 16.15
8 8 4 91.82 15.73
8 8 4 107.4 21.09
8 8 4 105.93 12.53
8 8 5 152.39 19.33
8 8 5 155.25 13.47
9 1 -2 485.41 26.77
9 1 -1 43.89 12.35
9 2 -3 242.86 17.17
9 2 -2 375.31 25.77
9 2 0 26.74 13.22
9 2 2 165.89 19.46
9 3 -3 179.6 15.72
9 3 -2 361.99 25.63
9 3 1 -9.09 10.37
9 4 -2 322.81 23.19
9 4 1 16.24 11.65
9 4 3 619.16 31.54
9 4 4 38.64 11.25
9 5 -1 56.68 10.49
9 5 0 21.6 9.62
9 5 1 -16.09 10.21
9 5 2 258.15 20.6
9 6 -1 86.91 14.75
9 6 0 39.74 12.71
9 6 1 11.55 8.73
9 6 2 133.69 21.53
9 6 2 202.17 15.83
9 6 3 210.59 26.67
9 6 4 23.95 11.56
9 6 4 25.17 8.14
9 6 5 57.24 12.57
9 6 5 56.71 9.97
9 7 0 15.88 7.25
9 7 1 -11.85 9.84
9 7 2 105.26 17.48
9 7 3 250.76 25.05
9 7 4 75.63 14.48
9 7 4 77.14 9.22
