#------------------------------------------------------------------------------
#$Date: 2022-02-04 21:19:41 +0200 (Fri, 04 Feb 2022) $
#$Revision: 272610 $
#$URL: file:///home/coder/svn-repositories/cod/cif/7/24/41/7244180.cif $
#------------------------------------------------------------------------------
#
# This file is available in the Crystallography Open Database (COD),
# http://www.crystallography.net/
#
# All data on this site have been placed in the public domain by the
# contributors.
#
data_7244180
loop_
_publ_author_name
'Vaganova, Tamara A.'
'Benassi, Enrico'
'Gatilov, Yurij V.'
'Chuikov, Igor P.'
'Pishchur, Denis P.'
'Malykhin, Evgenij V.'
_publ_section_title
;
 Polyhalogenated aminobenzonitriles vs. their co-crystals with 18-crown-6:
 amino group position as a tool to control crystal packing and solid-state
 fluorescence
;
_journal_issue                   5
_journal_name_full               CrystEngComm
_journal_page_first              987
_journal_page_last               1001
_journal_paper_doi               10.1039/D1CE01469B
_journal_volume                  24
_journal_year                    2022
_chemical_formula_moiety         'C7 H3 F3 N2'
_chemical_formula_sum            'C7 H3 F3 N2'
_chemical_formula_weight         172.11
_chemical_melting_point          369
_chemical_name_systematic        4-amino-2,3,5-trifluorobenzonitrile
_space_group_crystal_system      monoclinic
_space_group_IT_number           4
_space_group_name_Hall           'P 2yb'
_space_group_name_H-M_alt        'P 1 21 1'
_atom_sites_solution_hydrogens   mixed
_atom_sites_solution_primary     direct
_atom_sites_solution_secondary   difmap
_audit_creation_method           SHELXL-2018/3
_audit_update_record
;
2021-10-27 deposited with the CCDC.	2021-12-20 downloaded from the CCDC.
;
_cell_angle_alpha                90
_cell_angle_beta                 96.061(7)
_cell_angle_gamma                90
_cell_formula_units_Z            2
_cell_length_a                   3.7360(7)
_cell_length_b                   8.4997(17)
_cell_length_c                   10.654(2)
_cell_measurement_reflns_used    1346
_cell_measurement_temperature    200(2)
_cell_measurement_theta_max      25.73
_cell_measurement_theta_min      3.07
_cell_volume                     336.43(11)
_computing_cell_refinement       'Bruker SAINT'
_computing_data_collection       'Bruker APEX2'
_computing_data_reduction        'Bruker SAINT'
_computing_molecular_graphics    'Bruker SHELXTL'
_computing_publication_material  'Bruker SHELXTL'
_computing_structure_refinement  'SHELXL-2018/3 (Sheldrick, 2018)'
_computing_structure_solution    'SHELXS-97 (Sheldrick, 2008)'
_diffrn_ambient_temperature      200(2)
_diffrn_measured_fraction_theta_full 0.992
_diffrn_measured_fraction_theta_max 0.980
_diffrn_measurement_device_type  'Bruker APEX-II CCD'
_diffrn_measurement_method       '\f and \w scans'
_diffrn_radiation_type           MoK\a
_diffrn_radiation_wavelength     0.71073
_diffrn_reflns_av_R_equivalents  0.0334
_diffrn_reflns_av_unetI/netI     0.0433
_diffrn_reflns_Laue_measured_fraction_full 0.992
_diffrn_reflns_Laue_measured_fraction_max 0.980
_diffrn_reflns_limit_h_max       4
_diffrn_reflns_limit_h_min       -3
_diffrn_reflns_limit_k_max       10
_diffrn_reflns_limit_k_min       -9
_diffrn_reflns_limit_l_max       12
_diffrn_reflns_limit_l_min       -11
_diffrn_reflns_number            2291
_diffrn_reflns_point_group_measured_fraction_full 0.863
_diffrn_reflns_point_group_measured_fraction_max 0.838
_diffrn_reflns_theta_full        25.242
_diffrn_reflns_theta_max         25.828
_diffrn_reflns_theta_min         3.073
_diffrn_source                   'sealed tube'
_exptl_absorpt_coefficient_mu    0.164
_exptl_absorpt_correction_T_max  0.9707
_exptl_absorpt_correction_T_min  0.8193
_exptl_absorpt_correction_type   multi-scan
_exptl_absorpt_process_details   SADABS-2008/1
_exptl_crystal_colour            colourless
_exptl_crystal_density_diffrn    1.699
_exptl_crystal_description       prism
_exptl_crystal_F_000             172
_exptl_crystal_size_max          0.370
_exptl_crystal_size_mid          0.270
_exptl_crystal_size_min          0.120
_refine_diff_density_max         0.157
_refine_diff_density_min         -0.192
_refine_diff_density_rms         0.041
_refine_ls_abs_structure_details
;
 Flack x determined using 353 quotients [(I+)-(I-)]/[(I+)+(I-)]
 (Parsons, Flack and Wagner, Acta Cryst. B69 (2013) 249-259).
;
_refine_ls_abs_structure_Flack   -0.6(6)
_refine_ls_extinction_method     none
_refine_ls_goodness_of_fit_ref   0.815
_refine_ls_hydrogen_treatment    mixed
_refine_ls_matrix_type           full
_refine_ls_number_parameters     117
_refine_ls_number_reflns         1092
_refine_ls_number_restraints     3
_refine_ls_restrained_S_all      0.813
_refine_ls_R_factor_all          0.0380
_refine_ls_R_factor_gt           0.0325
_refine_ls_shift/su_max          0.000
_refine_ls_shift/su_mean         0.000
_refine_ls_structure_factor_coef Fsqd
_refine_ls_weighting_details
'w=1/[\s^2^(Fo^2^)+(0.0977P)^2^+0.0066P] where P=(Fo^2^+2Fc^2^)/3'
_refine_ls_weighting_scheme      calc
_refine_ls_wR_factor_gt          0.0949
_refine_ls_wR_factor_ref         0.1020
_reflns_Friedel_coverage         0.596
_reflns_Friedel_fraction_full    0.713
_reflns_Friedel_fraction_max     0.674
_reflns_number_gt                990
_reflns_number_total             1092
_reflns_threshold_expression     'I > 2\s(I)'
_cod_data_source_file            d1ce01469b2.cif
_cod_data_source_block           C-M96
_cod_depositor_comments
'Adding full bibliography for 7244175--7244182.cif.'
_cod_original_cell_volume        336.44(12)
_cod_original_sg_symbol_H-M      'P 21'
_cod_database_code               7244180
_shelx_shelxl_version_number     2018/3
_shelx_space_group_comment
;
The symmetry employed for this shelxl refinement is uniquely defined
by the following loop, which should always be used as a source of
symmetry information in preference to the above space-group names.
They are only intended as comments.
;
_shelx_estimated_absorpt_t_min   0.942
_shelx_estimated_absorpt_t_max   0.981
_shelx_res_file
;
TITL M96_0m in P2(1)
    M96.res
    created by SHELXL-2018/3 at 14:50:51 on 01-May-2020
CELL 0.71073   3.7360   8.4997  10.6544  90.000  96.061  90.000
ZERR    2.00   0.0007   0.0017   0.0022   0.000   0.007   0.000
LATT -1
SYMM -X, 0.5+Y, -Z
SFAC C H N F
UNIT 14 6 4 6
TEMP -73.140
SIZE 0.12 0.27 0.37
omit  0 0 1
L.S. 13
ACTA
BOND $H
FMAP 2
PLAN 15
HTAB
CONF
dfix 0.90 n1 h1   n1 h2
WGHT    0.097700    0.006600
FVAR       0.50604
F1    4    0.392541    0.763072    0.083628    11.00000    0.05648    0.02768 =
         0.03942   -0.01057   -0.00144    0.00133
N1    3    0.203504    1.295635    0.187309    11.00000    0.05625    0.02617 =
         0.04178    0.00305    0.00358    0.00896
H2    2    0.218438    1.367058    0.248371    11.00000    0.04921
H1    2    0.064019    1.309135    0.114728    11.00000    0.05023
C1    1    0.624580    0.850739    0.286682    11.00000    0.02813    0.02305 =
         0.02997    0.00182    0.00445   -0.00171
F2    4    0.118686    1.045219    0.021984    11.00000    0.05018    0.03971 =
         0.03155    0.00338   -0.00602    0.00134
C2    1    0.439790    0.879620    0.169051    11.00000    0.02911    0.02575 =
         0.03007   -0.00384    0.00553   -0.00350
N2    3    0.899146    0.576770    0.335494    11.00000    0.04878    0.02943 =
         0.04936    0.00185   -0.00176    0.00847
F3    4    0.558700    1.240788    0.420376    11.00000    0.07430    0.02658 =
         0.03725   -0.00879    0.00624    0.00054
C3    1    0.301800    1.025484    0.136513    11.00000    0.02797    0.02873 =
         0.02832    0.00265    0.00312   -0.00207
C4    1    0.334798    1.152254    0.219432    11.00000    0.03034    0.02296 =
         0.03558    0.00446    0.01005    0.00098
C5    1    0.521918    1.118803    0.338026    11.00000    0.04072    0.02521 =
         0.02773   -0.00384    0.00782   -0.00397
C6    1    0.663223    0.976009    0.372543    11.00000    0.03237    0.02599 =
         0.02973    0.00144    0.00436   -0.00265
AFIX  43
H6    2    0.787206    0.961216    0.454218    11.00000   -1.20000
AFIX   0
C7    1    0.773312    0.698359    0.314983    11.00000    0.03051    0.02783 =
         0.03643   -0.00150    0.00317   -0.00312

HKLF 4




REM  M96_0m in P2(1)
REM wR2 = 0.1020, GooF = S = 0.815, Restrained GooF = 0.813 for all data
REM R1 = 0.0325 for 990 Fo > 4sig(Fo) and 0.0380 for all 1092 data
REM 117 parameters refined using 3 restraints

END

WGHT      0.0492      0.0018

REM Instructions for potential hydrogen bonds
EQIV $1 x-1, y+1, z
HTAB N1 N2_$1
EQIV $2 -x, y+1/2, -z
HTAB N1 F1_$2
HTAB N1 F2_$2
EQIV $3 -x+2, y+1/2, -z+1
HTAB C6 N2_$3

REM Highest difference peak  0.157,  deepest hole -0.192,  1-sigma level  0.041
Q1    1   0.4737  0.9691  0.1349  11.00000  0.05    0.16
Q2    1   0.9372  0.8809  0.2444  11.00000  0.05    0.15
Q3    1   0.6423  0.8851  0.2199  11.00000  0.05    0.14
Q4    1   0.7318  1.0625  0.3354  11.00000  0.05    0.14
Q5    1   0.0214  0.7547  0.0813  11.00000  0.05    0.14
Q6    1   0.7390  0.9080  0.2988  11.00000  0.05    0.13
Q7    1   0.3601  1.0420  0.0980  11.00000  0.05    0.12
Q8    1   0.3269  1.1158  0.2719  11.00000  0.05    0.12
Q9    1   0.5991  1.0343  0.0652  11.00000  0.05    0.12
Q10   1   0.2818  0.9452  0.1650  11.00000  0.05    0.12
Q11   1   0.5733  1.1501  0.2698  11.00000  0.05    0.11
Q12   1   0.7895  1.1074  0.2781  11.00000  0.05    0.11
Q13   1  -0.1236  1.2919  0.1802  11.00000  0.05    0.11
Q14   1   0.6837  0.7722  0.1120  11.00000  0.05    0.11
Q15   1   1.0009  0.7015  0.3936  11.00000  0.05    0.11
;
_shelx_res_checksum              25781
_shelx_hkl_file
;
   1   0   0  277.11   12.90
   1   0   0  262.85   12.93
   2   0   0    0.18    0.09
   2   0   0    0.05    0.14
   3   0   0    0.16    0.10
   3   0   0    0.00    0.10
   3   0   0   -0.20    0.20
   4   0   0    4.17    0.46
   0   1   0   -0.10    0.04
  -1  -1   0  165.45    7.39
   1  -1   0  145.62    7.40
  -1  -1   0  151.76    7.42
   1   1   0  152.81    7.42
  -1   1   0  153.07    7.40
   1   1   0  160.43    7.39
   2  -1   0   94.38    4.64
   2  -1   0   97.80    4.60
   2   1   0   96.08    4.63
   2   1   0   95.84    4.65
   3  -1   0   17.58    1.05
   3  -1   0   19.58    0.95
   3  -1   0   18.63    0.95
   3   1   0   19.89    1.00
   3   1   0   20.69    1.02
   3   1   0   19.36    1.10
   4  -1   0    3.17    0.40
   4   1   0    2.87    0.43
   0   2   0  108.01    5.22
   0   2   0  108.81    5.21
  -1  -2   0  197.91    8.68
   1  -2   0  188.94    7.21
   1  -2   0  178.85    8.71
   1   2   0  161.36    8.71
  -2  -2   0    2.90    0.31
   2  -2   0    3.03    0.16
   2   2   0    2.33    0.29
   2   2   0    2.73    0.27
   3  -2   0    2.49    0.30
   3   2   0    2.66    0.29
   3   2   0    2.50    0.27
   4  -2   0    1.02    0.29
   4  -2   0    0.56    0.25
   0   3   0    0.08    0.11
   0   3   0   -0.06    0.09
  -1  -3   0   91.78    4.27
   1   3   0   90.17    4.29
  -1   3   0   91.17    3.68
  -1   3   0   81.14    4.25
  -2  -3   0   21.77    1.12
   2  -3   0   21.33    0.91
  -2   3   0   20.71    1.02
  -2   3   0   21.16    1.02
   2   3   0   21.95    1.12
   2   3   0   20.32    1.10
   3  -3   0   17.11    0.98
   3  -3   0   17.00    0.81
   3   3   0   18.91    0.98
   3   3   0   17.02    0.98
   4  -3   0    2.33    0.35
   4  -3   0    3.08    0.32
   0   4   0  144.37    7.38
   0   4   0  162.33    7.38
  -1   4   0   26.36    1.37
  -1   4   0   27.35    1.18
  -1   4   0   27.38    1.13
   1   4   0   29.10    1.41
  -1   4   0   25.98    1.37
   1   4   0   29.04    1.41
   2  -4   0    6.51    0.36
  -2  -4   0    7.23    0.50
  -2   4   0    7.21    0.38
  -2   4   0    7.27    0.38
   2   4   0    6.40    0.47
   2   4   0    7.28    0.49
   3  -4   0    3.19    0.26
   3   4   0    2.77    0.34
   4  -4   0    1.89    0.32
   4  -4   0    1.97    0.27
   0   5   0   -0.01    0.14
   0   5   0   -0.22    0.14
   1   5   0    0.35    0.18
  -1   5   0    0.45    0.09
  -1   5   0    0.04    0.14
  -1   5   0    0.50    0.13
  -1   5   0    0.37    0.12
   1   5   0    0.39    0.17
  -2  -5   0   53.07    2.64
  -2   5   0   48.97    2.56
   2   5   0   54.43    2.66
  -2   5   0   53.15    2.57
   2   5   0   54.80    2.66
   3   5   0    2.61    0.38
   0   6   0   15.44    0.86
   0   6   0   14.71    0.84
  -1   6   0    4.52    0.26
  -1   6   0    4.76    0.37
  -1   6   0    4.57    0.37
   1   6   0    4.03    0.44
  -1   6   0    4.96    0.33
   1   6   0    4.99    0.43
  -2   6   0   15.63    0.82
  -2   6   0   14.05    0.80
   2   6   0   16.37    0.92
   3   6   0    6.33    0.60
   0   7   0   -0.09    0.20
   0   7   0   -0.05    0.18
  -1   7   0   58.80    2.57
  -1   7   0   58.21    2.42
  -1   7   0   58.71    2.96
   1   7   0   61.25    3.02
  -1   7   0   58.49    2.96
   1   7   0   63.40    3.02
  -2   7   0   10.75    0.66
   2   7   0   12.36    0.81
  -2   7   0   11.14    0.64
   3   7   0    4.89    0.54
   0   8   0   10.27    0.72
   0   8   0   10.43    0.72
  -1  -8   0   48.13    2.44
   1   8   0   49.48    2.51
  -1   8   0   50.49    2.45
  -1   8   0   48.10    2.13
  -1   8   0   47.19    1.98
  -1   8   0   47.06    2.46
  -2   8   0    9.88    0.67
   2   8   0   12.24    0.83
   0   9   0    0.20    0.26
   0   9   0    0.04    0.22
  -1   9   0    0.77    0.24
  -1   9   0    0.79    0.29
   1   9   0    0.45    0.29
   2   9   0    3.85    0.50
  -2   9   0    4.41    0.45
   0  10   0    5.42    0.58
  -1  10   0    3.48    0.45
   4   0  -1    1.03    0.33
   3   0  -1    0.44    0.10
   3   0  -1    0.31    0.22
   3   0  -1    0.41    0.10
   2   0  -1   14.21    0.79
   2   0  -1   14.33    0.72
   2   0  -1   14.07    0.72
  -1   0   1   55.90    2.71
   1   0  -1   56.84    2.71
   0   0  -1   -0.11    0.02
   0   0   1   -0.11    0.02
   1   0   1   11.16    0.58
  -1   0  -1   10.84    0.59
  -1   0  -1   11.12    0.58
   1   0   1   11.65    0.60
   2   0   1   -0.02    0.11
   2   0   1   -0.08    0.13
  -2   0  -1    0.24    0.11
   3   0   1    0.88    0.27
   3   0   1    1.79    0.18
   4  -1  -1    2.08    0.36
   4   1  -1    1.47    0.35
   3   1  -1    2.09    0.21
   3   1  -1    1.52    0.19
   2   1  -1   14.27    0.75
   1   1  -1  554.55   25.99
   1   1  -1  532.47   26.04
   0  -1  -1  220.44   10.20
   0  -1   1  209.53   10.19
   0  -1  -1  209.01    8.81
   0   1  -1  210.72   10.21
   0   1   1  213.39   10.19
   0   1   1  209.60    8.80
  -1  -1  -1   16.53    0.84
   1  -1   1   16.11    0.82
   1  -1   1   16.96    0.71
   1  -1   1   16.31    0.83
  -1  -1  -1   17.12    0.85
   1   1   1   16.83    0.85
  -1   1  -1   16.32    0.82
   2  -1   1    5.34    0.39
  -2  -1  -1    5.95    0.41
   2  -1   1    5.63    0.32
  -2  -1  -1    5.64    0.35
   2   1   1    5.44    0.36
   3  -1   1   17.81    1.01
   3  -1   1   18.14    0.90
   3   1   1   17.61    0.95
   4  -1   1    0.44    0.26
   4  -1   1    1.02    0.30
   4  -2  -1    1.67    0.33
   4   2  -1    1.79    0.39
   3  -2  -1    9.58    0.69
   3   2  -1   10.74    0.64
   3   2  -1   10.89    0.62
   3   2  -1   11.14    0.73
   2   2  -1   51.36    2.58
   2   2  -1   51.31    2.56
   2   2  -1   53.87    2.56
   1  -2  -1    5.77    0.29
  -1  -2   1    6.35    0.38
   1   2  -1    5.96    0.37
  -1   2   1    5.90    0.32
   1   2  -1    6.45    0.38
   0  -2  -1   21.32    1.16
   0  -2   1   22.03    1.16
   0   2  -1   25.70    1.17
   0   2   1   24.24    1.17
   1  -2   1   39.75    1.96
  -1  -2  -1   41.71    1.99
   1  -2   1   39.90    1.64
   1   2   1   43.77    1.99
  -1   2  -1   37.88    1.96
  -1   2  -1   42.05    1.64
  -1   2  -1   38.20    1.68
   2  -2   1    7.41    0.40
   2  -2   1    6.76    0.46
  -2  -2  -1    7.63    0.50
  -2  -2  -1    8.22    0.47
   2  -2   1    7.52    0.41
   2   2   1    7.69    0.50
  -2   2  -1    8.21    0.40
   3  -2   1    4.16    0.36
   3  -2   1    4.07    0.23
   3  -2   1    4.22    0.38
   3   2   1    4.04    0.36
   4  -2   1    9.96    0.63
   4  -2   1    9.70    0.72
   4  -3  -1    0.76    0.22
   4  -3  -1    0.16    0.26
   3  -3  -1    1.11    0.18
   3  -3  -1    1.47    0.13
   3   3  -1    1.10    0.21
  -2  -3   1   81.14    3.81
   2  -3  -1   79.01    3.13
   2  -3  -1   75.71    3.25
   2   3  -1   78.05    3.80
   2   3  -1   75.96    3.80
  -1  -3   1   19.99    0.98
   1   3  -1   20.33    1.00
  -1   3   1   16.64    0.95
  -1   3   1   20.71    0.84
  -1   3   1   19.31    0.95
   1   3  -1   18.28    0.98
   0  -3  -1   16.26    0.83
   0  -3   1   15.90    0.83
   0   3  -1   15.22    0.83
   0   3   1   17.25    0.84
   1  -3   1  149.07    7.32
  -1  -3  -1  156.02    7.35
   1   3   1  159.31    7.35
  -1   3  -1  154.95    6.07
  -1   3  -1  143.79    7.32
   2  -3   1    4.65    0.29
   2  -3   1    5.01    0.31
  -2  -3  -1    5.48    0.38
  -2  -3  -1    5.01    0.40
  -2   3  -1    5.14    0.29
   2   3   1    5.71    0.41
   3  -3   1    3.81    0.39
   3  -3   1    3.51    0.31
   3   3   1    3.78    0.40
   4  -3   1    7.55    0.55
   4  -3   1    7.33    0.60
   4  -4  -1    0.81    0.21
   4  -4  -1    0.67    0.26
   3  -4  -1    9.52    0.49
   3   4  -1    9.37    0.64
  -2  -4   1    0.63    0.19
   2  -4  -1    1.10    0.13
   2   4  -1    0.51    0.20
  -2   4   1    0.88    0.09
   2   4  -1    0.69    0.19
  -2   4   1    0.90    0.10
  -1  -4   1   28.94    1.43
   1   4  -1   29.00    1.46
  -1   4   1   30.09    1.24
   1   4  -1   29.12    1.46
  -1   4   1   28.17    1.42
  -1   4   1   26.26    1.42
   0   4   1  100.88    5.17
   0   4  -1  113.00    5.17
   1  -4   1   11.86    0.65
  -1  -4  -1   12.02    0.67
  -1   4  -1   11.95    0.54
   1   4   1   13.02    0.71
  -1   4  -1   12.12    0.65
  -2  -4  -1    8.04    0.56
   2   4   1    7.73    0.55
  -2   4  -1    9.31    0.47
   3  -4   1    4.49    0.35
   3  -4   1    3.24    0.35
   3   4   1    4.58    0.43
   4  -4   1    0.38    0.23
   4  -4   1    0.74    0.24
   4  -5  -1    6.84    0.62
   3  -5  -1    4.85    0.32
   3   5  -1    5.11    0.50
  -2  -5   1    6.01    0.47
  -2   5   1    5.87    0.35
  -1  -5   1    4.62    0.34
   1   5  -1    4.77    0.40
  -1   5   1    4.62    0.33
   1   5  -1    3.85    0.35
  -1   5   1    4.21    0.33
  -1   5   1    5.17    0.31
   0   5  -1    7.11    0.44
   0   5   1    5.81    0.41
   0   5  -1    6.65    0.43
   0   5   1    5.75    0.43
  -1   5  -1    7.18    0.36
   1   5   1    6.82    0.50
  -1   5  -1    6.61    0.43
  -2  -5  -1    7.89    0.56
   2   5   1    9.20    0.62
   3  -5   1   11.60    0.71
   3   5   1   11.74    0.80
   3   6  -1    1.66    0.36
  -2  -6   1    5.13    0.46
   2   6  -1    5.55    0.47
  -2   6   1    5.30    0.37
  -1  -6   1    2.05    0.23
   1   6  -1    1.81    0.27
  -1   6   1    1.85    0.21
   1   6  -1    2.02    0.29
  -1   6   1    1.42    0.24
  -1   6   1    1.74    0.22
  -1   6   1    1.76    0.14
   0   6   1    3.29    0.33
   0   6  -1    4.38    0.37
   0   6  -1    4.12    0.37
   0   6   1    3.66    0.33
   1   6   1   12.97    0.78
   1   6   1   12.81    0.76
  -1   6  -1   11.64    0.70
  -1   6  -1   12.80    0.57
  -1   6  -1   11.68    0.71
  -2   6  -1    2.39    0.24
   2   6   1    1.92    0.35
  -2   6  -1    2.08    0.23
   3   6   1    0.79    0.29
  -3   6  -1    1.57    0.14
   3   7  -1    0.80    0.35
   2   7  -1    4.92    0.53
  -2   7   1    4.52    0.39
  -2   7   1    4.15    0.35
  -1  -7   1    5.03    0.42
   1   7  -1    4.63    0.48
  -1   7   1    4.92    0.42
  -1   7   1    4.22    0.25
   1   7  -1    4.60    0.49
  -1   7   1    4.53    0.40
  -1   7   1    4.39    0.39
   0   7   1   46.22    2.52
   0   7  -1   56.82    2.54
   0   7  -1   50.76    2.52
   0   7   1   46.20    2.51
   1   7   1    5.20    0.51
   1   7   1    4.27    0.46
  -1   7  -1    5.28    0.33
  -1   7  -1    4.93    0.42
  -1   7  -1    4.81    0.43
   2   7   1    1.38    0.35
  -2   7  -1    1.23    0.22
  -2   7  -1    1.26    0.17
  -2   7  -1    1.43    0.20
   3   7   1    1.48    0.39
   2   8  -1    6.97    0.66
  -2   8   1    6.43    0.50
  -1  -8   1   17.99    0.96
   1   8  -1   16.39    1.01
  -1   8   1   16.60    0.97
  -1   8   1   15.82    0.98
  -1   8   1   17.65    0.88
   0   8  -1   42.16    2.11
   0   8   1   41.74    2.11
   0   8   1   37.50    2.10
   0   8  -1   40.75    2.09
  -1   8  -1   36.04    1.56
  -1   8  -1   37.65    1.93
   1   8   1   36.88    1.99
  -1   8  -1   38.20    1.93
  -2   8  -1    3.56    0.39
   2   8   1    3.48    0.45
  -2   8  -1    3.98    0.33
   2   9  -1   12.45    0.88
  -2   9   1   12.06    0.77
  -1   9   1    2.63    0.33
   1   9  -1    2.57    0.42
  -1   9   1    2.16    0.36
   0   9  -1    0.93    0.26
   0   9   1    0.95    0.33
   0   9  -1    1.01    0.32
   0   9   1    0.48    0.29
  -1   9  -1    4.13    0.42
   1   9   1    2.78    0.45
  -1   9  -1    2.74    0.32
  -2   9  -1    0.39    0.27
   2   9   1    0.86    0.42
  -1  10   1    6.78    0.64
   0  10  -1    0.18    0.34
   0  10   1    0.45    0.29
   0  10   1    0.32    0.24
  -1  10  -1    1.15    0.28
   4   0  -2    0.43    0.30
   3   0  -2    5.45    0.33
   3   0  -2    4.95    0.49
   3   0  -2    5.66    0.32
   2   0  -2    9.92    0.53
   2   0  -2   10.49    0.53
  -1   0   2 1000.00   47.84
   0   0  -2   93.64    4.32
   0   0   2   86.26    4.32
   1   0   2  476.45   22.37
  -1   0  -2  454.29   22.24
   1   0   2  480.04   18.54
   1   0   2  440.38   19.27
  -1   0  -2  482.05   22.43
  -2   0  -2  112.80    5.33
   2   0   2  106.89    5.33
  -2   0  -2  111.74    5.33
   3   0   2   23.32    1.20
  -3   0  -2   23.29    1.19
   4   0   2    0.29    0.21
   4  -1  -2   -0.25    0.26
   4   1  -2   -0.43    0.27
   4   1  -2    0.03    0.12
   3  -1  -2    3.50    0.36
   3   1  -2    3.61    0.39
   3   1  -2    3.05    0.26
   3   1  -2    3.42    0.29
   2  -1  -2  171.96    8.24
   2  -1  -2  175.67    8.25
   2   1  -2  176.58    8.29
   2   1  -2  167.37    8.28
   2   1  -2  171.63    8.28
  -1  -1   2  743.61   36.10
   1  -1  -2  761.05   36.03
  -1   1   2  775.68   36.03
   1   1  -2  732.11   36.08
   0  -1  -2   46.71    1.91
   0  -1   2   39.92    2.21
   0  -1  -2   49.76    2.21
   0  -1  -2   43.22    1.82
   0   1   2   45.47    1.91
   0   1   2   45.60    2.21
   0   1  -2   48.95    2.21
  -1  -1  -2   56.40    2.64
   1  -1   2   54.11    2.19
   1  -1   2   54.60    2.62
  -1   1  -2   53.72    2.62
  -1   1  -2   55.09    2.19
   1   1   2   51.47    2.64
  -1   1  -2   53.82    2.61
   2  -1   2   14.59    0.80
   2  -1   2   14.87    0.77
   2  -1   2   14.52    0.70
  -2  -1  -2   15.46    0.82
  -2  -1  -2   15.12    0.79
   2   1   2   15.36    0.80
  -2   1  -2   14.45    0.77
   3  -1   2    1.21    0.24
   3  -1   2    1.12    0.16
   3  -1   2    1.30    0.21
  -3  -1  -2    1.37    0.19
   3   1   2    1.26    0.19
   4  -1   2   -0.33    0.24
   4  -2  -2    5.08    0.56
   4   2  -2    5.74    0.62
   3   2  -2    7.46    0.55
   3   2  -2    6.59    0.47
   3   2  -2    7.17    0.46
   2   2  -2   19.42    1.06
   2   2  -2   19.39    1.01
   2   2  -2   20.04    1.02
   1  -2  -2   44.22    1.85
   1  -2  -2   44.04    2.12
  -1  -2   2   43.12    2.15
   1   2  -2   44.81    2.15
  -1   2   2   43.84    2.12
   1   2  -2   43.49    2.14
   0  -2  -2   26.77    1.24
   0  -2   2   22.20    1.23
   0   2   2   24.12    1.24
   0   2  -2   26.88    1.24
   0   2   2   24.37    1.00
   0   2   2   24.44    1.07
  -1  -2  -2   90.31    4.12
   1  -2   2   81.97    4.09
   1  -2   2   85.44    4.06
  -1   2  -2   84.57    3.40
  -1   2  -2   78.36    4.09
   1   2   2   88.65    4.12
  -2  -2  -2   44.18    2.20
   2  -2   2   45.82    2.16
  -2  -2  -2   46.89    2.20
   2  -2   2   44.57    2.17
   2  -2   2   42.60    1.82
   2   2   2   45.43    2.20
  -2   2  -2   39.95    2.15
   3  -2   2   -0.15    0.16
  -3  -2  -2    0.07    0.17
   3  -2   2   -0.13    0.19
   3  -2   2    0.09    0.10
  -3   2  -2    0.11    0.10
   3   2   2   -0.04    0.20
   4  -2   2   10.30    0.66
   4  -3  -2    0.37    0.19
   4  -3  -2    0.20    0.26
   3  -3  -2    2.62    0.22
   3   3  -2    2.66    0.29
   3   3  -2    2.33    0.33
   3   3  -2    2.63    0.28
   1  -3  -2   67.39    3.44
   1  -3  -2   74.09    2.99
  -1  -3   2   72.92    3.48
  -1  -3   2   73.46    3.45
  -1   3   2   68.35    3.44
   1   3  -2   71.34    3.48
   1   3  -2   72.02    3.45
   0  -3   2  139.25    6.47
   0  -3  -2  137.97    6.46
   0  -3   2  139.28    6.41
   0   3   2  134.15    6.47
   0   3   2  134.48    5.59
   0   3  -2  120.74    6.46
  -1  -3  -2   16.56    0.85
   1  -3   2   15.71    0.82
  -1   3  -2   15.29    0.69
   1   3   2   15.53    0.85
  -1   3  -2   16.34    0.82
   2  -3   2    4.76    0.35
  -2  -3  -2    5.70    0.40
   2  -3   2    4.96    0.32
  -2  -3  -2    4.90    0.41
   2  -3   2    5.05    0.33
   2   3   2    5.55    0.42
   3  -3   2   10.95    0.62
   3  -3   2   12.52    0.65
   3  -3   2   12.40    0.74
  -3  -3  -2   12.29    0.73
   3   3   2   13.51    0.77
  -3   3  -2   11.76    0.63
   4  -3   2   10.95    0.75
   4  -3   2   11.35    0.69
   4  -4  -2    0.12    0.16
   4  -4  -2    0.57    0.25
   3  -4  -2    1.39    0.16
   3  -4  -2    1.84    0.19
   3   4  -2    1.34    0.27
   2  -4  -2    2.50    0.18
  -2   4   2    2.53    0.17
   2   4  -2    2.95    0.31
  -2   4   2    2.46    0.17
   2   4  -2    3.12    0.30
  -1  -4   2   18.30    0.94
  -1   4   2   18.60    0.93
  -1   4   2   17.91    0.82
   1   4  -2   17.56    0.97
   0  -4   2  182.21    8.67
   0  -4  -2  171.82    8.66
   0   4   2  180.75    8.67
   0   4  -2  190.61    8.67
   0   4   2  175.20    7.48
   1  -4   2  128.42    6.46
  -1  -4  -2  136.00    6.49
  -1   4  -2  128.36    6.46
  -1   4  -2  139.04    5.36
   1   4   2  139.19    6.50
   2  -4   2   35.20    1.71
   2  -4   2   31.75    1.70
  -2  -4  -2   34.25    1.77
  -2  -4  -2   36.61    1.77
   2   4   2   33.26    1.77
  -2   4  -2   35.95    1.71
   3  -4   2    3.07    0.33
   3  -4   2    3.28    0.30
  -3   4  -2    2.86    0.22
   3   4   2    3.09    0.38
   4  -4   2    3.39    0.37
   4  -4   2    3.46    0.37
   3  -5  -2    1.51    0.18
   3   5  -2    1.63    0.32
  -2  -5   2    7.46    0.51
   2   5  -2    6.88    0.50
  -2   5   2    6.50    0.39
  -2   5   2    7.22    0.41
   2   5  -2    7.61    0.53
  -1  -5   2   10.53    0.61
  -1   5   2   10.78    0.61
   1   5  -2   10.81    0.66
  -1   5   2   11.25    0.56
  -1   5   2   10.51    0.61
   0  -5   2    3.65    0.33
   0  -5  -2    3.34    0.29
   0   5  -2    3.72    0.32
   0   5   2    3.18    0.33
   1  -5   2   51.02    2.47
  -1  -5  -2   48.69    2.49
   1   5   2   49.29    2.51
  -1   5  -2   51.17    2.47
  -1   5  -2   49.32    2.04
   2  -5   2   -0.11    0.12
  -2  -5  -2   -0.11    0.15
  -2   5  -2    0.01    0.12
   2   5   2    0.12    0.21
   3  -5   2    1.37    0.23
  -3   5  -2    1.19    0.14
   3   5   2    1.53    0.35
   3   6  -2   14.63    0.94
  -2  -6   2    0.80    0.21
  -2   6   2    0.50    0.15
   2   6  -2    0.51    0.23
  -1  -6   2   18.50    0.93
   1   6  -2   17.96    0.96
   1   6  -2   16.32    0.96
  -1   6   2   15.94    0.92
  -1   6   2   18.36    0.84
  -1   6   2   15.50    0.93
   0   6  -2   34.20    1.66
   0   6   2   29.97    1.65
  -1   6  -2   17.74    0.96
  -1   6  -2   18.11    0.80
   1   6   2   17.77    1.01
   2   6   2    0.75    0.30
  -2   6  -2    0.55    0.15
   3  -6   2    2.03    0.25
  -3   6  -2    2.37    0.23
   3   6   2    2.56    0.41
   3   7  -2    0.70    0.34
  -2   7   2    0.84    0.21
   2   7  -2    1.24    0.29
  -2   7   2    0.98    0.17
  -1  -7   2   30.99    1.50
   1   7  -2   31.79    1.58
  -1   7   2   26.95    1.51
   1   7  -2   31.53    1.58
  -1   7   2   25.88    1.52
  -1   7   2   28.21    1.33
   0   7   2   93.58    4.85
   0   7  -2  107.57    4.86
   0   7   2   96.44    4.84
   0   7   2   91.97    4.19
   0   7  -2  104.34    4.86
   1   7   2   24.94    1.37
   1   7   2   23.44    1.36
  -1   7  -2   26.41    1.32
  -1   7  -2   24.54    1.08
  -2   7  -2    1.46    0.16
   2   7   2    1.64    0.37
  -2   7  -2    1.55    0.25
  -3   7  -2    2.39    0.25
   3   7   2    2.44    0.44
   2   8  -2   25.82    1.41
  -2   8   2   22.21    1.27
  -1  -8   2    1.68    0.25
  -1   8   2    1.90    0.28
  -1   8   2    2.07    0.31
   1   8  -2    1.86    0.37
  -1   8   2    1.50    0.24
   0   8   2    1.23    0.26
   0   8   2    1.33    0.26
   0   8   2    1.33    0.29
   0   8  -2    1.89    0.29
   0   8  -2    1.64    0.34
  -1   8  -2    0.20    0.16
   1   8   2    0.69    0.33
  -1   8  -2    0.16    0.20
  -1   8  -2    0.28    0.24
   2   8   2    6.95    0.69
  -2   8  -2    6.81    0.54
  -2   8  -2    7.44    0.43
   2   9  -2   19.57    1.18
  -2   9   2   16.56    1.02
  -1   9   2    0.21    0.26
  -1   9   2   -0.15    0.23
   1   9  -2    0.17    0.27
   0   9   2    6.07    0.60
   0   9   2    5.16    0.52
   0   9  -2    6.16    0.58
   0   9   2    6.26    0.50
   0   9  -2    7.41    0.59
  -1   9  -2    0.29    0.27
   1   9   2    0.67    0.30
  -2   9  -2    1.29    0.29
   2   9   2    1.43    0.37
  -1  10   2    1.77    0.32
   0  10   2    2.79    0.35
  -1  10  -2    2.06    0.31
   4   0  -3    1.06    0.33
   3   0  -3    0.40    0.10
   3   0  -3    0.69    0.12
   3   0  -3    0.14    0.19
  -2   0   3    7.78    0.44
   2   0  -3    8.40    0.45
   1   0  -3   48.79    2.35
  -1   0   3   48.10    2.35
   0   0   3   84.05    4.36
   0   0  -3   97.16    4.37
   1   0   3   17.57    0.94
   1   0   3   18.89    0.80
  -1   0  -3   18.70    0.94
  -2   0  -3    3.97    0.31
   2   0   3    3.45    0.21
   2   0   3    3.66    0.31
   2   0   3    3.50    0.29
  -2   0  -3    3.85    0.32
   3   0   3    6.20    0.44
   3   0   3    6.72    0.34
  -3   0  -3    6.73    0.44
   3   0   3    6.67    0.45
   4   0   3    0.93    0.28
   4  -1  -3    1.33    0.34
   4   1  -3    1.26    0.36
   3   1  -3   11.48    0.64
   3   1  -3   11.00    0.75
   3   1  -3   11.35    0.62
  -2  -1   3  160.49    7.53
   2  -1  -3  155.56    7.50
   2   1  -3  154.97    7.53
  -2   1   3  155.82    7.50
  -1  -1   3    9.28    0.54
   1  -1  -3   10.15    0.53
  -1   1   3   10.17    0.53
   1   1  -3   10.28    0.55
   0  -1   3   41.66    2.08
   0  -1  -3   43.55    2.08
   0  -1  -3   40.13    1.70
   0  -1  -3   42.65    1.79
   0   1   3   43.54    2.08
   0   1  -3   42.48    2.08
   1  -1   3    3.75    0.28
  -1  -1  -3    4.19    0.29
   1  -1   3    3.85    0.24
   1   1   3    4.20    0.24
  -1   1  -3    4.18    0.26
   1   1   3    3.83    0.31
  -1   1  -3    3.41    0.19
  -1   1  -3    4.08    0.28
  -1   1  -3    3.64    0.25
   1   1   3    3.93    0.24
  -2  -1  -3   85.69    4.07
   2  -1   3   80.05    3.39
   2  -1   3   86.28    4.06
  -2  -1  -3   83.36    4.07
   2   1   3   84.99    4.08
  -2   1  -3   81.73    4.05
   3  -1   3    0.13    0.20
   3  -1   3    0.26    0.14
  -3  -1  -3    0.07    0.15
  -3   1  -3    0.28    0.13
   3   1   3    0.19    0.16
   4  -1   3    0.24    0.27
   4   1   3   -0.59    0.24
   4  -2  -3    2.48    0.38
   4   2  -3    2.67    0.37
   3   2  -3   41.28    2.01
   3   2  -3   37.84    2.06
   3   2  -3   40.68    2.01
  -2  -2   3   69.77    3.27
   2  -2  -3   67.76    3.20
   2   2  -3   68.12    3.26
   2   2  -3   65.77    3.27
  -2   2   3   62.81    3.20
   1  -2  -3   22.80    1.09
   1  -2  -3   22.65    0.97
  -1  -2   3   22.66    1.12
  -1   2   3   20.81    1.09
   1   2  -3   22.22    1.12
   1   2  -3   20.85    1.11
   0  -2  -3  205.80   10.83
   0  -2   3  223.24   10.84
   0  -2  -3  236.03    9.35
   0   2   3  201.04   10.83
   0   2   3  238.19    9.35
   0   2  -3  252.24   10.89
  -1  -2  -3   35.53    1.72
   1  -2   3   31.16    1.70
  -1   2  -3   35.30    1.43
   1   2   3   35.19    1.48
  -1   2  -3   33.51    1.70
   1   2   3   35.43    1.73
   2  -2   3    3.48    0.27
  -2  -2  -3    3.34    0.34
  -2  -2  -3    3.25    0.31
   2  -2   3    3.50    0.27
  -2   2  -3    2.93    0.26
   2   2   3    3.02    0.30
   3  -2   3   10.10    0.59
  -3  -2  -3   10.40    0.63
   3  -2   3   10.00    0.58
   3   2   3   10.04    0.65
   4  -2   3    4.97    0.45
   4   3  -3    0.99    0.36
   3  -3  -3    6.04    0.37
   3   3  -3    6.12    0.53
   3   3  -3    6.78    0.49
   2  -3  -3   19.97    0.91
   2   3  -3   20.85    1.08
   2   3  -3   21.38    1.11
  -2   3   3   20.17    1.00
   1  -3  -3    9.17    0.45
  -1  -3   3    9.14    0.54
   1  -3  -3    9.33    0.49
  -1   3   3    8.95    0.50
   1   3  -3    8.93    0.51
   1   3  -3    8.08    0.52
   0  -3  -3   30.26    1.62
   0  -3   3   34.36    1.64
   0   3   3   30.75    1.63
   0   3  -3   33.11    1.63
   0   3   3   33.48    1.42
   0   3   3   34.35    1.32
   1  -3   3   40.38    2.05
  -1  -3  -3   43.99    2.08
  -1   3  -3   42.25    2.05
  -1   3  -3   42.59    1.72
   1   3   3   38.93    2.07
  -2  -3  -3    7.36    0.51
   2  -3   3    7.32    0.45
  -2  -3  -3    7.43    0.50
   2  -3   3    7.12    0.44
   2   3   3    8.18    0.53
  -2   3  -3    7.31    0.44
  -3  -3  -3   46.37    2.32
   3  -3   3   45.53    2.25
   3  -3   3   47.40    1.96
   3   3   3   45.49    2.33
  -3   3  -3   43.89    2.24
   4  -3   3    3.80    0.39
   4  -4  -3    1.39    0.21
   3  -4  -3    1.58    0.18
   3  -4  -3    1.15    0.16
   3   4  -3    1.36    0.26
   3   4  -3    1.02    0.31
   2  -4  -3    1.51    0.17
   2  -4  -3    1.43    0.12
   2   4  -3    1.39    0.24
   2   4  -3    1.58    0.22
  -2   4   3    1.68    0.15
  -2   4   3    1.50    0.15
  -1  -4   3   32.24    1.78
   1  -4  -3   36.26    1.75
   1   4  -3   37.33    1.80
  -1   4   3   35.98    1.76
   0  -4   3    6.71    0.45
   0  -4  -3    6.74    0.43
   0   4   3    6.72    0.41
   0   4   3    6.10    0.43
   0   4  -3    6.86    0.44
  -1  -4  -3    2.40    0.27
   1  -4   3    2.97    0.27
  -1   4  -3    2.81    0.26
  -1   4  -3    3.02    0.23
   1   4   3    3.38    0.35
   2  -4   3   35.72    1.84
   2  -4   3   35.30    1.82
  -2  -4  -3   36.68    1.90
  -2  -4  -3   37.90    1.90
   2   4   3   40.59    1.93
  -2   4  -3   37.12    1.85
  -3  -4  -3    3.81    0.40
   3  -4   3    3.78    0.38
  -3   4  -3    3.88    0.30
   3   4   3    4.12    0.45
   3  -5  -3    3.18    0.26
   3   5  -3    3.84    0.41
   2   5  -3    7.59    0.53
   2   5  -3    7.38    0.55
  -2   5   3    6.20    0.39
  -2   5   3    7.34    0.42
  -1  -5   3   22.56    1.14
   1  -5  -3   18.27    1.06
   1   5  -3   20.85    1.12
  -1   5   3   21.14    1.09
  -1   5   3   21.97    0.97
   0  -5  -3   34.93    1.75
   0  -5   3   33.73    1.68
   0  -5   3   36.70    1.77
   0   5   3   33.36    1.53
   0   5   3   33.28    1.76
   0   5  -3   36.03    1.76
  -1  -5  -3    8.19    0.52
   1  -5   3    7.57    0.49
  -1   5  -3    7.81    0.49
   1   5   3    7.57    0.56
  -1   5  -3    7.22    0.42
   2  -5   3    8.58    0.50
   2  -5   3    9.44    0.55
  -2  -5  -3    9.54    0.63
  -2   5  -3    9.47    0.55
   2   5   3    9.29    0.68
   3  -5   3    0.06    0.15
  -3  -5  -3    0.27    0.23
   3   5   3   -0.11    0.28
   3   6  -3    2.79    0.40
   2   6  -3    8.55    0.60
  -2   6   3    8.16    0.51
  -1  -6   3   82.01    3.92
   1   6  -3   87.17    4.00
  -1   6   3   77.95    3.43
  -1   6   3   76.55    3.96
   0  -6  -3    5.30    0.40
   0  -6   3    5.18    0.44
   0  -6   3    5.03    0.31
   0   6   3    4.97    0.45
   0   6  -3    4.98    0.40
   0   6   3    5.23    0.38
   1  -6   3    8.23    0.54
  -1  -6  -3    8.02    0.56
  -1   6  -3    8.15    0.45
  -1   6  -3    7.77    0.53
   1   6   3    8.01    0.61
  -2  -6  -3    8.72    0.64
   2  -6   3    8.13    0.49
   2  -6   3    9.56    0.56
   2   6   3    9.73    0.70
  -2   6  -3    9.69    0.56
  -2   6  -3    8.25    0.41
   3   6   3    0.18    0.32
   3   7  -3    0.48    0.27
  -2   7   3    3.51    0.31
  -2   7   3    3.37    0.32
   2   7  -3    3.95    0.46
  -1  -7   3   59.54    2.81
  -1   7   3   54.70    2.85
   1   7  -3   55.23    2.88
  -1   7   3   56.51    2.85
  -1   7   3   57.06    2.49
   1   7  -3   59.84    2.91
   0  -7   3   20.25    1.00
   0   7  -3   21.01    1.12
   0   7   3   18.72    1.12
   0   7   3   18.35    0.97
   1  -7   3   11.43    0.72
  -1   7  -3   11.54    0.72
   1   7   3   11.68    0.80
  -1   7  -3   12.10    0.62
  -2   7  -3    0.44    0.11
   2   7   3    0.32    0.28
   3   7   3    1.69    0.43
  -3   7  -3    1.57    0.21
  -2   8   3    1.43    0.25
  -1  -8   3    5.22    0.39
  -1   8   3    4.00    0.39
   1   8  -3    4.29    0.46
  -1   8   3    4.18    0.41
  -1   8   3    3.60    0.43
   0  -8   3   17.75    0.89
   0   8   3   16.25    1.03
   0   8   3   16.37    0.91
   0   8  -3   17.63    1.00
   0   8   3   16.90    1.01
   0   8  -3   16.93    1.02
   1   8   3    1.58    0.38
  -1   8  -3    1.91    0.28
  -1   8  -3    2.27    0.24
   2   8   3    2.74    0.42
  -2   8  -3    2.99    0.34
   2   9  -3    2.90    0.48
  -2   9   3    2.12    0.33
   1   9  -3    3.85    0.45
  -1   9   3    3.30    0.35
  -1   9   3    3.45    0.42
   0   9   3    6.24    0.59
   0   9  -3    7.57    0.63
   0   9   3    6.16    0.53
   0   9   3    6.34    0.62
   1   9   3    4.84    0.45
  -1   9  -3    3.96    0.45
   1   9   3    4.51    0.54
   0  10   3    0.80    0.27
   4   0  -4    0.36    0.26
   3   0  -4    1.63    0.17
   3   0  -4    1.40    0.16
   2   0  -4    7.84    0.43
  -2   0   4    6.87    0.43
   1   0  -4    3.03    0.23
  -1   0   4    2.30    0.25
   0   0   4   64.78    3.37
   0   0  -4   74.11    3.38
   1   0   4  210.17    8.71
  -1   0  -4  212.15    8.70
   1   0   4  223.05   10.51
  -1   0  -4  221.93    9.05
  -1   0  -4  227.13   10.51
  -2   0  -4   -0.15    0.13
  -2   0  -4    0.04    0.13
   2   0   4    0.23    0.14
   2   0   4    0.05    0.14
   3   0   4    7.32    0.49
   3   0   4    6.43    0.45
  -3   0  -4    6.34    0.47
   4   0   4    1.21    0.32
   4  -1  -4    1.94    0.34
   4   1  -4    2.54    0.37
   3  -1  -4   14.39    0.71
   3  -1  -4   14.47    0.71
   3   1  -4   13.82    0.76
   3   1  -4   14.12    0.76
   3   1  -4   13.28    0.85
  -2  -1   4   55.21    2.69
   2  -1  -4   53.94    2.67
  -2   1   4   56.08    2.67
   2   1  -4   54.64    2.69
  -1  -1   4    2.85    0.26
   1  -1  -4    3.02    0.23
   1   1  -4    3.24    0.26
  -1   1   4    3.24    0.24
   0  -1  -4  328.85   16.26
   0  -1   4  333.98   16.18
   0  -1  -4  340.53   14.03
   0  -1  -4  356.18   13.47
   0   1   4  350.69   16.18
   0   1  -4  316.60   16.17
  -1  -1  -4   83.80    4.03
   1  -1   4   78.43    4.03
   1   1   4   77.15    4.03
  -1   1  -4   86.11    4.03
  -1   1  -4   82.63    3.34
  -1   1  -4   82.99    3.45
   1   1   4   87.26    3.35
   1   1   4   85.62    3.47
   2  -1   4    5.44    0.36
   2  -1   4    5.11    0.38
  -2  -1  -4    6.09    0.42
  -2  -1  -4    5.46    0.40
   2   1   4    5.53    0.42
  -2   1  -4    6.12    0.38
   2   1   4    5.68    0.39
   2   1   4    5.91    0.33
  -2   1  -4    5.36    0.38
   3  -1   4    0.91    0.22
   3  -1   4    1.17    0.20
  -3  -1  -4    0.96    0.21
   3   1   4    1.59    0.26
   3   1   4    1.46    0.24
   3   1   4    1.47    0.16
  -3   1  -4    1.21    0.19
   4  -1   4   -0.19    0.26
   4   1   4   -0.20    0.22
   4   2  -4    3.22    0.46
   3   2  -4   35.97    1.92
   3   2  -4   37.22    1.86
   3   2  -4   37.23    1.87
  -2  -2   4   81.53    3.92
   2  -2  -4   80.21    3.87
   2   2  -4   77.46    3.92
   2   2  -4   80.35    3.91
  -2   2   4   81.97    3.87
  -1  -2   4    7.83    0.48
   1  -2  -4    8.23    0.45
   1   2  -4    8.44    0.48
  -1   2   4    7.41    0.45
   0  -2   4    1.80    0.21
   0  -2  -4    2.38    0.21
   0  -2  -4    1.90    0.14
   0  -2  -4    2.27    0.18
   0   2  -4    2.52    0.22
   0   2   4    2.00    0.22
  -1  -2  -4    1.35    0.20
   1  -2   4    1.67    0.19
   1   2   4    1.04    0.19
  -1   2  -4    1.26    0.16
  -1   2  -4    1.45    0.17
   1   2   4    1.21    0.16
   1   2   4    1.01    0.14
  -1   2  -4    1.15    0.12
   2  -2   4    4.96    0.34
  -2  -2  -4    4.79    0.38
   2  -2   4    4.45    0.35
  -2  -2  -4    4.42    0.39
  -2   2  -4    4.38    0.35
   2   2   4    4.74    0.41
   2   2   4    4.52    0.33
   2   2   4    4.44    0.31
  -3  -2  -4    0.21    0.18
   3  -2   4    0.59    0.24
   3  -2   4    0.76    0.17
   3   2   4    0.19    0.26
   3   2   4    0.53    0.21
  -3   2  -4    0.43    0.16
   3   2   4    0.34    0.16
   4  -2   4    0.74    0.29
   4   2   4    0.39    0.30
   4   3  -4    1.89    0.35
   3  -3  -4   10.08    0.52
   3   3  -4    9.33    0.71
   3   3  -4    9.42    0.62
  -2  -3   4    1.01    0.21
   2  -3  -4    0.71    0.13
   2  -3  -4    0.74    0.11
   2   3  -4    0.48    0.21
   2   3  -4    1.16    0.21
  -2   3   4    1.02    0.12
   1  -3  -4   46.84    1.95
   1  -3  -4   46.85    2.24
  -1  -3   4   42.93    2.26
   1   3  -4   47.28    2.23
  -1   3   4   45.44    2.24
   1   3  -4   44.11    2.26
   0  -3   4  177.50    8.78
   0  -3  -4  189.86    8.77
   0   3  -4  187.30    8.78
   0   3   4  177.49    8.77
   0   3   4  179.27    7.57
  -1  -3  -4   72.60    3.75
   1  -3   4   80.15    3.75
   1   3   4   78.95    3.10
   1   3   4   75.92    3.25
   1   3   4   76.50    3.77
  -1   3  -4   80.09    3.75
  -1   3  -4   73.34    3.11
  -2  -3  -4   17.67    1.02
   2  -3   4   18.40    0.99
  -2  -3  -4   18.67    1.03
  -2   3  -4   17.53    0.98
   2   3   4   19.94    1.06
   2   3   4   19.59    0.89
   3  -3   4    5.46    0.46
   3  -3   4    4.74    0.38
  -3  -3  -4    4.89    0.46
   3   3   4    5.28    0.53
   3   3   4    5.51    0.40
  -3   3  -4    4.81    0.38
   4   4  -4    0.64    0.38
   3  -4  -4    1.73    0.20
   3   4  -4    1.85    0.30
   3   4  -4    1.57    0.32
   2  -4  -4    8.16    0.46
   2  -4  -4    8.07    0.45
  -2  -4   4    7.93    0.54
   2   4  -4    8.97    0.54
  -2   4   4    8.78    0.47
   2   4  -4    7.95    0.56
   1  -4  -4   86.56    4.32
   1  -4  -4   87.57    3.75
  -1  -4   4   93.43    4.36
  -1   4   4   88.51    4.33
   1   4  -4   91.18    4.30
   1   4  -4   87.61    4.35
   0  -4  -4   34.81    1.79
   0  -4   4   34.33    1.80
   0   4   4   35.83    1.44
   0   4   4   34.40    1.56
   0   4  -4   37.59    1.80
   0   4   4   36.53    1.80
  -1  -4  -4    0.84    0.20
   1  -4   4    0.92    0.18
  -1   4  -4    0.82    0.16
   1   4   4    0.85    0.24
   1   4   4    1.02    0.17
  -1   4  -4    1.09    0.18
   2  -4   4   44.60    2.29
  -2  -4  -4   48.99    2.35
  -2   4  -4   46.05    2.29
   2   4   4   43.60    2.34
   2   4   4   47.44    2.03
  -3  -4  -4   46.65    2.51
   3   4   4   51.85    2.55
   3  -5  -4    1.16    0.16
   3  -5  -4    1.22    0.19
   3   5  -4    1.48    0.31
  -2   5   4   33.16    1.65
   1  -5  -4   34.31    1.80
  -1  -5   4   37.14    1.86
  -1   5   4   35.54    1.83
   1   5  -4   37.93    1.86
   0  -5  -4   23.44    1.22
   0  -5   4   24.59    1.25
   0   5   4   23.08    1.25
   0   5  -4   23.30    1.24
   0   5   4   22.35    1.08
   0   5   4   23.44    0.96
  -1  -5  -4   12.68    0.76
   1  -5   4   13.16    0.74
   1   5   4   12.34    0.77
   1   5   4   12.84    0.67
  -1   5  -4   12.56    0.73
  -1   5  -4   12.57    0.62
  -2  -5  -4    0.50    0.19
   2  -5   4    0.45    0.18
  -2   5  -4    0.48    0.16
   2   5   4    0.80    0.31
  -2   5  -4    0.79    0.18
  -3  -5  -4    5.28    0.52
   3   5   4    5.27    0.53
   3   6  -4    0.90    0.33
  -2   6   4   34.66    1.68
   2   6  -4   34.13    1.78
  -2   6   4   31.40    1.67
   1  -6  -4   25.62    1.36
  -1  -6   4   27.73    1.44
  -1   6   4   27.69    1.23
   1   6  -4   26.17    1.41
  -1   6   4   25.09    1.38
   0  -6  -4   17.70    0.96
   0  -6   4   18.33    1.00
   0   6  -4   18.51    0.98
   0   6   4   16.30    0.99
   0   6   4   16.27    0.86
   0   6   4   17.17    0.72
  -1  -6  -4    2.05    0.27
   1  -6   4    2.15    0.28
   1   6   4    2.25    0.32
   1   6   4    1.79    0.26
  -1   6  -4    2.57    0.28
  -1   6  -4    2.62    0.25
   2  -6   4    5.76    0.43
  -2   6  -4    4.95    0.27
   2   6   4    5.04    0.57
  -2   6  -4    6.21    0.44
   3   6   4    0.48    0.28
   3   7  -4    0.33    0.27
  -2   7   4    4.19    0.38
   2   7  -4    4.73    0.50
  -1   7   4    2.76    0.33
  -1   7   4    3.13    0.37
   0  -7   4   -0.29    0.22
   0   7   4    0.05    0.07
   0   7  -4    0.32    0.18
   0   7   4    0.00    0.24
   0   7   4    0.38    0.20
   1  -7   4    1.84    0.29
  -1   7  -4    1.74    0.27
   1   7   4    1.69    0.36
  -1   7  -4    1.66    0.24
   1   7   4    1.13    0.26
   2   7   4   16.92    0.95
   2   7   4   17.07    1.10
   2   8  -4    0.47    0.29
  -2   8   4    0.33    0.24
  -1   8   4   15.15    0.80
  -1   8   4   13.49    0.91
  -1   8   4   14.71    0.91
   1   8  -4   16.33    0.98
   0   8   4    9.57    0.62
   0   8   4    9.88    0.42
   0   8  -4   10.21    0.67
   0   8   4    9.44    0.72
  -1   8  -4    0.29    0.22
   1   8   4   -0.01    0.32
   1   8   4    0.42    0.29
   2   8   4    1.67    0.43
   2   8   4    1.64    0.32
  -1   9   4    3.65    0.44
   1   9  -4    4.57    0.49
  -1   9   4    3.39    0.37
   0   9   4    0.29    0.32
   0   9  -4    0.35    0.25
   0   9   4    0.05    0.23
   1   9   4    7.41    0.59
   1   9   4    6.79    0.71
   4   0  -5   -0.14    0.28
   3   0  -5    0.06    0.12
   2   0  -5   11.19    0.63
  -2   0   5   11.63    0.63
   1   0  -5   18.21    0.96
  -1   0   5   18.84    0.97
   0   0  -5   14.63    0.73
   0   0   5   11.87    0.71
   1   0   5    2.74    0.27
  -1   0  -5    2.89    0.27
  -1   0  -5    2.89    0.19
  -1   0  -5    3.02    0.24
   2   0   5    6.19    0.45
   2   0   5    5.37    0.39
  -2   0  -5    6.19    0.43
  -2   0  -5    6.54    0.43
   3   0   5    6.49    0.51
  -3   0  -5    6.46    0.49
   3   0   5    7.23    0.52
   4  -1  -5    1.13    0.35
   4   1  -5    1.18    0.35
   3  -1  -5    9.66    0.52
   3   1  -5    9.07    0.57
  -2  -1   5    0.05    0.13
   2  -1  -5    0.13    0.11
   2   1  -5    0.25    0.13
  -2   1   5    0.05    0.13
   1  -1  -5   50.46    2.63
  -1  -1   5   56.02    2.65
  -1   1   5   52.98    2.64
   1   1  -5   55.87    2.65
   0  -1   5    8.19    0.53
   0  -1  -5    9.18    0.53
   0  -1  -5    8.63    0.41
   0  -1  -5    8.58    0.43
   0   1  -5    9.13    0.53
   0   1   5    8.78    0.53
   1  -1   5   59.06    2.85
  -1  -1  -5   61.93    2.85
   1   1   5   58.30    2.36
  -1   1  -5   55.57    2.42
  -1   1  -5   59.54    2.37
  -1   1  -5   60.87    2.85
   1   1   5   49.78    2.84
   2  -1   5    0.48    0.20
  -2  -1  -5    0.70    0.18
  -2  -1  -5    0.92    0.19
   2  -1   5    0.48    0.17
  -2   1  -5    0.69    0.16
   2   1   5    1.01    0.21
  -2   1  -5    0.73    0.17
   2   1   5    1.06    0.21
   3  -1   5    0.62    0.18
   3  -1   5    0.71    0.26
  -3  -1  -5    0.27    0.18
   3   1   5    0.66    0.22
   3   1   5    0.38    0.25
  -3   1  -5    0.99    0.20
   4   2  -5    8.48    0.69
   3  -2  -5   26.81    1.31
   3   2  -5   27.48    1.49
   3   2  -5   26.90    1.42
  -2  -2   5    3.34    0.33
   2  -2  -5    3.45    0.27
   2   2  -5    3.52    0.32
  -2   2   5    3.54    0.28
  -1  -2   5   17.56    0.95
   1  -2  -5   18.44    0.92
   1   2  -5   17.51    0.94
  -1   2   5   17.34    0.92
   0  -2  -5    7.98    0.37
   0  -2  -5    7.23    0.47
   0  -2   5    8.38    0.51
   0  -2  -5    8.24    0.42
   0   2  -5    8.08    0.50
   0   2   5    7.74    0.49
   1  -2   5   15.97    0.94
  -1  -2  -5   19.46    0.97
  -1   2  -5   17.77    0.79
  -1   2  -5   15.79    0.88
   1   2   5   18.13    0.98
   1   2   5   18.66    0.80
  -1   2  -5   19.05    0.95
   1   2   5   17.92    0.82
  -2  -2  -5    8.22    0.58
   2  -2   5    8.60    0.55
  -2  -2  -5    8.96    0.58
  -2   2  -5    9.17    0.56
   2   2   5    9.04    0.61
   2   2   5    8.61    0.47
   2   2   5    8.94    0.52
   3  -2   5    1.03    0.22
  -3  -2  -5    0.90    0.22
   3  -2   5    1.11    0.24
   3   2   5    1.33    0.27
   3   2   5    1.13    0.18
  -3   2  -5    1.14    0.19
   3   2   5    0.89    0.27
   4   3  -5    5.93    0.61
   3   3  -5    3.95    0.44
   2  -3  -5    5.35    0.34
  -2  -3   5    5.09    0.43
   2  -3  -5    5.20    0.36
   2   3  -5    5.14    0.44
   2   3  -5    5.68    0.41
  -2   3   5    5.54    0.35
   1  -3  -5   25.11    1.23
  -1  -3   5   24.11    1.26
   1  -3  -5   24.56    1.08
   1   3  -5   24.02    1.22
   1   3  -5   21.98    1.24
  -1   3   5   24.37    1.23
   0  -3  -5   26.46    1.34
   0  -3   5   25.89    1.35
   0  -3  -5   26.77    1.17
   0   3  -5   24.64    1.34
   0   3   5   27.45    1.37
   1  -3   5   15.39    0.87
  -1  -3  -5   16.20    0.88
   1   3   5   14.97    0.89
   1   3   5   16.82    0.78
  -1   3  -5   15.68    0.73
  -1   3  -5   15.87    0.87
   1   3   5   16.60    0.73
   2  -3   5   63.17    3.08
  -2  -3  -5   56.79    3.10
   2   3   5   62.30    2.59
   2   3   5   65.88    3.13
  -2   3  -5   61.99    3.08
   2   3   5   64.43    2.68
  -3  -3  -5   11.80    0.83
   3   3   5   14.21    0.78
   3   3   5   14.04    0.71
   3   3   5   14.31    0.89
   4   4  -5    1.04    0.39
   3  -4  -5    0.33    0.16
   3   4  -5    0.08    0.21
   3   4  -5   -0.15    0.21
   2  -4  -5    1.10    0.18
  -2  -4   5    1.05    0.22
   2  -4  -5    1.22    0.15
   2   4  -5    1.28    0.24
  -2   4   5    1.52    0.17
   2   4  -5    1.35    0.25
   1  -4  -5   10.33    0.55
   1  -4  -5   11.92    0.62
  -1  -4   5    9.75    0.65
   1   4  -5   11.04    0.67
   1   4  -5   10.82    0.61
  -1   4   5   11.21    0.64
   0  -4  -5    3.74    0.31
   0  -4   5    3.35    0.32
   0   4   5    4.40    0.38
   0   4   5    3.67    0.33
   0   4  -5    3.42    0.31
   1  -4   5   18.70    1.01
  -1  -4  -5   17.52    1.00
   1   4   5   18.71    1.05
  -1   4  -5   18.61    1.00
  -1   4  -5   18.02    0.85
   1   4   5   18.69    0.82
   1   4   5   18.37    0.90
  -2  -4  -5   17.02    0.99
   2  -4   5   16.60    0.94
   2   4   5   16.52    1.00
  -2   4  -5   17.59    0.95
   2   4   5   17.33    0.85
   2   4   5   16.58    0.84
  -3  -4  -5   21.91    1.33
   3   4   5   25.13    1.16
   3   4   5   24.44    1.39
   3   4   5   24.11    1.17
   3   5  -5   15.30    0.96
   2  -5  -5    3.11    0.29
  -2  -5   5    3.93    0.40
   2  -5  -5    3.25    0.28
  -2   5   5    3.44    0.30
  -1  -5   5    2.01    0.27
   1  -5  -5    1.93    0.22
  -1   5   5    1.77    0.25
   1   5  -5    2.34    0.27
   0  -5  -5   13.79    0.74
   0  -5   5   11.37    0.74
   0   5  -5   12.07    0.73
   0   5   5   12.49    0.77
   0   5   5   13.41    0.67
   1  -5   5   48.77    2.56
  -1  -5  -5   52.27    2.58
   1   5   5   51.17    2.25
  -1   5  -5   50.82    2.56
  -1   5  -5   50.38    2.14
   1   5   5   52.56    2.61
   1   5   5   52.00    2.11
   2  -5   5    9.04    0.59
  -2  -5  -5    8.64    0.62
  -2   5  -5    8.79    0.60
   2   5   5    8.43    0.70
   2   5   5    8.88    0.55
   2   5   5   10.86    0.61
   3   5   5    1.05    0.30
   3   5   5    1.26    0.27
   3   5   5    0.22    0.34
   3   6  -5    6.67    0.62
  -2   6   5   66.70    3.27
  -1  -6   5    2.02    0.29
   1  -6  -5    1.89    0.23
  -1   6   5    1.93    0.31
   1   6  -5    2.68    0.33
   0  -6   5    0.48    0.23
   0   6   5    0.12    0.18
   0   6  -5    0.23    0.20
   0   6   5    0.40    0.24
   1  -6   5    1.45    0.26
   1   6   5    1.32    0.20
   1   6   5    0.88    0.28
  -1   6  -5    1.44    0.25
   1   6   5    0.94    0.24
  -1   6  -5    1.21    0.23
   2  -6   5    0.94    0.21
   2   6   5    1.13    0.30
   2   6   5    1.16    0.25
   3   6   5    1.74    0.41
   3   6   5    1.50    0.28
   3   7  -5    1.02    0.30
  -2   7   5    0.70    0.21
  -1  -7   5    6.52    0.61
  -1   7   5    7.11    0.55
   0  -7   5   21.73    1.12
   0   7   5   18.37    0.95
   0   7   5   17.67    1.09
   0   7  -5   17.45    1.06
   1  -7   5   11.40    0.74
   1   7   5   11.73    0.69
  -1   7  -5   12.05    0.73
   1   7   5   10.41    0.81
   1   7   5   11.27    0.57
   2   7   5    3.67    0.48
   2   7   5    2.88    0.36
  -2   8   5    1.24    0.25
   2   8  -5    1.40    0.34
  -1   8   5    2.32    0.35
   0  -8   5    3.71    0.43
   0   8   5    3.44    0.36
   0   8   5    2.60    0.42
   1  -8   5    4.19    0.42
   1   8   5    2.57    0.42
   1   8   5    2.52    0.35
   1   8   5    3.29    0.30
   2   8   5    1.18    0.35
   2   8   5    0.42    0.32
  -1   9   5    6.28    0.59
   1   9  -5    7.11    0.63
   0   9   5    2.13    0.37
   0   9   5    2.01    0.41
   1   9   5    1.26    0.37
   4   0  -6   -0.11    0.28
   3   0  -6    3.92    0.33
  -3   0   6    4.45    0.36
  -2   0   6    0.23    0.16
   2   0  -6    0.31    0.13
   1   0  -6  123.84    5.96
  -1   0   6  122.72    5.96
   0   0   6   21.46    1.18
   0   0  -6   24.01    1.19
   1   0   6    5.12    0.39
  -1   0  -6    4.95    0.31
  -1   0  -6    5.27    0.38
  -1   0  -6    5.27    0.30
   2   0   6    9.57    0.64
  -2   0  -6    9.72    0.61
  -2   0  -6    9.95    0.60
   2   0   6   10.05    0.57
   3   0   6   14.31    0.85
   3   0   6   13.18    0.77
   4   1  -6    0.75    0.33
  -3  -1   6    2.25    0.28
   3  -1  -6    2.53    0.26
   3   1  -6    2.46    0.26
  -3   1   6    2.87    0.28
  -2  -1   6    7.18    0.46
   2  -1  -6    6.42    0.43
  -2   1   6    7.28    0.45
   2   1  -6    6.61    0.45
  -1  -1   6   46.65    2.38
   1  -1  -6   47.71    2.36
   1   1  -6   48.47    2.38
  -1   1   6   48.34    2.37
   0  -1  -6   46.41    2.05
   0  -1  -6   50.02    2.39
   0  -1  -6   46.61    1.95
   0  -1   6   49.88    2.40
   0   1   6   47.05    2.39
   0   1  -6   48.21    2.39
   1  -1   6   52.70    2.60
  -1  -1  -6   53.48    2.22
  -1  -1  -6   55.02    2.60
  -1   1  -6   51.97    2.59
   1   1   6   52.92    2.61
  -1   1  -6   49.91    2.20
  -1   1  -6   49.50    2.15
  -2  -1  -6   11.98    0.70
  -2  -1  -6   11.49    0.70
   2  -1   6   10.87    0.70
  -2   1  -6   11.38    0.66
   2   1   6   11.09    0.71
  -2   1  -6   10.87    0.68
   2   1   6   12.04    0.63
   3  -1   6    1.74    0.30
  -3  -1  -6    0.97    0.23
   3  -1   6    1.16    0.23
   3   1   6    1.33    0.27
   3   1   6    1.43    0.25
   4   2  -6    3.70    0.45
   3  -2  -6    5.10    0.35
  -3  -2   6    5.99    0.46
  -3   2   6    6.23    0.36
   3   2  -6    4.82    0.50
   2  -2  -6   53.21    2.62
  -2  -2   6   51.80    2.65
   2   2  -6   54.66    2.65
  -2   2   6   53.70    2.62
  -1  -2   6   89.25    4.61
   1  -2  -6  101.14    4.60
  -1   2   6   97.39    4.60
   1   2  -6   90.89    4.61
   0  -2  -6  105.97    5.67
   0  -2  -6  121.76    4.90
   0  -2  -6  121.84    4.68
   0  -2   6  129.98    5.70
   0   2   6  104.34    5.67
   0   2  -6  118.84    5.68
  -1  -2  -6    1.98    0.24
   1  -2   6    1.97    0.25
  -1   2  -6    2.10    0.24
  -1   2  -6    1.88    0.19
   1   2   6    1.73    0.27
   1   2   6    1.93    0.21
   2  -2   6    1.10    0.22
  -2  -2  -6    0.84    0.22
   2   2   6    0.76    0.23
   2   2   6    0.60    0.25
   2   2   6    0.83    0.17
  -2   2  -6    0.57    0.18
  -3  -2  -6    0.91    0.24
   3   2   6    0.81    0.28
   3   2   6    0.96    0.29
   4   3  -6   10.68    0.86
  -3  -3   6    1.04    0.25
   3  -3  -6    0.83    0.11
   3   3  -6    0.79    0.29
  -3   3   6    1.09    0.12
  -2  -3   6   14.94    0.86
   2  -3  -6   15.83    0.81
   2  -3  -6   14.03    0.73
   2   3  -6   14.63    0.85
   2   3  -6   14.94    0.86
  -2   3   6   15.12    0.81
  -1  -3   6   13.48    0.77
   1  -3  -6   12.92    0.67
   1  -3  -6   13.66    0.76
   1   3  -6   14.00    0.78
  -1   3   6   13.31    0.76
   0  -3  -6    2.58    0.23
   0  -3   6    2.81    0.30
   0  -3  -6    2.79    0.30
   0   3  -6    2.55    0.28
   0   3   6    2.63    0.28
   1  -3   6    9.06    0.60
  -1  -3  -6   10.20    0.61
  -1   3  -6    8.93    0.48
   1   3   6    9.26    0.51
   1   3   6    7.92    0.60
  -1   3  -6    8.95    0.56
   1   3   6    9.55    0.49
   2  -3   6   50.17    2.44
  -2  -3  -6   47.98    2.46
   2   3   6   49.06    2.11
   2   3   6   48.09    2.47
   2   3   6   45.03    2.03
  -2   3  -6   48.78    2.42
   3   3   6    2.16    0.30
   3   3   6    0.75    0.31
   3   3   6    1.75    0.24
   3   4  -6    2.04    0.35
  -3   4   6    1.76    0.14
   2  -4  -6    1.82    0.23
  -2  -4   6    2.27    0.31
   2  -4  -6    2.22    0.24
   2   4  -6    1.63    0.29
  -2   4   6    2.32    0.23
   1  -4  -6   27.95    1.44
   1  -4  -6   26.94    1.26
  -1  -4   6   28.40    1.48
  -1   4   6   29.14    1.45
   1   4  -6   28.86    1.41
   1   4  -6   26.35    1.46
   0  -4  -6   49.44    2.48
   0  -4   6   49.65    2.49
   0   4   6   44.11    2.47
   0   4  -6   54.95    2.50
  -1  -4  -6   82.42    3.87
   1  -4   6   70.55    3.84
   1   4   6   79.32    3.88
   1   4   6   77.59    3.33
   1   4   6   81.02    3.18
  -1   4  -6   79.09    3.85
  -1   4  -6   76.97    3.20
   2  -4   6   62.04    2.92
  -2  -4  -6   55.68    2.93
   2   4   6   59.17    2.53
   2   4   6   53.01    2.94
  -2   4  -6   58.24    2.90
   2   4   6   60.19    2.44
   3   4   6    3.41    0.37
   3   4   6    4.19    0.49
   3   4   6    4.31    0.37
   2  -5  -6   11.49    0.65
  -2  -5   6   11.37    0.77
  -2   5   6   12.15    0.69
   2   5  -6   11.19    0.74
   1  -5  -6    3.40    0.35
  -1  -5   6    3.47    0.36
   1   5  -6    3.91    0.40
  -1   5   6    3.37    0.37
   0  -5  -6    5.40    0.45
   0  -5   6    5.73    0.47
   0   5  -6    6.16    0.48
   0   5   6    5.83    0.46
   0   5   6    5.81    0.51
   1  -5   6   67.27    3.29
   1   5   6   66.21    3.32
   1   5   6   66.30    2.69
  -1   5  -6   65.09    3.28
   1   5   6   64.45    2.86
   2  -5   6    0.16    0.20
  -2   5  -6    0.09    0.17
   2   5   6    0.30    0.23
   2   5   6    0.33    0.26
   2   5   6    0.05    0.18
   3   5   6    0.18    0.29
   3   5   6    0.91    0.26
   3   5   6    0.61    0.30
   3   6  -6    2.92    0.43
  -2  -6   6    0.08    0.30
  -2   6   6    0.65    0.21
  -1  -6   6    7.17    0.56
  -1   6   6    7.49    0.55
   0  -6   6    7.70    0.61
   0   6   6    7.43    0.57
   0   6  -6    7.31    0.57
   0   6   6    7.93    0.56
   1  -6   6   11.35    0.73
   1   6   6   10.99    0.56
   1   6   6   10.48    0.65
  -1   6  -6   11.30    0.71
   1   6   6   10.30    0.75
   2   6   6    1.28    0.33
   2   6   6    1.33    0.25
   2   6   6    1.15    0.25
  -2   7   6    2.47    0.30
  -1  -7   6    0.37    0.27
  -1   7   6    0.45    0.29
   0  -7   6    0.62    0.26
   0   7  -6    0.32    0.20
   0   7   6    0.26    0.25
   0   7   6    0.56    0.22
   1  -7   6    3.39    0.39
  -1   7  -6    2.96    0.35
   1   7   6    2.89    0.40
   1   7   6    3.61    0.29
   1   7   6    3.40    0.40
   2   7   6    3.54    0.48
   2   7   6    4.42    0.37
   2   7   6    4.72    0.43
  -2   8   6    0.70    0.26
   2   8  -6    0.58    0.35
  -1  -8   6    5.93    0.56
  -1   8   6    4.65    0.51
   0  -8   6    6.69    0.63
   0   8   6    7.69    0.59
   0   8   6    5.99    0.62
   1  -8   6    0.35    0.26
   1   8   6    0.43    0.30
   1   8   6    0.21    0.35
   0  -9   6    0.69    0.33
   0   9   6    0.50    0.34
  -3   0   7    0.14    0.18
  -2   0   7    1.21    0.23
   2   0  -7    1.50    0.20
   1   0  -7    0.23    0.15
  -1   0   7    0.23    0.15
   0   0   7    0.89    0.19
   0   0  -7    1.11    0.20
  -1   0  -7    0.27    0.14
  -1   0  -7    0.20    0.15
  -1   0  -7    0.24    0.10
   1   0   7    0.32    0.20
  -2   0  -7    0.42    0.19
   2   0   7   -0.13    0.21
  -2   0  -7    0.34    0.19
   3   0   7    2.54    0.38
   3   0   7    1.91    0.30
   4   1  -7    0.14    0.32
   3  -1  -7    1.53    0.21
  -3  -1   7    2.02    0.27
  -3   1   7    1.92    0.22
  -2  -1   7    5.83    0.45
   2  -1  -7    6.80    0.45
  -2   1   7    6.14    0.45
   2   1  -7    5.92    0.45
   1  -1  -7    7.60    0.49
  -1  -1   7    7.10    0.51
  -1   1   7    7.75    0.50
   1   1  -7    7.06    0.48
   0  -1  -7    1.47    0.16
   0  -1  -7    1.29    0.16
   0  -1  -7    1.51    0.22
   0  -1   7    1.50    0.24
   0   1   7    1.37    0.24
   0   1  -7    1.43    0.20
   1  -1   7    3.22    0.34
  -1  -1  -7    3.73    0.27
  -1  -1  -7    3.96    0.36
   1   1   7    3.51    0.36
  -1   1  -7    3.33    0.24
  -1   1  -7    3.25    0.27
  -1   1  -7    3.72    0.33
  -2  -1  -7    5.17    0.45
   2  -1   7    4.22    0.45
  -2   1  -7    4.72    0.42
  -2   1  -7    4.59    0.38
   2   1   7    5.31    0.39
   2   1   7    4.76    0.48
   3   1   7    3.24    0.39
   3   1   7    2.85    0.37
   4   2  -7    1.26    0.38
  -3  -2   7    2.80    0.33
   3  -2  -7    1.85    0.20
  -3   2   7    2.56    0.26
   3   2  -7    1.55    0.33
  -2  -2   7    5.76    0.47
   2  -2  -7    5.46    0.42
   2   2  -7    6.14    0.45
  -2   2   7    5.94    0.43
   1  -2  -7    9.10    0.60
  -1  -2   7   10.72    0.65
   1   2  -7   10.38    0.62
  -1   2   7   10.59    0.63
   0  -2   7    6.46    0.51
   0  -2  -7    6.61    0.40
   0  -2  -7    7.12    0.35
   0  -2  -7    7.29    0.48
   0   2   7    6.34    0.50
   0   2  -7    6.54    0.46
  -1  -2  -7   18.97    1.02
   1  -2   7   16.19    1.00
   1   2   7   18.55    1.04
  -1   2  -7   19.02    1.01
  -1   2  -7   17.45    0.83
  -2  -2  -7    5.64    0.47
   2  -2   7    6.19    0.51
  -2   2  -7    5.51    0.39
   2   2   7    5.80    0.47
   2   2   7    6.09    0.54
  -2   2  -7    6.29    0.48
   3   2   7    0.05    0.21
   3   2   7    0.06    0.22
   3  -3  -7    2.56    0.24
  -3  -3   7    2.83    0.34
   3   3  -7    2.00    0.35
  -3   3   7    2.46    0.26
  -2  -3   7    1.80    0.29
   2  -3  -7    1.89    0.23
  -2   3   7    2.10    0.25
   1  -3  -7    1.57    0.14
  -1  -3   7    1.64    0.27
   1  -3  -7    1.40    0.21
   1  -3  -7    1.62    0.19
   1   3  -7    1.97    0.26
  -1   3   7    1.81    0.25
   0  -3  -7    1.16    0.22
   0  -3  -7    1.22    0.17
   0  -3   7    1.18    0.25
   0   3   7    1.04    0.25
   0   3  -7    1.28    0.23
   1  -3   7   52.54    2.57
  -1  -3  -7   50.39    2.57
  -1   3  -7   48.18    2.55
   1   3   7   51.96    2.59
  -2  -3  -7   20.59    1.18
   2  -3   7   21.57    1.17
  -2   3  -7   20.95    1.14
   2   3   7   20.90    1.22
   2   3   7   19.42    1.00
   3   3   7    0.34    0.28
   3   3   7    0.60    0.31
  -3  -4   7    1.49    0.32
   3   4  -7    1.16    0.32
  -3   4   7    1.31    0.18
  -2  -4   7    2.86    0.35
   2  -4  -7    2.19    0.24
   2   4  -7    2.83    0.31
  -2   4   7    2.37    0.28
  -1  -4   7    5.53    0.46
   1  -4  -7    5.51    0.42
   1   4  -7    5.69    0.40
   1   4  -7    5.44    0.47
  -1   4   7    5.66    0.45
   0  -4   7    3.63    0.35
   0  -4  -7    3.08    0.33
   0   4  -7    3.27    0.34
   0   4   7    2.94    0.33
  -1  -4  -7    3.74    0.39
   1  -4   7    3.65    0.40
   1   4   7    3.58    0.41
  -1   4  -7    4.96    0.43
   1   4   7    4.10    0.32
   2  -4   7    7.76    0.58
   2   4   7    7.56    0.50
  -2   4  -7    7.05    0.55
   2   4   7    8.00    0.53
   2   4   7    8.91    0.68
   3   4   7    4.16    0.50
   3   4   7    5.63    0.45
   3   4   7    4.60    0.42
   3   5  -7    3.72    0.47
  -3   5   7    5.23    0.34
  -2  -5   7    0.36    0.28
   2   5  -7    0.55    0.21
  -2   5   7    0.57    0.20
  -1  -5   7    1.62    0.32
  -1   5   7    1.67    0.28
   0  -5   7   23.99    1.27
   0   5   7   23.15    1.27
   0   5  -7   20.27    1.22
   1  -5   7   14.82    0.88
   1   5   7   13.65    0.69
  -1   5  -7   13.93    0.85
   1   5   7   13.32    0.78
   1   5   7   13.92    0.92
   2  -5   7    4.59    0.45
   2   5   7    4.48    0.41
   2   5   7    4.33    0.52
   2   5   7    4.75    0.39
  -2  -6   7   -0.18    0.28
  -2   6   7    0.03    0.20
  -1  -6   7   15.79    1.03
  -1   6   7   17.38    0.99
   0  -6   7   42.09    2.17
   0   6   7   39.18    2.16
   0   6  -7   43.25    2.17
   1  -6   7    1.72    0.32
   1   6   7    1.61    0.34
   1   6   7    1.83    0.32
   1   6   7    1.91    0.21
  -1   6  -7    1.81    0.30
   2   6   7    0.41    0.35
   2   6   7   -0.29    0.21
   2   6   7   -0.20    0.21
  -2  -7   7    0.07    0.26
  -2   7   7    0.11    0.19
  -1  -7   7    0.22    0.24
  -1   7   7    0.13    0.26
   0  -7   7    4.54    0.49
   0   7   7    4.52    0.50
   1  -7   7    0.95    0.29
   1   7   7    0.84    0.32
   1   7   7    0.92    0.27
   1   7   7    1.28    0.19
   2   7   7    2.13    0.47
   2   7   7    1.51    0.35
   2   7   7    0.99    0.25
  -1  -8   7    5.91    0.59
  -1   8   7    4.95    0.51
   0  -8   7    0.53    0.31
   0   8   7    0.99    0.32
   0   8   7    0.73    0.30
   1   8   7    0.98    0.29
  -3   0   8    5.50    0.46
  -2   0   8   15.86    0.90
   1   0  -8    5.32    0.41
  -1   0   8    4.25    0.42
   0   0  -8   17.29    0.76
   0   0   8   14.94    0.92
   0   0  -8   16.81    0.93
  -1   0  -8    3.40    0.30
  -1   0  -8    4.76    0.42
   1   0   8    3.80    0.40
  -1   0  -8    4.19    0.29
   2   0   8   32.59    1.69
  -2   0  -8   30.40    1.66
  -2   0  -8   31.05    1.64
  -3  -1   8    8.35    0.60
  -3   1   8    8.64    0.56
   2  -1  -8    9.23    0.60
  -2  -1   8    9.71    0.63
  -2   1   8    9.04    0.60
  -1  -1   8    5.36    0.46
   1  -1  -8    5.12    0.42
  -1   1   8    5.70    0.45
   1   1  -8    5.13    0.40
   0  -1  -8   20.33    0.86
   0  -1   8   18.07    1.06
   0  -1  -8   20.05    0.91
   0  -1  -8   19.14    1.05
   0   1   8   17.39    1.06
   0   1  -8   20.16    1.07
  -1  -1  -8    6.61    0.51
  -1  -1  -8    6.62    0.38
  -1  -1  -8    6.26    0.40
   1  -1   8    5.87    0.50
  -1   1  -8    6.13    0.36
  -1   1  -8    6.43    0.48
   1   1   8    6.84    0.55
   2  -1   8    3.51    0.39
  -2  -1  -8    3.52    0.38
   2   1   8    3.53    0.42
  -2   1  -8    2.71    0.33
  -2   1  -8    3.75    0.35
   3   1   8    2.25    0.36
  -3  -2   8    7.88    0.60
  -3   2   8    7.39    0.51
  -2  -2   8   14.95    0.87
  -2   2   8   14.07    0.83
  -1  -2   8    5.84    0.47
   1  -2  -8    6.03    0.45
   1  -2  -8    5.48    0.40
   1   2  -8    6.88    0.49
  -1   2   8    6.47    0.49
   0  -2  -8   66.12    2.69
   0  -2  -8   64.92    2.83
   0  -2  -8   67.93    3.29
   0  -2   8   65.82    3.29
   0   2   8   68.36    3.30
   0   2  -8   63.22    3.28
   1  -2   8   47.73    2.38
  -1  -2  -8   45.28    2.35
   1   2   8   43.23    2.36
  -1   2  -8   48.93    2.36
   2  -2   8    2.14    0.32
  -2  -2  -8    1.56    0.29
   2   2   8    1.53    0.28
   2   2   8    2.23    0.35
  -2   2  -8    1.68    0.25
  -2   2  -8    1.60    0.21
   3   2   8    3.26    0.40
   3   2   8    2.81    0.44
  -3  -3   8    1.97    0.35
   3   3  -8    1.17    0.32
  -3   3   8    1.85    0.24
  -2  -3   8   10.95    0.73
  -2   3   8   10.94    0.68
   1  -3  -8   24.22    1.08
  -1  -3   8   26.25    1.40
   1  -3  -8   26.47    1.38
  -1   3   8   26.24    1.37
   0  -3  -8   14.03    0.83
   0  -3   8   13.90    0.83
   0   3   8   13.39    0.82
   0   3  -8   13.56    0.81
   1  -3   8   64.75    3.05
   1   3   8   59.29    3.05
  -1   3  -8   63.87    3.03
  -1   3  -8   54.54    2.90
   2  -3   8    0.97    0.27
  -2   3  -8    0.32    0.20
   2   3   8    0.38    0.20
   2   3   8    0.42    0.25
   3   3   8    1.22    0.33
   3   3   8    1.21    0.37
  -3  -4   8    0.29    0.28
  -3   4   8    0.08    0.16
   3   4  -8   -0.23    0.26
  -2  -4   8    2.78    0.36
  -2   4   8    2.51    0.29
   2   4  -8    2.35    0.32
   1  -4  -8    3.42    0.21
  -1  -4   8    4.11    0.41
  -1   4   8    3.78    0.38
   1   4  -8    3.90    0.33
   0  -4   8    0.71    0.23
   0   4  -8    1.21    0.27
   0   4  -8    0.71    0.09
   0   4   8    0.83    0.29
   1  -4   8    1.22    0.30
  -1   4  -8    1.29    0.27
   1   4   8    1.53    0.35
   2  -4   8    5.18    0.51
   2   4   8    4.87    0.53
   2   4   8    5.83    0.47
   3   5  -8    0.50    0.29
  -3   5   8    0.36    0.16
  -2  -5   8    6.35    0.56
  -2   5   8    7.34    0.51
   2   5  -8    6.54    0.53
  -1  -5   8   27.32    1.47
  -1   5   8   26.91    1.45
   1   5  -8   26.20    1.36
   0  -5   8   72.63    3.66
   0   5   8   73.12    3.66
   1  -5   8    0.38    0.26
   1   5   8    0.77    0.29
  -1   5  -8    0.63    0.24
   2   5   8    0.02    0.24
   2   5   8    0.97    0.26
   2   5   8    0.07    0.28
  -2  -6   8   -0.15    0.29
  -2   6   8    0.13    0.23
  -1  -6   8    9.97    0.73
  -1   6   8    9.79    0.71
   0  -6   8    5.02    0.53
   0   6   8    6.51    0.60
   1  -6   8    0.61    0.28
  -1   6  -8    0.57    0.21
   1   6   8    1.10    0.37
   2   6   8    1.99    0.35
   2   6   8    1.86    0.45
   2   6   8    1.58    0.28
  -2   7   8   -0.12    0.24
  -1  -7   8    1.79    0.39
  -1   7   8    2.32    0.38
   0  -7   8    0.41    0.25
   0   7   8    0.04    0.33
   1  -7   8    2.17    0.37
   1   7   8    2.18    0.45
   1   7   8    1.69    0.36
  -1  -8   8    0.25    0.33
   0  -8   8    0.26    0.25
  -3   0   9    0.75    0.25
  -2   0   9    1.68    0.28
  -1   0   9    5.88    0.51
   0   0  -9    3.93    0.39
   0   0  -9    4.70    0.33
   0   0   9    3.62    0.39
  -1   0  -9    0.04    0.13
  -1   0  -9    0.20    0.18
   1   0   9   -0.30    0.26
  -2   0  -9    2.04    0.29
   2   0   9    1.59    0.34
  -2   0  -9    1.54    0.30
  -3  -1   9    0.51    0.23
  -3   1   9    0.47    0.23
  -2  -1   9    3.58    0.37
  -2   1   9    3.01    0.34
  -1  -1   9    2.72    0.33
  -1   1   9    3.46    0.34
   0  -1  -9   18.17    0.89
   0  -1   9   19.30    1.08
   0  -1  -9   19.04    0.84
   0   1  -9   16.18    1.02
   0   1   9   18.70    1.08
  -1  -1  -9    8.16    0.48
  -1  -1  -9    9.92    0.66
   1  -1   9    7.44    0.62
   1   1   9    8.44    0.64
  -1   1  -9    8.29    0.63
  -1   1  -9    9.71    0.48
   2  -1   9    0.65    0.29
   2   1   9    0.59    0.30
  -2   1  -9    0.45    0.23
  -2   1  -9    0.67    0.19
  -3  -2   9    0.27    0.24
  -3   2   9    0.68    0.21
  -2  -2   9    5.91    0.51
  -2   2   9    5.14    0.48
  -1  -2   9   11.38    0.75
  -1   2   9   10.83    0.73
   0  -2  -9   40.52    1.71
   0  -2   9   41.78    2.13
   0   2   9   41.95    2.12
   0   2  -9   38.94    2.10
   1  -2   9   17.17    1.01
  -1   2  -9   16.96    0.99
   1   2   9   14.98    0.98
   2  -2   9    0.55    0.28
  -2   2  -9   -0.03    0.21
   2   2   9    0.38    0.29
  -3  -3   9    4.77    0.52
  -3   3   9    4.72    0.43
   3   3  -9    5.68    0.55
  -2  -3   9    0.00    0.24
  -2   3   9    0.46    0.24
  -1  -3   9    0.85    0.25
   1  -3  -9    0.86    0.13
  -1   3   9    0.72    0.27
   0  -3   9   11.16    0.74
   0   3   9   11.58    0.78
   1  -3   9    4.01    0.43
  -1   3  -9    3.54    0.39
   1   3   9    3.58    0.44
  -1   3  -9    3.76    0.26
   2  -3   9    1.97    0.35
   2   3   9    1.89    0.34
  -3   4   9    0.26    0.17
   3   4  -9    0.10    0.28
  -2  -4   9    1.15    0.32
   2   4  -9    1.46    0.27
  -2   4   9    1.35    0.29
  -1  -4   9    2.33    0.36
   1  -4  -9    2.17    0.19
   1   4  -9    2.34    0.25
  -1   4   9    2.30    0.34
   0  -4   9   -0.18    0.27
   0   4   9   -0.09    0.28
   1  -4   9    1.59    0.33
  -1   4  -9    1.81    0.30
   1   4   9    1.42    0.31
   2  -4   9    0.90    0.30
   2   4   9    0.95    0.31
  -2  -5   9    5.52    0.59
  -2   5   9    6.50    0.53
   2   5  -9    5.26    0.50
  -1  -5   9    3.06    0.43
  -1   5   9    3.73    0.42
   1   5  -9    3.82    0.31
   0  -5   9    4.32    0.45
   0   5   9    4.20    0.48
   1  -5   9    6.28    0.55
   1   5   9    5.97    0.64
   2   5   9    7.29    0.55
   2   5   9    7.73    0.75
  -2   6   9    5.86    0.54
  -1   6   9   32.14    1.75
   0  -6   9    1.31    0.30
   0   6   9    0.54    0.34
   1  -6   9    2.95    0.41
   1   6   9    3.02    0.44
  -1  -7   9    2.87    0.45
  -1   7   9    2.02    0.38
   0  -7   9    1.01    0.30
  -3   0  10    0.18    0.25
  -2   0  10    1.21    0.29
  -1   0  10    0.10    0.22
   0   0  10    1.73    0.31
   1   0  10    0.42    0.31
  -1   0 -10    0.29    0.16
   2   0  10    1.25    0.30
  -3  -1  10    1.57    0.30
  -3   1  10    1.73    0.29
  -2  -1  10    5.07    0.52
  -2   1  10    5.23    0.50
  -1  -1  10   32.81    1.74
  -1   1  10   31.84    1.72
   0  -1  10   20.34    1.21
   0   1  10   20.77    1.21
   1  -1  10    8.45    0.67
  -1   1 -10    8.88    0.51
   1   1  10   10.24    0.74
   2  -1  10    3.28    0.44
   2   1  10    3.15    0.41
  -3  -2  10    0.06    0.25
  -3   2  10    0.44    0.23
  -2  -2  10    0.73    0.24
  -2   2  10    0.62    0.25
   1  -2 -10   28.90    1.24
  -1  -2  10   30.01    1.59
  -1   2  10   27.83    1.55
   0  -2  10   13.45    0.90
   0  -2 -10   13.22    0.65
   0   2  10   13.14    0.86
   1  -2  10    6.58    0.60
   1   2  10    6.11    0.62
  -1   2 -10    5.68    0.38
   2  -2  10    2.05    0.38
   2   2  10    2.11    0.42
  -2  -3  10   -0.06    0.26
  -2   3  10   -0.12    0.22
   1  -3 -10    1.23    0.16
  -1  -3  10    1.70    0.34
  -1   3  10    1.26    0.31
   0  -3  10    1.78    0.31
   0   3  10    1.77    0.36
   1  -3  10    0.94    0.31
   1   3  10    0.35    0.34
   2  -3  10    5.53    0.57
   2   3  10    4.24    0.50
  -2  -4  10    6.08    0.60
   2   4 -10    6.03    0.50
  -2   4  10    6.10    0.56
  -1  -4  10    1.28    0.33
  -1   4  10    1.41    0.32
   0  -4  10    2.13    0.38
   0   4  10    2.69    0.37
   1  -4  10    0.65    0.30
   1   4  10    0.38    0.34
   2   5 -10    3.00    0.35
  -2   5  10    3.33    0.39
  -1  -5  10    3.68    0.46
  -1   5  10    3.04    0.42
   0  -5  10    1.98    0.38
   0   5  10    1.79    0.33
   1  -5  10    1.59    0.37
   1   5  10    2.02    0.45
  -1  -6  10    8.62    0.74
  -1   6  10    6.67    0.67
   0  -6  10    0.17    0.31
   0   6  10   -0.44    0.33
  -2   0  11    8.43    0.68
  -1   0  11   -0.40    0.28
   0   0  11    0.13    0.24
   1   0  11    1.32    0.32
   2   0  11    3.59    0.49
  -2  -1  11    5.71    0.58
  -2   1  11    6.01    0.57
  -1  -1  11   22.49    1.27
  -1   1  11   19.99    1.21
   0  -1  11    2.29    0.36
   0   1  11    2.67    0.37
   1  -1  11    0.44    0.27
   1   1  11   -0.23    0.25
  -2  -2  11    2.36    0.39
  -2   2  11    2.30    0.35
  -1  -2  11   10.98    0.80
  -1   2  11   10.14    0.78
   0  -2  11   10.34    0.77
   0   2  11   11.25    0.82
   1  -2  11    0.98    0.31
   1   2  11    1.14    0.38
  -2  -3  11    0.55    0.31
  -2   3  11    0.32    0.26
  -1  -3  11    2.25    0.39
  -1   3  11    1.16    0.34
   0  -3  11    5.16    0.54
   0   3  11    5.95    0.56
   1  -3  11    1.14    0.32
   1   3  11    1.77    0.40
  -2   4  11    1.09    0.30
   2   4 -11    1.20    0.28
  -1  -4  11    0.73    0.34
  -1   4  11    1.07    0.33
   0  -4  11    1.69    0.37
   0   4  11    0.73    0.31
   1  -4  11    1.05    0.34
   1   4  11    0.85    0.39
  -1  -5  11    1.21    0.33
   0  -5  11    0.72    0.35
  -1   0  12    0.95    0.35
   0   0  12    2.07    0.36
   1   0  12    2.35    0.39
  -1  -1  12    5.82    0.56
  -1   1  12    4.81    0.54
   0  -1  12    1.42    0.39
   0   1  12    2.14    0.42
   1  -1  12    2.50    0.40
   1   1  12    3.11    0.49
  -1  -2  12    0.74    0.29
  -1   2  12    0.98    0.36
   0  -2  12    7.36    0.71
   0   2  12    6.50    0.63
   1  -2  12    5.11    0.57
   1   2  12    4.02    0.50
  -1  -3  12    1.41    0.41
   0  -3  12   -0.12    0.31
   0   3  12    0.62    0.39
   0   0   0    0.00    0.00
;
_shelx_hkl_checksum              98642
loop_
_space_group_symop_operation_xyz
'x, y, z'
'-x, y+1/2, -z'
loop_
_atom_site_label
_atom_site_type_symbol
_atom_site_fract_x
_atom_site_fract_y
_atom_site_fract_z
_atom_site_U_iso_or_equiv
_atom_site_adp_type
_atom_site_occupancy
_atom_site_site_symmetry_order
_atom_site_calc_flag
_atom_site_refinement_flags_posn
_atom_site_refinement_flags_adp
_atom_site_refinement_flags_occupancy
_atom_site_disorder_assembly
_atom_site_disorder_group
F1 F 0.3925(5) 0.7631(2) 0.08363(17) 0.0417(5) Uani 1 1 d . . . . .
N1 N 0.2035(9) 1.2956(3) 0.1873(3) 0.0415(7) Uani 1 1 d D . . . .
H2 H 0.218(11) 1.367(4) 0.248(3) 0.049(11) Uiso 1 1 d D . . . .
H1 H 0.064(10) 1.309(5) 0.115(3) 0.050(10) Uiso 1 1 d D . . . .
C1 C 0.6246(7) 0.8507(3) 0.2867(3) 0.0270(6) Uani 1 1 d . . . . .
F2 F 0.1187(4) 1.0452(3) 0.02198(14) 0.0412(5) Uani 1 1 d . . . . .
C2 C 0.4398(8) 0.8796(3) 0.1691(3) 0.0281(7) Uani 1 1 d . . . . .
N2 N 0.8991(7) 0.5768(4) 0.3355(2) 0.0430(7) Uani 1 1 d . . . . .
F3 F 0.5587(6) 1.2408(2) 0.42038(18) 0.0460(6) Uani 1 1 d . . . . .
C3 C 0.3018(7) 1.0255(4) 0.1365(2) 0.0283(7) Uani 1 1 d . . . . .
C4 C 0.3348(8) 1.1523(3) 0.2194(3) 0.0292(7) Uani 1 1 d . . . . .
C5 C 0.5219(8) 1.1188(4) 0.3380(3) 0.0309(7) Uani 1 1 d . . . . .
C6 C 0.6632(8) 0.9760(3) 0.3725(3) 0.0293(7) Uani 1 1 d . . . . .
H6 H 0.787206 0.961216 0.454218 0.035 Uiso 1 1 calc R U . . .
C7 C 0.7733(8) 0.6984(4) 0.3150(3) 0.0316(7) Uani 1 1 d . . . . .
loop_
_atom_site_aniso_label
_atom_site_aniso_U_11
_atom_site_aniso_U_22
_atom_site_aniso_U_33
_atom_site_aniso_U_23
_atom_site_aniso_U_13
_atom_site_aniso_U_12
F1 0.0565(12) 0.0277(12) 0.0394(11) -0.0106(8) -0.0014(8) 0.0013(8)
N1 0.0563(17) 0.0262(16) 0.0418(18) 0.0030(13) 0.0036(12) 0.0090(12)
C1 0.0281(13) 0.0230(15) 0.0300(15) 0.0018(13) 0.0044(10) -0.0017(11)
F2 0.0502(11) 0.0397(11) 0.0315(9) 0.0034(8) -0.0060(6) 0.0013(9)
C2 0.0291(14) 0.0258(17) 0.0301(16) -0.0038(12) 0.0055(11) -0.0035(11)
N2 0.0488(15) 0.0294(16) 0.0494(15) 0.0019(12) -0.0018(11) 0.0085(13)
F3 0.0743(14) 0.0266(12) 0.0373(10) -0.0088(8) 0.0062(9) 0.0005(9)
C3 0.0280(14) 0.0287(17) 0.0283(15) 0.0027(12) 0.0031(10) -0.0021(12)
C4 0.0303(15) 0.0230(15) 0.0356(16) 0.0045(12) 0.0101(12) 0.0010(12)
C5 0.0407(17) 0.0252(16) 0.0277(15) -0.0038(12) 0.0078(12) -0.0040(13)
C6 0.0324(14) 0.0260(16) 0.0297(16) 0.0014(13) 0.0044(11) -0.0026(13)
C7 0.0305(14) 0.0278(18) 0.0364(16) -0.0015(13) 0.0032(11) -0.0031(13)
loop_
_atom_type_symbol
_atom_type_description
_atom_type_scat_dispersion_real
_atom_type_scat_dispersion_imag
_atom_type_scat_source
C C 0.0033 0.0016 'International Tables Vol C Tables 4.2.6.8 and 6.1.1.4'
H H 0.0000 0.0000 'International Tables Vol C Tables 4.2.6.8 and 6.1.1.4'
N N 0.0061 0.0033 'International Tables Vol C Tables 4.2.6.8 and 6.1.1.4'
F F 0.0171 0.0103 'International Tables Vol C Tables 4.2.6.8 and 6.1.1.4'
loop_
_geom_angle_atom_site_label_1
_geom_angle_atom_site_label_2
_geom_angle_atom_site_label_3
_geom_angle
_geom_angle_site_symmetry_1
_geom_angle_site_symmetry_3
_geom_angle_publ_flag
C4 N1 H2 116(3) . . ?
C4 N1 H1 120(3) . . ?
H2 N1 H1 122(4) . . ?
C2 C1 C6 117.5(3) . . ?
C2 C1 C7 119.8(3) . . ?
C6 C1 C7 122.7(3) . . ?
F1 C2 C3 118.4(2) . . ?
F1 C2 C1 119.9(3) . . ?
C3 C2 C1 121.7(3) . . ?
F2 C3 C2 118.9(3) . . ?
F2 C3 C4 118.8(3) . . ?
C2 C3 C4 122.2(2) . . ?
N1 C4 C3 122.4(3) . . ?
N1 C4 C5 123.0(3) . . ?
C3 C4 C5 114.6(3) . . ?
F3 C5 C6 119.9(2) . . ?
F3 C5 C4 115.7(3) . . ?
C6 C5 C4 124.4(3) . . ?
C5 C6 C1 119.5(3) . . ?
C5 C6 H6 120.3 . . ?
C1 C6 H6 120.3 . . ?
N2 C7 C1 178.2(4) . . ?
loop_
_geom_bond_atom_site_label_1
_geom_bond_atom_site_label_2
_geom_bond_distance
_geom_bond_site_symmetry_2
_geom_bond_publ_flag
F1 C2 1.344(3) . ?
N1 C4 1.344(4) . ?
N1 H2 0.89(2) . ?
N1 H1 0.89(2) . ?
C1 C2 1.387(4) . ?
C1 C6 1.401(4) . ?
C1 C7 1.429(4) . ?
F2 C3 1.345(3) . ?
C2 C3 1.373(4) . ?
N2 C7 1.147(4) . ?
F3 C5 1.356(4) . ?
C3 C4 1.391(4) . ?
C4 C5 1.407(4) . ?
C5 C6 1.359(4) . ?
C6 H6 0.9500 . ?
loop_
_geom_torsion_atom_site_label_1
_geom_torsion_atom_site_label_2
_geom_torsion_atom_site_label_3
_geom_torsion_atom_site_label_4
_geom_torsion
_geom_torsion_site_symmetry_1
_geom_torsion_site_symmetry_2
_geom_torsion_site_symmetry_3
_geom_torsion_site_symmetry_4
_geom_torsion_publ_flag
C6 C1 C2 F1 -179.4(2) . . . . ?
C7 C1 C2 F1 1.9(4) . . . . ?
C6 C1 C2 C3 0.6(4) . . . . ?
C7 C1 C2 C3 -178.0(3) . . . . ?
F1 C2 C3 F2 1.4(4) . . . . ?
C1 C2 C3 F2 -178.6(2) . . . . ?
F1 C2 C3 C4 179.3(2) . . . . ?
C1 C2 C3 C4 -0.7(4) . . . . ?
F2 C3 C4 N1 -2.9(4) . . . . ?
C2 C3 C4 N1 179.2(3) . . . . ?
F2 C3 C4 C5 178.3(2) . . . . ?
C2 C3 C4 C5 0.4(4) . . . . ?
N1 C4 C5 F3 1.0(4) . . . . ?
C3 C4 C5 F3 179.8(3) . . . . ?
N1 C4 C5 C6 -178.8(3) . . . . ?
C3 C4 C5 C6 0.0(4) . . . . ?
F3 C5 C6 C1 -179.8(2) . . . . ?
C4 C5 C6 C1 -0.1(4) . . . . ?
C2 C1 C6 C5 -0.2(4) . . . . ?
C7 C1 C6 C5 178.4(3) . . . . ?
