#------------------------------------------------------------------------------
#$Date: 2022-01-31 03:51:52 +0200 (Mon, 31 Jan 2022) $
#$Revision: 272351 $
#$URL: file:///home/coder/svn-repositories/cod/cif/7/24/43/7244317.cif $
#------------------------------------------------------------------------------
#
# This file is available in the Crystallography Open Database (COD),
# http://www.crystallography.net/
#
# All data on this site have been placed in the public domain by the
# contributors.
#
data_7244317
loop_
_publ_author_name
'Upadhyay, Aditya'
'Saurav, K. V.'
'Varghese, Evelin Lilly'
'Hodage, Ananda S.'
'Paul, Amit'
'Awasthi, Mahendra Kumar'
'Singh, Sanjay Kumar'
'Kumar, Sangit'
_publ_section_title
;
 Proton reduction by a bimetallic zinc selenolate electrocatalyst
;
_journal_issue                   7
_journal_name_full               'RSC Advances'
_journal_page_first              3801
_journal_page_last               3808
_journal_paper_doi               10.1039/D1RA08614F
_journal_volume                  12
_journal_year                    2022
_chemical_formula_sum            'C15 H18 N O2 S Se Zn'
_chemical_formula_weight         420.69
_space_group_crystal_system      triclinic
_space_group_IT_number           2
_space_group_name_Hall           '-P 1'
_space_group_name_H-M_alt        'P -1'
_atom_sites_solution_hydrogens   mixed
_audit_creation_method           SHELXL-2018/3
_audit_update_record
;
2019-08-27 deposited with the CCDC.	2022-01-18 downloaded from the CCDC.
;
_cell_angle_alpha                76.941(6)
_cell_angle_beta                 88.026(5)
_cell_angle_gamma                75.718(6)
_cell_formula_units_Z            2
_cell_length_a                   8.4306(14)
_cell_length_b                   9.2108(16)
_cell_length_c                   10.5745(18)
_cell_measurement_reflns_used    4284
_cell_measurement_temperature    164(2)
_cell_measurement_theta_max      30.033
_cell_measurement_theta_min      2.494
_cell_volume                     775.0(2)
_computing_cell_refinement       'Bruker SAINT'
_computing_data_collection       'Bruker APEX2'
_computing_data_reduction        'Bruker SAINT'
_computing_molecular_graphics    'Bruker SHELXTL'
_computing_publication_material  'Bruker SHELXTL'
_computing_structure_refinement  'SHELXL-2014 (Sheldrick 2014)'
_computing_structure_solution    'SHELXS-97 (Sheldrick 2008)'
_diffrn_ambient_temperature      164(2)
_diffrn_measured_fraction_theta_full 0.999
_diffrn_measured_fraction_theta_max 0.943
_diffrn_measurement_device_type  'Bruker APEX-II CCD'
_diffrn_measurement_method       '\f and \w scans'
_diffrn_radiation_type           MoK\a
_diffrn_radiation_wavelength     0.71073
_diffrn_reflns_av_R_equivalents  0.05
_diffrn_reflns_av_unetI/netI     0.0858
_diffrn_reflns_Laue_measured_fraction_full 0.999
_diffrn_reflns_Laue_measured_fraction_max 0.943
_diffrn_reflns_limit_h_max       11
_diffrn_reflns_limit_h_min       -11
_diffrn_reflns_limit_k_max       12
_diffrn_reflns_limit_k_min       -12
_diffrn_reflns_limit_l_max       14
_diffrn_reflns_limit_l_min       0
_diffrn_reflns_number            4284
_diffrn_reflns_point_group_measured_fraction_full 0.999
_diffrn_reflns_point_group_measured_fraction_max 0.943
_diffrn_reflns_theta_full        25.242
_diffrn_reflns_theta_max         30.033
_diffrn_reflns_theta_min         2.494
_exptl_absorpt_coefficient_mu    4.070
_exptl_absorpt_correction_type   none
_exptl_crystal_colour            red
_exptl_crystal_density_diffrn    1.803
_exptl_crystal_density_method    '\f and \w scans'
_exptl_crystal_description       rectangle
_exptl_crystal_F_000             422
_refine_diff_density_max         0.818
_refine_diff_density_min         -0.665
_refine_diff_density_rms         0.158
_refine_ls_extinction_method     none
_refine_ls_goodness_of_fit_ref   0.882
_refine_ls_hydrogen_treatment    mixed
_refine_ls_matrix_type           full
_refine_ls_number_parameters     196
_refine_ls_number_reflns         4284
_refine_ls_number_restraints     0
_refine_ls_restrained_S_all      0.882
_refine_ls_R_factor_all          0.1034
_refine_ls_R_factor_gt           0.0477
_refine_ls_shift/su_max          0.001
_refine_ls_shift/su_mean         0.000
_refine_ls_structure_factor_coef Fsqd
_refine_ls_weighting_details
'w=1/[\s^2^(Fo^2^)+(0.1000P)^2^] where P=(Fo^2^+2Fc^2^)/3'
_refine_ls_weighting_scheme      calc
_refine_ls_wR_factor_gt          0.1104
_refine_ls_wR_factor_ref         0.1405
_reflns_Friedel_coverage         0.000
_reflns_number_gt                2825
_reflns_number_total             4284
_reflns_threshold_expression     'I > 2\s(I)'
_cod_data_source_file            d1ra08614f4.cif
_cod_data_source_block           shelx
_cod_database_code               7244317
_shelx_shelxl_version_number     2018/3
_shelx_space_group_comment
;
The symmetry employed for this shelxl refinement is uniquely defined
by the following loop, which should always be used as a source of
symmetry information in preference to the above space-group names.
They are only intended as comments.
;
_shelx_res_file
;
TITL TRY1 in P-1
    shelx.res
    created by SHELXL-2018/3 at 15:55:01 on 19-Apr-2019
CELL 0.71073 8.4306 9.2108 10.5745 76.941 88.026 75.718
ZERR 2.00 0.0014 0.0016 0.0018 0.006 0.005 0.006
LATT 1
SFAC C  H  N  O  S  Zn Se
UNIT 30  36  2  4  2  2  2
L.S. 10
ACTA
conf
BOND $H
HTAB
CONF
TEMP -108.950
WGHT    0.100000
FVAR       0.22569
SE1   7    0.790331   -0.130289    0.762877    11.00000    0.01734    0.02612 =
         0.02232   -0.00542    0.00084    0.00115
ZN1   6    0.537870   -0.087420    0.885008    11.00000    0.01710    0.01600 =
         0.01400   -0.00462   -0.00040   -0.00129
S1    5    0.304163   -0.324217    1.010163    11.00000    0.02438    0.01925 =
         0.02695   -0.00508    0.00048   -0.00815
O1    4    0.385569    0.101905    0.928898    11.00000    0.01857    0.01785 =
         0.01462   -0.00585   -0.00343    0.00158
O2    4    0.426245   -0.265388    0.915079    11.00000    0.02613    0.01898 =
         0.02314   -0.00631    0.00300   -0.00668
N1    3    0.427419    0.002988    0.688814    11.00000    0.01842    0.01491 =
         0.01691   -0.00434    0.00093   -0.00079
C1    1    0.694958    0.047731    0.632143    11.00000    0.02548    0.02107 =
         0.01687   -0.01195   -0.00287   -0.00439
C2    1    0.793927    0.134222    0.557051    11.00000    0.02918    0.03401 =
         0.02573   -0.01042    0.00464   -0.01498
AFIX  43
H10   2    0.909568    0.100670    0.568094    11.00000   -1.20000
AFIX   0
C3    1    0.724997    0.269213    0.466081    11.00000    0.04660    0.02992 =
         0.03243   -0.00508    0.01073   -0.02248
AFIX  43
H1    2    0.792941    0.326870    0.414830    11.00000   -1.20000
AFIX   0
C4    1    0.556906    0.317668    0.451676    11.00000    0.04419    0.02584 =
         0.02170    0.00114    0.00162   -0.00755
AFIX  43
H2    2    0.509393    0.411086    0.391845    11.00000   -1.20000
AFIX   0
C5    1    0.456742    0.233285    0.522306    11.00000    0.02852    0.02461 =
         0.01732   -0.00188   -0.00040    0.00034
AFIX  43
H3    2    0.341288    0.267670    0.510074    11.00000   -1.20000
AFIX   0
C6    1    0.525083    0.097025    0.611992    11.00000    0.02228    0.02147 =
         0.01313   -0.00745    0.00022   -0.00429
C7    1    0.265596    0.215185    0.861272    11.00000    0.01310    0.01398 =
         0.01566   -0.00014    0.00135   -0.00138
C8    1    0.205065    0.350691    0.905738    11.00000    0.01977    0.01933 =
         0.01899   -0.00695    0.00137   -0.00219
AFIX  43
H9    2    0.250162    0.360307    0.983658    11.00000   -1.20000
AFIX   0
C9    1    0.083034    0.469764    0.840604    11.00000    0.01992    0.01928 =
         0.02479   -0.00592    0.00188   -0.00247
AFIX  43
H8    2    0.044520    0.559321    0.874029    11.00000   -1.20000
AFIX   0
C10   1    0.015543    0.459160    0.725177    11.00000    0.01499    0.01660 =
         0.02740    0.00205   -0.00312    0.00226
AFIX  43
H4    2   -0.069458    0.540434    0.679568    11.00000   -1.20000
AFIX   0
C11   1    0.075438    0.327459    0.678840    11.00000    0.01735    0.02561 =
         0.01956   -0.00619   -0.00360   -0.00655
AFIX  43
H7    2    0.031362    0.320446    0.599579    11.00000   -1.20000
AFIX   0
C12   1    0.197723    0.205046    0.744006    11.00000    0.01663    0.01534 =
         0.01880   -0.00634    0.00235   -0.00449
C13   1    0.248608    0.065124    0.687672    11.00000    0.01654    0.02258 =
         0.02067   -0.00761   -0.00226   -0.00338
AFIX  23
H6    2    0.197834   -0.015685    0.737611    11.00000   -1.20000
H5    2    0.206376    0.091691    0.597019    11.00000   -1.20000
AFIX   0
C14   1    0.141393   -0.163360    1.020298    11.00000    0.02202    0.02297 =
         0.03824   -0.00096    0.00110   -0.00294
AFIX 137
H13   2    0.186045   -0.081606    1.039033    11.00000   -1.50000
H15   2    0.068382   -0.193893    1.089906    11.00000   -1.50000
H14   2    0.079851   -0.125734    0.937555    11.00000   -1.50000
AFIX   0
C15   1    0.390282   -0.358991    1.168659    11.00000    0.02232    0.04808 =
         0.02373    0.00733   -0.00055   -0.00156
AFIX 137
H17   2    0.489258   -0.443391    1.178980    11.00000   -1.50000
H18   2    0.310573   -0.386809    1.233438    11.00000   -1.50000
H16   2    0.418454   -0.265927    1.180863    11.00000   -1.50000
AFIX   0
H30   2    0.438351   -0.077916    0.666115    11.00000    0.01879
HKLF 4 1 1 0 0 0 1 0 0 0 1




REM  TRY1 in P-1
REM wR2 = 0.1405, GooF = S = 0.882, Restrained GooF = 0.882 for all data
REM R1 = 0.0477 for 2825 Fo > 4sig(Fo) and 0.1034 for all 4284 data
REM 196 parameters refined using 0 restraints

END

WGHT      0.0415      0.6565

REM Instructions for potential hydrogen bonds
EQIV $1 -x+1, -y, -z+2
HTAB C8 Se1_$1
EQIV $2 x-1, y, z
HTAB C14 Se1_$2
HTAB C15 O1_$1

REM Highest difference peak  0.818,  deepest hole -0.665,  1-sigma level  0.158
Q1    1   0.7101 -0.1602  0.7251  11.00000  0.05    0.82
Q2    1   0.5822 -0.1708  0.9863  11.00000  0.05    0.77
Q3    1   0.7617 -0.0570  0.6659  11.00000  0.05    0.77
Q4    1   0.2193  0.2363  0.8062  11.00000  0.05    0.75
Q5    1   0.5124 -0.0191  0.7806  11.00000  0.05    0.73
Q6    1   0.4213  0.0226  0.8887  11.00000  0.05    0.69
Q7    1   0.3052  0.2422  1.0069  11.00000  0.05    0.67
Q8    1   0.8136 -0.1951  0.8640  11.00000  0.05    0.66
Q9    1   0.1902 -0.2253  1.0084  11.00000  0.05    0.66
Q10   1   0.8553 -0.1644  0.7160  11.00000  0.05    0.61
Q11   1   0.7089 -0.2253  0.8380  11.00000  0.05    0.60
Q12   1   0.3706  0.1946  0.9357  11.00000  0.05    0.59
Q13   1   0.2333  0.3246  0.9630  11.00000  0.05    0.58
Q14   1   0.2403  0.2835  0.8815  11.00000  0.05    0.57
Q15   1   0.2155  0.0564  0.6536  11.00000  0.05    0.57
Q16   1   0.0740 -0.1394  0.7967  11.00000  0.05    0.57
Q17   1  -0.0252  0.5403  0.6815  11.00000  0.05    0.56
Q18   1   0.6743 -0.0157  0.7463  11.00000  0.05    0.56
Q19   1   0.5469  0.0381  0.8690  11.00000  0.05    0.55
Q20   1   0.6495  0.5203  0.3366  11.00000  0.05    0.55
;
_shelx_res_checksum              39041
_publcif_funding_html
;
;
loop_
_space_group_symop_operation_xyz
'x, y, z'
'-x, -y, -z'
loop_
_atom_site_label
_atom_site_type_symbol
_atom_site_fract_x
_atom_site_fract_y
_atom_site_fract_z
_atom_site_U_iso_or_equiv
_atom_site_adp_type
_atom_site_occupancy
_atom_site_site_symmetry_order
_atom_site_calc_flag
_atom_site_refinement_flags_posn
_atom_site_refinement_flags_adp
_atom_site_refinement_flags_occupancy
_atom_site_disorder_assembly
_atom_site_disorder_group
Se1 Se 0.79033(5) -0.13029(5) 0.76288(4) 0.02310(15) Uani 1 1 d . . . . .
Zn1 Zn 0.53787(6) -0.08742(5) 0.88501(4) 0.01598(15) Uani 1 1 d . . . . .
S1 S 0.30416(14) -0.32422(13) 1.01016(11) 0.0230(3) Uani 1 1 d . . . . .
O1 O 0.3856(3) 0.1019(3) 0.9289(2) 0.0176(6) Uani 1 1 d . . . . .
O2 O 0.4262(4) -0.2654(3) 0.9151(3) 0.0223(7) Uani 1 1 d . . . . .
N1 N 0.4274(4) 0.0030(4) 0.6888(3) 0.0172(7) Uani 1 1 d . . . . .
C1 C 0.6950(5) 0.0477(5) 0.6321(4) 0.0200(9) Uani 1 1 d . . . . .
C2 C 0.7939(6) 0.1342(6) 0.5571(4) 0.0278(11) Uani 1 1 d . . . . .
H10 H 0.909568 0.100670 0.568094 0.033 Uiso 1 1 calc R U . . .
C3 C 0.7250(7) 0.2692(6) 0.4661(5) 0.0345(12) Uani 1 1 d . . . . .
H1 H 0.792941 0.326870 0.414830 0.041 Uiso 1 1 calc R U . . .
C4 C 0.5569(6) 0.3177(6) 0.4517(4) 0.0318(11) Uani 1 1 d . . . . .
H2 H 0.509393 0.411086 0.391845 0.038 Uiso 1 1 calc R U . . .
C5 C 0.4567(6) 0.2333(5) 0.5223(4) 0.0252(10) Uani 1 1 d . . . . .
H3 H 0.341288 0.267670 0.510074 0.030 Uiso 1 1 calc R U . . .
C6 C 0.5251(5) 0.0970(5) 0.6120(4) 0.0186(9) Uani 1 1 d . . . . .
C7 C 0.2656(5) 0.2152(5) 0.8613(4) 0.0151(8) Uani 1 1 d . . . . .
C8 C 0.2051(5) 0.3507(5) 0.9057(4) 0.0194(9) Uani 1 1 d . . . . .
H9 H 0.250162 0.360307 0.983658 0.023 Uiso 1 1 calc R U . . .
C9 C 0.0830(5) 0.4698(5) 0.8406(4) 0.0216(9) Uani 1 1 d . . . . .
H8 H 0.044520 0.559321 0.874029 0.026 Uiso 1 1 calc R U . . .
C10 C 0.0155(5) 0.4592(5) 0.7252(4) 0.0218(9) Uani 1 1 d . . . . .
H4 H -0.069458 0.540434 0.679568 0.026 Uiso 1 1 calc R U . . .
C11 C 0.0754(5) 0.3275(5) 0.6788(4) 0.0203(9) Uani 1 1 d . . . . .
H7 H 0.031362 0.320446 0.599579 0.024 Uiso 1 1 calc R U . . .
C12 C 0.1977(5) 0.2050(5) 0.7440(4) 0.0165(8) Uani 1 1 d . . . . .
C13 C 0.2486(5) 0.0651(5) 0.6877(4) 0.0197(9) Uani 1 1 d . . . . .
H6 H 0.197834 -0.015685 0.737611 0.024 Uiso 1 1 calc R U . . .
H5 H 0.206376 0.091691 0.597019 0.024 Uiso 1 1 calc R U . . .
C14 C 0.1414(5) -0.1634(5) 1.0203(5) 0.0292(11) Uani 1 1 d . . . . .
H13 H 0.186045 -0.081606 1.039033 0.044 Uiso 1 1 calc R U . . .
H15 H 0.068382 -0.193893 1.089906 0.044 Uiso 1 1 calc R U . . .
H14 H 0.079851 -0.125734 0.937555 0.044 Uiso 1 1 calc R U . . .
C15 C 0.3903(6) -0.3590(6) 1.1687(4) 0.0351(12) Uani 1 1 d . . . . .
H17 H 0.489258 -0.443391 1.178980 0.053 Uiso 1 1 calc R U . . .
H18 H 0.310573 -0.386809 1.233438 0.053 Uiso 1 1 calc R U . . .
H16 H 0.418454 -0.265927 1.180863 0.053 Uiso 1 1 calc R U . . .
H30 H 0.438(5) -0.078(5) 0.666(4) 0.019(13) Uiso 1 1 d . . . . .
loop_
_atom_site_aniso_label
_atom_site_aniso_U_11
_atom_site_aniso_U_22
_atom_site_aniso_U_33
_atom_site_aniso_U_23
_atom_site_aniso_U_13
_atom_site_aniso_U_12
Se1 0.0173(2) 0.0261(3) 0.0223(2) -0.00542(19) 0.00084(17) 0.00115(18)
Zn1 0.0171(3) 0.0160(3) 0.0140(2) -0.00462(19) -0.00040(17) -0.00129(19)
S1 0.0244(6) 0.0192(6) 0.0270(6) -0.0051(5) 0.0005(4) -0.0082(5)
O1 0.0186(15) 0.0178(16) 0.0146(14) -0.0059(12) -0.0034(11) 0.0016(12)
O2 0.0261(16) 0.0190(17) 0.0231(16) -0.0063(13) 0.0030(12) -0.0067(13)
N1 0.0184(18) 0.015(2) 0.0169(18) -0.0043(15) 0.0009(13) -0.0008(15)
C1 0.025(2) 0.021(2) 0.017(2) -0.0119(17) -0.0029(17) -0.0044(18)
C2 0.029(2) 0.034(3) 0.026(2) -0.010(2) 0.0046(19) -0.015(2)
C3 0.047(3) 0.030(3) 0.032(3) -0.005(2) 0.011(2) -0.022(2)
C4 0.044(3) 0.026(3) 0.022(2) 0.001(2) 0.002(2) -0.008(2)
C5 0.029(2) 0.025(3) 0.017(2) -0.0019(19) -0.0004(18) 0.000(2)
C6 0.022(2) 0.021(2) 0.0131(19) -0.0074(17) 0.0002(16) -0.0043(18)
C7 0.0131(19) 0.014(2) 0.0157(19) -0.0001(16) 0.0014(15) -0.0014(16)
C8 0.020(2) 0.019(2) 0.019(2) -0.0069(18) 0.0014(16) -0.0022(18)
C9 0.020(2) 0.019(2) 0.025(2) -0.0059(19) 0.0019(17) -0.0025(18)
C10 0.015(2) 0.017(2) 0.027(2) 0.0020(18) -0.0031(17) 0.0023(17)
C11 0.017(2) 0.026(2) 0.020(2) -0.0062(18) -0.0036(16) -0.0066(18)
C12 0.017(2) 0.015(2) 0.019(2) -0.0063(17) 0.0023(16) -0.0045(17)
C13 0.017(2) 0.023(2) 0.021(2) -0.0076(18) -0.0023(16) -0.0034(17)
C14 0.022(2) 0.023(3) 0.038(3) -0.001(2) 0.001(2) -0.0029(19)
C15 0.022(2) 0.048(3) 0.024(2) 0.007(2) -0.0005(18) -0.002(2)
loop_
_atom_type_symbol
_atom_type_description
_atom_type_scat_dispersion_real
_atom_type_scat_dispersion_imag
_atom_type_scat_source
C C 0.0033 0.0016 'International Tables Vol C Tables 4.2.6.8 and 6.1.1.4'
H H 0.0000 0.0000 'International Tables Vol C Tables 4.2.6.8 and 6.1.1.4'
N N 0.0061 0.0033 'International Tables Vol C Tables 4.2.6.8 and 6.1.1.4'
O O 0.0106 0.0060 'International Tables Vol C Tables 4.2.6.8 and 6.1.1.4'
S S 0.1246 0.1234 'International Tables Vol C Tables 4.2.6.8 and 6.1.1.4'
Zn Zn 0.2839 1.4301 'International Tables Vol C Tables 4.2.6.8 and 6.1.1.4'
Se Se -0.0929 2.2259 'International Tables Vol C Tables 4.2.6.8 and 6.1.1.4'
loop_
_geom_angle_atom_site_label_1
_geom_angle_atom_site_label_2
_geom_angle_atom_site_label_3
_geom_angle
_geom_angle_site_symmetry_1
_geom_angle_site_symmetry_3
_geom_angle_publ_flag
C1 Se1 Zn1 89.33(13) . . ?
O1 Zn1 O2 110.65(12) . . ?
O1 Zn1 O1 78.17(11) . 2_657 ?
O2 Zn1 O1 100.80(11) . 2_657 ?
O1 Zn1 N1 85.28(12) . . ?
O2 Zn1 N1 91.02(13) . . ?
O1 Zn1 N1 162.23(13) 2_657 . ?
O1 Zn1 Se1 133.82(8) . . ?
O2 Zn1 Se1 113.84(8) . . ?
O1 Zn1 Se1 104.61(8) 2_657 . ?
N1 Zn1 Se1 82.22(9) . . ?
O2 S1 C14 107.1(2) . . ?
O2 S1 C15 106.8(2) . . ?
C14 S1 C15 98.0(2) . . ?
C7 O1 Zn1 132.9(2) . . ?
C7 O1 Zn1 125.2(2) . 2_657 ?
Zn1 O1 Zn1 101.83(11) . 2_657 ?
S1 O2 Zn1 136.61(18) . . ?
C6 N1 C13 118.3(3) . . ?
C6 N1 Zn1 108.8(2) . . ?
C13 N1 Zn1 113.7(3) . . ?
C6 N1 H30 111(3) . . ?
C13 N1 H30 104(3) . . ?
Zn1 N1 H30 99(3) . . ?
C2 C1 C6 118.6(4) . . ?
C2 C1 Se1 120.4(3) . . ?
C6 C1 Se1 120.9(3) . . ?
C3 C2 C1 120.9(4) . . ?
C3 C2 H10 119.6 . . ?
C1 C2 H10 119.6 . . ?
C4 C3 C2 119.1(4) . . ?
C4 C3 H1 120.5 . . ?
C2 C3 H1 120.5 . . ?
C5 C4 C3 121.3(5) . . ?
C5 C4 H2 119.4 . . ?
C3 C4 H2 119.4 . . ?
C4 C5 C6 119.9(4) . . ?
C4 C5 H3 120.1 . . ?
C6 C5 H3 120.1 . . ?
C5 C6 C1 120.2(4) . . ?
C5 C6 N1 122.7(4) . . ?
C1 C6 N1 117.1(4) . . ?
O1 C7 C8 119.9(4) . . ?
O1 C7 C12 122.5(4) . . ?
C8 C7 C12 117.5(4) . . ?
C9 C8 C7 122.4(4) . . ?
C9 C8 H9 118.8 . . ?
C7 C8 H9 118.8 . . ?
C8 C9 C10 120.0(4) . . ?
C8 C9 H8 120.0 . . ?
C10 C9 H8 120.0 . . ?
C11 C10 C9 118.4(4) . . ?
C11 C10 H4 120.8 . . ?
C9 C10 H4 120.8 . . ?
C10 C11 C12 122.4(4) . . ?
C10 C11 H7 118.8 . . ?
C12 C11 H7 118.8 . . ?
C11 C12 C7 119.2(4) . . ?
C11 C12 C13 117.9(4) . . ?
C7 C12 C13 122.8(4) . . ?
N1 C13 C12 113.4(3) . . ?
N1 C13 H6 108.9 . . ?
C12 C13 H6 108.9 . . ?
N1 C13 H5 108.9 . . ?
C12 C13 H5 108.9 . . ?
H6 C13 H5 107.7 . . ?
S1 C14 H13 109.5 . . ?
S1 C14 H15 109.5 . . ?
H13 C14 H15 109.5 . . ?
S1 C14 H14 109.5 . . ?
H13 C14 H14 109.5 . . ?
H15 C14 H14 109.5 . . ?
S1 C15 H17 109.5 . . ?
S1 C15 H18 109.5 . . ?
H17 C15 H18 109.5 . . ?
S1 C15 H16 109.5 . . ?
H17 C15 H16 109.5 . . ?
H18 C15 H16 109.5 . . ?
loop_
_geom_bond_atom_site_label_1
_geom_bond_atom_site_label_2
_geom_bond_distance
_geom_bond_site_symmetry_2
_geom_bond_publ_flag
Se1 C1 1.910(4) . ?
Se1 Zn1 2.4455(7) . ?
Zn1 O1 2.031(3) . ?
Zn1 O2 2.044(3) . ?
Zn1 O1 2.058(3) 2_657 ?
Zn1 N1 2.199(3) . ?
S1 O2 1.524(3) . ?
S1 C14 1.774(5) . ?
S1 C15 1.779(4) . ?
O1 C7 1.347(4) . ?
N1 C6 1.441(5) . ?
N1 C13 1.474(5) . ?
N1 H30 0.82(5) . ?
C1 C2 1.399(6) . ?
C1 C6 1.400(6) . ?
C2 C3 1.397(7) . ?
C2 H10 0.9500 . ?
C3 C4 1.379(7) . ?
C3 H1 0.9500 . ?
C4 C5 1.376(6) . ?
C4 H2 0.9500 . ?
C5 C6 1.396(6) . ?
C5 H3 0.9500 . ?
C7 C8 1.405(6) . ?
C7 C12 1.415(5) . ?
C8 C9 1.373(6) . ?
C8 H9 0.9500 . ?
C9 C10 1.397(6) . ?
C9 H8 0.9500 . ?
C10 C11 1.384(6) . ?
C10 H4 0.9500 . ?
C11 C12 1.390(6) . ?
C11 H7 0.9500 . ?
C12 C13 1.502(6) . ?
C13 H6 0.9900 . ?
C13 H5 0.9900 . ?
C14 H13 0.9800 . ?
C14 H15 0.9800 . ?
C14 H14 0.9800 . ?
C15 H17 0.9800 . ?
C15 H18 0.9800 . ?
C15 H16 0.9800 . ?
loop_
_geom_torsion_atom_site_label_1
_geom_torsion_atom_site_label_2
_geom_torsion_atom_site_label_3
_geom_torsion_atom_site_label_4
_geom_torsion
_geom_torsion_site_symmetry_1
_geom_torsion_site_symmetry_2
_geom_torsion_site_symmetry_3
_geom_torsion_site_symmetry_4
_geom_torsion_publ_flag
C14 S1 O2 Zn1 47.1(3) . . . . ?
C15 S1 O2 Zn1 -57.1(3) . . . . ?
C6 C1 C2 C3 1.6(6) . . . . ?
Se1 C1 C2 C3 -176.5(3) . . . . ?
C1 C2 C3 C4 0.6(7) . . . . ?
C2 C3 C4 C5 -1.9(7) . . . . ?
C3 C4 C5 C6 1.0(7) . . . . ?
C4 C5 C6 C1 1.3(6) . . . . ?
C4 C5 C6 N1 -179.8(4) . . . . ?
C2 C1 C6 C5 -2.6(6) . . . . ?
Se1 C1 C6 C5 175.5(3) . . . . ?
C2 C1 C6 N1 178.5(4) . . . . ?
Se1 C1 C6 N1 -3.4(5) . . . . ?
C13 N1 C6 C5 -9.8(6) . . . . ?
Zn1 N1 C6 C5 -141.5(3) . . . . ?
C13 N1 C6 C1 169.1(4) . . . . ?
Zn1 N1 C6 C1 37.4(4) . . . . ?
Zn1 O1 C7 C8 -165.5(3) . . . . ?
Zn1 O1 C7 C8 13.0(5) 2_657 . . . ?
Zn1 O1 C7 C12 13.6(6) . . . . ?
Zn1 O1 C7 C12 -168.0(3) 2_657 . . . ?
O1 C7 C8 C9 180.0(4) . . . . ?
C12 C7 C8 C9 0.9(6) . . . . ?
C7 C8 C9 C10 -0.5(6) . . . . ?
C8 C9 C10 C11 -0.5(6) . . . . ?
C9 C10 C11 C12 1.1(6) . . . . ?
C10 C11 C12 C7 -0.8(6) . . . . ?
C10 C11 C12 C13 177.5(4) . . . . ?
O1 C7 C12 C11 -179.3(4) . . . . ?
C8 C7 C12 C11 -0.2(6) . . . . ?
O1 C7 C12 C13 2.5(6) . . . . ?
C8 C7 C12 C13 -178.5(4) . . . . ?
C6 N1 C13 C12 -64.0(5) . . . . ?
Zn1 N1 C13 C12 65.4(4) . . . . ?
C11 C12 C13 N1 136.5(4) . . . . ?
C7 C12 C13 N1 -45.2(5) . . . . ?
