#------------------------------------------------------------------------------
#$Date: 2022-04-23 01:32:45 +0300 (Sat, 23 Apr 2022) $
#$Revision: 274646 $
#$URL: file:///home/coder/svn-repositories/cod/cif/7/24/48/7244851.cif $
#------------------------------------------------------------------------------
#
# This file is available in the Crystallography Open Database (COD),
# http://www.crystallography.net/
#
# All data on this site have been placed in the public domain by the
# contributors.
#
data_7244851
loop_
_publ_author_name
'Pizzi, Andrea'
'Calabrese, Miriam'
'Daolio, Andrea'
'Ursini, Maurizio'
'Frontera, Antonio'
'Resnati, Giuseppe'
_publ_section_title
;
 Expanding the toolbox of coinage bond: Adducts involving new gold(III)
 derivatives and bioactive molecules
;
_journal_name_full               CrystEngComm
_journal_paper_doi               10.1039/D2CE00446A
_journal_year                    2022
_chemical_absolute_configuration rm
_chemical_formula_moiety         'Au C10 Cl3 N2 O, 12(H)'
_chemical_formula_sum            'C10 H12 Au Cl3 N2 O'
_chemical_formula_weight         479.53
_space_group_crystal_system      triclinic
_space_group_IT_number           1
_space_group_name_Hall           'P 1'
_space_group_name_H-M_alt        'P 1'
_atom_sites_solution_hydrogens   geom
_audit_creation_date             2021-05-26
_audit_creation_method
;
Olex2 1.3
(compiled 2020.11.12 svn.r5f609507 for OlexSys, GUI svn.r6272)
;
_audit_update_record
;
2022-01-27 deposited with the CCDC.	2022-04-22 downloaded from the CCDC.
;
_cell_angle_alpha                85.660(13)
_cell_angle_beta                 69.881(12)
_cell_angle_gamma                78.186(12)
_cell_formula_units_Z            2
_cell_length_a                   7.4947(17)
_cell_length_b                   9.945(3)
_cell_length_c                   10.000(2)
_cell_measurement_reflns_used    4525
_cell_measurement_temperature    296(2)
_cell_measurement_theta_max      27.03
_cell_measurement_theta_min      2.95
_cell_volume                     685.0(3)
_computing_cell_refinement       'Bruker SAINT'
_computing_data_collection       'Bruker APEX2'
_computing_data_reduction        'Bruker SAINT'
_computing_molecular_graphics    'Olex2 1.3 (Dolomanov et al., 2009)'
_computing_publication_material  'Olex2 1.3 (Dolomanov et al., 2009)'
_computing_structure_refinement  'SHELXL-2018/3 (Sheldrick, 2018)'
_computing_structure_solution    'SHELXS-97 (Sheldrick, 2008)'
_diffrn_ambient_temperature      296(2)
_diffrn_measured_fraction_theta_full 0.918
_diffrn_measured_fraction_theta_max 0.842
_diffrn_measurement_device_type  'Bruker APEX-II CCD'
_diffrn_measurement_method       '\f and \w scans'
_diffrn_radiation_type           MoK\a
_diffrn_radiation_wavelength     0.71073
_diffrn_reflns_av_R_equivalents  0.0434
_diffrn_reflns_av_unetI/netI     0.0910
_diffrn_reflns_Laue_measured_fraction_full 0.918
_diffrn_reflns_Laue_measured_fraction_max 0.842
_diffrn_reflns_limit_h_max       10
_diffrn_reflns_limit_h_min       -11
_diffrn_reflns_limit_k_max       14
_diffrn_reflns_limit_k_min       -14
_diffrn_reflns_limit_l_max       15
_diffrn_reflns_limit_l_min       -13
_diffrn_reflns_number            12301
_diffrn_reflns_point_group_measured_fraction_full 0.835
_diffrn_reflns_point_group_measured_fraction_max 0.687
_diffrn_reflns_theta_full        25.242
_diffrn_reflns_theta_max         33.477
_diffrn_reflns_theta_min         3.023
_diffrn_source                   'sealed tube'
_exptl_absorpt_coefficient_mu    11.307
_exptl_absorpt_correction_T_max  0.7466
_exptl_absorpt_correction_T_min  0.5266
_exptl_absorpt_correction_type   multi-scan
_exptl_absorpt_process_details
'Bruker (2001). SADABS. Bruker AXS Inc., Madison, Wisconsin, USA.'
_exptl_crystal_colour            gold
_exptl_crystal_density_diffrn    2.325
_exptl_crystal_description       needle
_exptl_crystal_F_000             448
_exptl_crystal_size_max          0.2
_exptl_crystal_size_mid          0.02
_exptl_crystal_size_min          0.01
_refine_diff_density_max         1.458
_refine_diff_density_min         -1.671
_refine_diff_density_rms         0.200
_refine_ls_abs_structure_details
;
 Refined as an inversion twin.
;
_refine_ls_abs_structure_Flack   0.06(2)
_refine_ls_extinction_method     none
_refine_ls_goodness_of_fit_ref   0.867
_refine_ls_hydrogen_treatment    constr
_refine_ls_matrix_type           full
_refine_ls_number_parameters     300
_refine_ls_number_reflns         7361
_refine_ls_number_restraints     3
_refine_ls_restrained_S_all      0.866
_refine_ls_R_factor_all          0.0668
_refine_ls_R_factor_gt           0.0331
_refine_ls_shift/su_max          0.007
_refine_ls_shift/su_mean         0.000
_refine_ls_structure_factor_coef Fsqd
_refine_ls_weighting_details
'w=1/[\s^2^(Fo^2^)+(0.0187P)^2^] where P=(Fo^2^+2Fc^2^)/3'
_refine_ls_weighting_scheme      calc
_refine_ls_wR_factor_gt          0.0578
_refine_ls_wR_factor_ref         0.0665
_reflns_Friedel_coverage         0.631
_reflns_Friedel_fraction_full    0.753
_reflns_Friedel_fraction_max     0.531
_reflns_number_gt                4705
_reflns_number_total             7361
_reflns_threshold_expression     'I > 2\s(I)'
_cod_data_source_file            d2ce00446a2.cif
_cod_data_source_block           T1_CCDC5
_cod_database_code               7244851
_shelx_shelxl_version_number     2018/3
_shelx_space_group_comment
;
The symmetry employed for this shelxl refinement is uniquely defined
by the following loop, which should always be used as a source of
symmetry information in preference to the above space-group names.
They are only intended as comments.
;
_olex2_refinement_description
;
1. Others
 Fixed Uiso: H5(0.042) H6(0.041) H3(0.058) H9(0.052) H1(0.053) H7(0.051)
 H8(0.047) H2(0.07) H12A(0.114) H12B(0.114) H12C(0.114) H11(0.054) H13(0.042)
 H15A(0.084) H15B(0.084) H15C(0.084) H17A(0.046) H17B(0.046) H16A(0.05)
 H16B(0.05) H18A(0.08) H18B(0.08) H19A(0.063) H19B(0.063)
 Fixed X: H5(0.799533) H6(1.01349) H3(1.022437) H9(0.816979) H1(0.567797)
 H7(1.262173) H8(1.036876) H2(0.766114) H12A(1.494414) H12B(1.339488)
 H12C(1.370629) H11(1.028673) H13(0.765848) H15A(0.889265) H15B(0.738298)
 H15C(0.884935) H17A(0.272017) H17B(0.335154) H16A(0.525779) H16B(0.524506)
 H18A(0.812673) H18B(0.920687) H19A(1.093125) H19B(1.034646)
 Fixed Y: H5(0.411622) H6(0.660007) H3(0.038352) H9(1.031625) H1(0.107058)
 H7(0.972051) H8(1.124997) H2(-0.034273) H12A(0.208414) H12B(0.20508)
 H12C(0.346052) H11(0.405947) H13(0.683295) H15A(0.751885) H15B(0.856292)
 H15C(0.910022) H17A(0.900463) H17B(0.745634) H16A(0.890351) H16B(0.731288)
 H18A(0.284327) H18B(0.402411) H19A(0.244754) H19B(0.123303)
 Fixed Z: H5(0.58328) H6(0.836213) H3(0.432173) H9(1.024484) H1(0.791144)
 H7(0.661283) H8(0.834553) H2(0.61002) H12A(0.28473) H12B(0.436903)
 H12C(0.360101) H11(0.368648) H13(1.070035) H15A(1.260243) H15B(1.373571)
 H15C(1.236916) H17A(1.169158) H17B(1.208098) H16A(0.968284) H16B(0.980052)
 H18A(0.266942) H18B(0.185442) H19A(0.024065) H19B(0.131215)
;
_shelx_res_file
;
TITL T1 in P1
    T1.res
    created by SHELXL-2018/3 at 11:11:56 on 05-May-2021
CELL 0.71073   7.4947   9.9451  10.0001  85.660  69.881  78.186
ZERR    2.00   0.0017   0.0025   0.0024   0.013   0.012   0.012
LATT -1
SFAC C  H  N  O  Cl Au
UNIT 20 24 4 2 6 2
OMIT 6 0 -5
OMIT 8 -1 -5
OMIT 6 -1 -5
OMIT 0 3 -4
OMIT 0 -1 -1
OMIT 0 1 -2
OMIT -5 -7 8
OMIT 4 2 11
OMIT 4 -1 10
OMIT -5 -2 10
OMIT 2 -3 8
OMIT 6 -4 8
OMIT 10 8 4
OMIT 0 0 1
OMIT 0 1 0
OMIT 0 -1 2
OMIT 0 1 1
OMIT 1 0 0
OMIT 0 -1 0
OMIT 0 0 -1
OMIT 9 1 4
LIST 4
L.S. 4
BOND
TWIN -1 0 0, 0 -1 0, 0 0 -1
FMAP 2
PLAN 30
TEMP 23.000
ACTA
WGHT    0.018700
BASF   0.05548
FVAR       0.13766
MOLE 1
AU1   6    1.341771    0.680383    0.577217    11.00000    0.02702    0.03519 =
         0.03040   -0.00344   -0.00245   -0.00706
N1    3    0.673792    0.272954    0.709489    11.00000    0.02048    0.03718 =
         0.02106   -0.01249    0.00531    0.00288
AU2   6    0.481215    0.398570    0.865713    11.00000    0.03320    0.03704 =
         0.03309    0.00041   -0.00217   -0.00638
N2    3    1.154666    0.807079    0.740091    11.00000    0.03286
C4    1    0.924543    0.239914    0.481760    11.00000    0.04925    0.03796 =
         0.03938   -0.01804   -0.00203   -0.00633
C5    1    0.799758    0.317809    0.590333    11.00000    0.05020    0.02578 =
         0.03115    0.00942   -0.01783   -0.00905
AFIX  43
H5    2    0.799533    0.411622    0.583280    11.00000   -1.20000
AFIX   0
C6    1    1.020925    0.751830    0.839564    11.00000    0.02619    0.03887 =
         0.02168   -0.00898    0.01142   -0.00218
AFIX  43
H6    2    1.013490    0.660007    0.836213    11.00000   -1.20000
AFIX   0
C3    1    0.926747    0.100512    0.495742    11.00000    0.05868    0.03695 =
         0.03219   -0.01452    0.00861   -0.00557
AFIX  43
H3    2    1.022437    0.038352    0.432173    11.00000   -1.20000
AFIX   0
C9    1    0.901643    0.976150    0.949180    11.00000    0.04359
AFIX  43
H9    2    0.816979    1.031625    1.024484    11.00000   -1.20000
AFIX   0
C1    1    0.659902    0.140702    0.714777    11.00000    0.05822    0.04094 =
         0.02458    0.00678   -0.00487   -0.00936
AFIX  43
H1    2    0.567797    0.107058    0.791144    11.00000   -1.20000
AFIX   0
C7    1    1.165491    0.939959    0.735316    11.00000    0.02748    0.05018 =
         0.04429    0.00004   -0.00004   -0.01906
AFIX  43
H7    2    1.262173    0.972051    0.661283    11.00000   -1.20000
AFIX   0
C10   1    0.892054    0.837229    0.949288    11.00000    0.02628    0.03774 =
         0.02812    0.00797    0.00421   -0.00989
C8    1    1.034300    1.031623    0.839447    11.00000    0.04618    0.02616 =
         0.03935   -0.01616   -0.01341    0.00763
AFIX  43
H8    2    1.036876    1.124997    0.834553    11.00000   -1.20000
AFIX   0
C2    1    0.780932    0.056512    0.608140    11.00000    0.06745    0.04072 =
         0.05673    0.00265    0.00142   -0.02766
AFIX  43
H2    2    0.766114   -0.034273    0.610020    11.00000   -1.20000
AFIX   0
C12   1    1.369471    0.251736    0.346558    11.00000    0.07359    0.06385 =
         0.11475    0.01547   -0.05669   -0.02670
AFIX 137
H12A  2    1.494414    0.208414    0.284730    11.00000   -1.50000
H12B  2    1.339488    0.205080    0.436903    11.00000   -1.50000
H12C  2    1.370629    0.346052    0.360101    11.00000   -1.50000
AFIX   0
C11   1    1.031337    0.311058    0.346581    11.00000    0.05017    0.05019 =
         0.02174   -0.00291    0.00500   -0.01164
AFIX  13
H11   2    1.028673    0.405947    0.368648    11.00000   -1.20000
AFIX   0
C13   1    0.725598    0.782436    1.058842    11.00000    0.04992    0.03292 =
         0.01788   -0.00159   -0.00416   -0.01164
AFIX  13
H13   2    0.765848    0.683295    1.070035    11.00000   -1.20000
AFIX   0
CL1   5    0.266324    0.538484    1.041378    11.00000    0.04474    0.04845 =
         0.05479   -0.01250    0.00126   -0.00191
CL2   5    1.552216    0.546781    0.395299    11.00000    0.05103    0.04280 =
         0.04227   -0.01291    0.00407   -0.00784
CL3   5    1.585719    0.700715    0.660865    11.00000    0.03685    0.05933 =
         0.03960   -0.01174   -0.01674   -0.01460
CL4   5    1.089570    0.659370    0.510543    11.00000    0.03887    0.06347 =
         0.06170   -0.01103   -0.01632   -0.01340
CL6   5    0.248285    0.385009    0.779924    11.00000    0.03746    0.06213 =
         0.09044    0.02962   -0.01948   -0.00873
CL5   5    0.727911    0.410244    0.946069    11.00000    0.05519    0.08260 =
         0.05901   -0.00834   -0.02658   -0.01309
O1    4    1.428257    0.147452    0.068732    11.00000    0.04238    0.04979 =
         0.05420   -0.01422    0.02076   -0.00745
O2    4    0.395002    0.921235    1.390286    11.00000    0.06317    0.04687 =
         0.04300    0.00172    0.00576   -0.00499
N3    3    0.668862    0.849104    1.198496    11.00000    0.03878    0.03473 =
         0.02083   -0.00366   -0.00057   -0.01119
C15   1    0.807251    0.841140    1.273787    11.00000    0.04582    0.10230 =
         0.02524    0.00176   -0.01278   -0.02449
AFIX 137
H15A  2    0.889265    0.751885    1.260243    11.00000   -1.50000
H15B  2    0.738298    0.856292    1.373571    11.00000   -1.50000
H15C  2    0.884935    0.910022    1.236916    11.00000   -1.50000
AFIX   0
C17   1    0.381010    0.830348    1.173302    11.00000    0.04188    0.04402 =
         0.03219    0.00943   -0.01487   -0.01605
AFIX  23
H17A  2    0.272017    0.900463    1.169158    11.00000   -1.20000
H17B  2    0.335154    0.745634    1.208098    11.00000   -1.20000
AFIX   0
C16   1    0.535396    0.809202    1.027546    11.00000    0.04291    0.05823 =
         0.03092    0.00384   -0.01312   -0.02378
AFIX  23
H16A  2    0.525779    0.890351    0.968284    11.00000   -1.20000
H16B  2    0.524506    0.731288    0.980052    11.00000   -1.20000
AFIX   0
C18   1    0.937649    0.311715    0.227735    11.00000    0.04934    0.10464 =
         0.03028    0.01399    0.00027   -0.01159
AFIX  23
H18A  2    0.812673    0.284327    0.266942    11.00000   -1.20000
H18B  2    0.920687    0.402411    0.185442    11.00000   -1.20000
AFIX   0
C19   1    1.077072    0.210575    0.120141    11.00000    0.04987    0.05832 =
         0.04121   -0.01397   -0.00137   -0.01162
AFIX  23
H19A  2    1.093125    0.244754    0.024065    11.00000   -1.20000
H19B  2    1.034646    0.123303    0.131215    11.00000   -1.20000
AFIX   0
N4    3    1.223326    0.245140    0.282611    11.00000    0.04325    0.03889 =
         0.05553   -0.01535    0.00331   -0.01390
C20   1    1.263346    0.196545    0.153036    11.00000    0.05310    0.02440 =
         0.05405    0.00508   -0.00409   -0.00577
C22   1    0.473638    0.874048    1.267794    11.00000    0.03110    0.03301 =
         0.02345    0.00220    0.00541   -0.00347
HKLF 4




REM  T1 in P1
REM wR2 = 0.0665, GooF = S = 0.867, Restrained GooF = 0.866 for all data
REM R1 = 0.0331 for 4705 Fo > 4sig(Fo) and 0.0668 for all 7361 data
REM 300 parameters refined using 3 restraints

END

WGHT      0.0187      0.0000

REM Highest difference peak  1.458,  deepest hole -1.671,  1-sigma level  0.200
Q1    1   0.5026  0.4223  0.8197  11.00000  0.05    1.46
Q2    1   0.2439  0.4476  0.8779  11.00000  0.05    1.37
Q3    1   1.3290  0.6553  0.6229  11.00000  0.05    1.31
Q4    1   1.2319  0.6841  0.5624  11.00000  0.05    1.27
Q5    1   0.5985  0.3971  0.8803  11.00000  0.05    1.24
Q6    1   1.4438  0.6787  0.5937  11.00000  0.05    1.22
Q7    1   1.5808  0.6364  0.5691  11.00000  0.05    1.20
Q8    1   1.4316  0.5853  0.4811  11.00000  0.05    1.20
Q9    1   0.3597  0.3931  0.8523  11.00000  0.05    1.17
Q10   1   0.2006  0.9651  1.2990  11.00000  0.05    1.13
Q11   1   0.4512  0.3940  0.9160  11.00000  0.05    1.12
Q12   1   1.6147  0.1121  0.1515  11.00000  0.05    1.07
Q13   1   0.3878  0.4837  0.9729  11.00000  0.05    1.05
Q14   1   1.4306  0.6268  0.6825  11.00000  0.05    1.00
Q15   1   1.3757  0.6861  0.5265  11.00000  0.05    0.99
Q16   1   0.5119  0.4797  0.9047  11.00000  0.05    0.96
Q17   1   0.4564  0.3806  0.7606  11.00000  0.05    0.96
Q18   1   1.3442  0.7029  0.7034  11.00000  0.05    0.96
Q19   1   0.4073  0.4546  0.7608  11.00000  0.05    0.94
Q20   1   0.3257  0.4504  0.9369  11.00000  0.05    0.93
Q21   1   1.3122  0.6047  0.5390  11.00000  0.05    0.92
Q22   1   0.5019  0.4130  0.9828  11.00000  0.05    0.92
Q23   1   0.6441  0.3392  0.7989  11.00000  0.05    0.90
Q24   1   1.4916  0.6354  0.5020  11.00000  0.05    0.90
Q25   1   0.2509  0.4823  1.0193  11.00000  0.05    0.89
Q26   1   1.3305  0.6651  0.4580  11.00000  0.05    0.89
Q27   1   1.5745  0.6009  0.4286  11.00000  0.05    0.89
Q28   1   1.1771  0.7445  0.6444  11.00000  0.05    0.88
Q29   1   1.2449  0.7743  0.6813  11.00000  0.05    0.85
Q30   1   1.3785  0.6536  0.4399  11.00000  0.05    0.80
;
_shelx_res_checksum              72725
_olex2_submission_special_instructions 'No special instructions were received'
loop_
_space_group_symop_operation_xyz
'x, y, z'
loop_
_atom_site_label
_atom_site_type_symbol
_atom_site_fract_x
_atom_site_fract_y
_atom_site_fract_z
_atom_site_U_iso_or_equiv
_atom_site_adp_type
_atom_site_occupancy
_atom_site_site_symmetry_order
_atom_site_calc_flag
_atom_site_refinement_flags_posn
_atom_site_refinement_flags_adp
_atom_site_refinement_flags_occupancy
_atom_site_disorder_assembly
_atom_site_disorder_group
Au1 Au 1.34177(4) 0.68038(3) 0.57722(4) 0.0324(3) Uani 1 1 d . . . . .
N1 N 0.674(2) 0.2730(19) 0.7095(19) 0.030(4) Uani 1 1 d . . . . .
Au2 Au 0.48121(5) 0.39857(4) 0.86571(4) 0.0369(3) Uani 1 1 d . . . . .
N2 N 1.155(3) 0.807(2) 0.740(2) 0.033(4) Uiso 1 1 d . . . . .
C4 C 0.925(4) 0.240(2) 0.482(3) 0.045(6) Uani 1 1 d . . . . .
C5 C 0.800(3) 0.318(2) 0.590(2) 0.035(5) Uani 1 1 d . . . . .
H5 H 0.799533 0.411622 0.583280 0.042 Uiso 1 1 calc R U . . .
C6 C 1.021(3) 0.752(2) 0.840(2) 0.034(5) Uani 1 1 d . . . . .
H6 H 1.013490 0.660007 0.836213 0.041 Uiso 1 1 calc R U . . .
C3 C 0.927(4) 0.101(3) 0.496(3) 0.049(7) Uani 1 1 d . . . . .
H3 H 1.022437 0.038352 0.432173 0.058 Uiso 1 1 calc R U . . .
C9 C 0.902(4) 0.976(3) 0.949(3) 0.044(6) Uiso 1 1 d . . . . .
H9 H 0.816979 1.031625 1.024484 0.052 Uiso 1 1 calc R U . . .
C1 C 0.660(4) 0.141(2) 0.715(3) 0.044(7) Uani 1 1 d . . . . .
H1 H 0.567797 0.107058 0.791144 0.053 Uiso 1 1 calc R U . . .
C7 C 1.165(3) 0.940(2) 0.735(3) 0.042(6) Uani 1 1 d . . . . .
H7 H 1.262173 0.972051 0.661283 0.051 Uiso 1 1 calc R U . . .
C10 C 0.892(3) 0.837(2) 0.949(2) 0.034(5) Uani 1 1 d . . . . .
C8 C 1.034(3) 1.032(2) 0.839(2) 0.039(6) Uani 1 1 d . . . . .
H8 H 1.036876 1.124997 0.834553 0.047 Uiso 1 1 calc R U . . .
C2 C 0.781(4) 0.057(2) 0.608(3) 0.058(8) Uani 1 1 d . . . . .
H2 H 0.766114 -0.034273 0.610020 0.070 Uiso 1 1 calc R U . . .
C12 C 1.369(3) 0.252(2) 0.347(2) 0.076(7) Uani 1 1 d . . . . .
H12A H 1.494414 0.208414 0.284730 0.114 Uiso 1 1 calc R U . . .
H12B H 1.339488 0.205080 0.436903 0.114 Uiso 1 1 calc R U . . .
H12C H 1.370629 0.346052 0.360101 0.114 Uiso 1 1 calc R U . . .
C11 C 1.031(2) 0.3111(18) 0.3466(16) 0.045(4) Uani 1 1 d . . . . .
H11 H 1.028673 0.405947 0.368648 0.054 Uiso 1 1 calc R U . . .
C13 C 0.726(2) 0.7824(16) 1.0588(15) 0.035(4) Uani 1 1 d . . . . .
H13 H 0.765848 0.683295 1.070035 0.042 Uiso 1 1 calc R U . . .
Cl1 Cl 0.2663(10) 0.5385(7) 1.0414(8) 0.054(2) Uani 1 1 d . . . . .
Cl2 Cl 1.5522(10) 0.5468(7) 0.3953(8) 0.050(2) Uani 1 1 d . . . . .
Cl3 Cl 1.5857(9) 0.7007(7) 0.6609(6) 0.0428(16) Uani 1 1 d . . . . .
Cl4 Cl 1.0896(10) 0.6594(8) 0.5105(9) 0.0537(19) Uani 1 1 d . . . . .
Cl6 Cl 0.2483(10) 0.3850(7) 0.7799(8) 0.066(2) Uani 1 1 d . . . . .
Cl5 Cl 0.7279(11) 0.4102(9) 0.9461(9) 0.063(2) Uani 1 1 d . . . . .
O1 O 1.428(2) 0.1475(18) 0.0687(19) 0.058(5) Uani 1 1 d . . . . .
O2 O 0.395(3) 0.9212(19) 1.3903(19) 0.058(5) Uani 1 1 d . . . . .
N3 N 0.6689(16) 0.8491(11) 1.1985(12) 0.033(3) Uani 1 1 d . . . . .
C15 C 0.807(2) 0.841(2) 1.2738(16) 0.056(5) Uani 1 1 d . . . . .
H15A H 0.889265 0.751885 1.260243 0.084 Uiso 1 1 calc R U . . .
H15B H 0.738298 0.856292 1.373571 0.084 Uiso 1 1 calc R U . . .
H15C H 0.884935 0.910022 1.236916 0.084 Uiso 1 1 calc R U . . .
C17 C 0.381(2) 0.8303(16) 1.1733(13) 0.038(4) Uani 1 1 d . . . . .
H17A H 0.272017 0.900463 1.169158 0.046 Uiso 1 1 calc R U . . .
H17B H 0.335154 0.745634 1.208098 0.046 Uiso 1 1 calc R U . . .
C16 C 0.535(2) 0.8092(18) 1.0275(15) 0.042(4) Uani 1 1 d . . . . .
H16A H 0.525779 0.890351 0.968284 0.050 Uiso 1 1 calc R U . . .
H16B H 0.524506 0.731288 0.980052 0.050 Uiso 1 1 calc R U . . .
C18 C 0.938(2) 0.3117(17) 0.2277(15) 0.066(5) Uani 1 1 d . . . . .
H18A H 0.812673 0.284327 0.266942 0.080 Uiso 1 1 calc R U . . .
H18B H 0.920687 0.402411 0.185442 0.080 Uiso 1 1 calc R U . . .
C19 C 1.077(2) 0.211(2) 0.1201(18) 0.053(5) Uani 1 1 d . . . . .
H19A H 1.093125 0.244754 0.024065 0.063 Uiso 1 1 calc R U . . .
H19B H 1.034646 0.123303 0.131215 0.063 Uiso 1 1 calc R U . . .
N4 N 1.2233(17) 0.2451(12) 0.2826(14) 0.049(4) Uani 1 1 d . . . . .
C20 C 1.263(2) 0.1965(14) 0.1530(19) 0.048(4) Uani 1 1 d . . . . .
C22 C 0.4736(19) 0.8740(14) 1.2678(15) 0.034(3) Uani 1 1 d . . . . .
loop_
_atom_site_aniso_label
_atom_site_aniso_U_11
_atom_site_aniso_U_22
_atom_site_aniso_U_33
_atom_site_aniso_U_23
_atom_site_aniso_U_13
_atom_site_aniso_U_12
Au1 0.0270(5) 0.0352(7) 0.0304(6) -0.0034(5) -0.0024(4) -0.0071(5)
N1 0.020(5) 0.037(7) 0.021(6) -0.012(4) 0.005(4) 0.003(4)
Au2 0.0332(6) 0.0370(7) 0.0331(7) 0.0004(5) -0.0022(5) -0.0064(5)
C4 0.049(14) 0.038(12) 0.039(12) -0.018(9) -0.002(10) -0.006(10)
C5 0.050(13) 0.026(9) 0.031(10) 0.009(8) -0.018(9) -0.009(8)
C6 0.026(9) 0.039(10) 0.022(9) -0.009(7) 0.011(7) -0.002(8)
C3 0.059(11) 0.037(8) 0.032(8) -0.015(5) 0.009(6) -0.006(6)
C1 0.058(15) 0.041(14) 0.025(11) 0.007(10) -0.005(11) -0.009(12)
C7 0.027(11) 0.050(15) 0.044(14) 0.000(11) 0.000(10) -0.019(11)
C10 0.026(10) 0.038(12) 0.028(10) 0.008(8) 0.004(8) -0.010(9)
C8 0.046(12) 0.026(10) 0.039(13) -0.016(9) -0.013(10) 0.008(8)
C2 0.067(17) 0.041(13) 0.057(16) 0.003(11) 0.001(13) -0.028(12)
C12 0.074(18) 0.064(12) 0.11(2) 0.015(17) -0.057(16) -0.027(13)
C11 0.050(10) 0.050(8) 0.022(8) -0.003(7) 0.005(7) -0.012(7)
C13 0.050(9) 0.033(7) 0.018(7) -0.002(5) -0.004(6) -0.012(6)
Cl1 0.045(4) 0.048(4) 0.055(5) -0.013(3) 0.001(3) -0.002(3)
Cl2 0.051(4) 0.043(4) 0.042(4) -0.013(3) 0.004(3) -0.008(3)
Cl3 0.037(3) 0.059(4) 0.040(3) -0.012(3) -0.017(2) -0.015(3)
Cl4 0.039(4) 0.063(4) 0.062(4) -0.011(3) -0.016(3) -0.013(3)
Cl6 0.037(3) 0.062(4) 0.090(5) 0.030(3) -0.019(3) -0.009(3)
Cl5 0.055(4) 0.083(5) 0.059(4) -0.008(3) -0.027(3) -0.013(4)
O1 0.042(10) 0.050(9) 0.054(10) -0.014(7) 0.021(8) -0.007(7)
O2 0.063(12) 0.047(9) 0.043(9) 0.002(7) 0.006(8) -0.005(8)
N3 0.039(7) 0.035(6) 0.021(6) -0.004(4) -0.001(5) -0.011(5)
C15 0.046(12) 0.102(16) 0.025(10) 0.002(9) -0.013(8) -0.024(10)
C17 0.042(9) 0.044(8) 0.032(8) 0.009(6) -0.015(6) -0.016(6)
C16 0.043(9) 0.058(9) 0.031(8) 0.004(6) -0.013(6) -0.024(7)
C18 0.049(10) 0.105(14) 0.030(9) 0.014(8) 0.000(7) -0.012(9)
C19 0.050(11) 0.058(9) 0.041(10) -0.014(8) -0.001(8) -0.012(8)
N4 0.043(8) 0.039(6) 0.056(9) -0.015(6) 0.003(6) -0.014(5)
C20 0.053(11) 0.024(6) 0.054(10) 0.005(6) -0.004(9) -0.006(7)
C22 0.031(7) 0.033(6) 0.023(7) 0.002(5) 0.005(6) -0.003(6)
loop_
_atom_type_symbol
_atom_type_description
_atom_type_scat_dispersion_real
_atom_type_scat_dispersion_imag
_atom_type_scat_source
C C 0.0033 0.0016 'International Tables Vol C Tables 4.2.6.8 and 6.1.1.4'
H H 0.0000 0.0000 'International Tables Vol C Tables 4.2.6.8 and 6.1.1.4'
N N 0.0061 0.0033 'International Tables Vol C Tables 4.2.6.8 and 6.1.1.4'
O O 0.0106 0.0060 'International Tables Vol C Tables 4.2.6.8 and 6.1.1.4'
Cl Cl 0.1484 0.1585 'International Tables Vol C Tables 4.2.6.8 and 6.1.1.4'
Au Au -2.0133 8.8022 'International Tables Vol C Tables 4.2.6.8 and 6.1.1.4'
loop_
_geom_angle_atom_site_label_1
_geom_angle_atom_site_label_2
_geom_angle_atom_site_label_3
_geom_angle
_geom_angle_site_symmetry_1
_geom_angle_site_symmetry_3
_geom_angle_publ_flag
N2 Au1 Cl2 178.2(6) . . ?
N2 Au1 Cl3 87.7(6) . . ?
N2 Au1 Cl4 89.4(6) . . ?
Cl2 Au1 Cl3 91.6(2) . . ?
Cl2 Au1 Cl4 91.4(3) . . ?
Cl4 Au1 Cl3 176.2(3) . . ?
C5 N1 Au2 123.7(15) . . ?
C1 N1 Au2 118.3(14) . . ?
C1 N1 C5 117.4(17) . . ?
N1 Au2 Cl1 179.7(7) . . ?
N1 Au2 Cl6 89.9(6) . . ?
N1 Au2 Cl5 88.2(6) . . ?
Cl1 Au2 Cl5 91.6(3) . . ?
Cl6 Au2 Cl1 90.3(3) . . ?
Cl6 Au2 Cl5 178.0(3) . . ?
C6 N2 Au1 116.6(15) . . ?
C6 N2 C7 124.0(19) . . ?
C7 N2 Au1 119.2(15) . . ?
C5 C4 C3 116(2) . . ?
C5 C4 C11 118(2) . . ?
C3 C4 C11 125(2) . . ?
C4 C5 N1 126(2) . . ?
N2 C6 C10 117(2) . . ?
C4 C3 C2 118(2) . . ?
C8 C9 C10 121(2) . . ?
N1 C1 C2 119(2) . . ?
N2 C7 C8 121(2) . . ?
C6 C10 C9 120.4(19) . . ?
C6 C10 C13 119.1(17) . . ?
C9 C10 C13 120.1(19) . . ?
C9 C8 C7 116(2) . . ?
C1 C2 C3 122(2) . . ?
C4 C11 C18 111.7(15) . . ?
N4 C11 C4 113.3(16) . . ?
N4 C11 C18 104.0(12) . . ?
C10 C13 C16 115.9(14) . . ?
N3 C13 C10 111.3(13) . . ?
N3 C13 C16 102.7(11) . . ?
C15 N3 C13 121.2(11) . . ?
C22 N3 C13 113.1(12) . . ?
C22 N3 C15 122.1(12) . . ?
C22 C17 C16 106.2(14) . . ?
C17 C16 C13 104.0(14) . . ?
C19 C18 C11 105.0(14) . . ?
C18 C19 C20 103.2(14) . . ?
C11 N4 C12 120.5(13) . . ?
C20 N4 C12 124.1(14) . . ?
C20 N4 C11 114.6(15) . . ?
O1 C20 C19 124.3(18) . . ?
O1 C20 N4 126.3(19) . . ?
N4 C20 C19 109.5(13) . . ?
O2 C22 N3 124.0(17) . . ?
O2 C22 C17 128.2(16) . . ?
N3 C22 C17 107.8(11) . . ?
loop_
_geom_bond_atom_site_label_1
_geom_bond_atom_site_label_2
_geom_bond_distance
_geom_bond_site_symmetry_2
_geom_bond_publ_flag
Au1 N2 2.055(18) . ?
Au1 Cl2 2.258(6) . ?
Au1 Cl3 2.305(6) . ?
Au1 Cl4 2.261(7) . ?
N1 Au2 2.022(15) . ?
N1 C5 1.35(3) . ?
N1 C1 1.34(3) . ?
Au2 Cl1 2.263(7) . ?
Au2 Cl6 2.224(8) . ?
Au2 Cl5 2.281(8) . ?
N2 C6 1.32(3) . ?
N2 C7 1.34(3) . ?
C4 C5 1.34(3) . ?
C4 C3 1.38(3) . ?
C4 C11 1.52(3) . ?
C6 C10 1.39(3) . ?
C3 C2 1.39(3) . ?
C9 C10 1.40(3) . ?
C9 C8 1.37(3) . ?
C1 C2 1.35(3) . ?
C7 C8 1.40(3) . ?
C10 C13 1.52(2) . ?
C12 N4 1.46(2) . ?
C11 C18 1.57(2) . ?
C11 N4 1.398(19) . ?
C13 N3 1.479(17) . ?
C13 C16 1.53(2) . ?
O1 C20 1.26(2) . ?
O2 C22 1.24(2) . ?
N3 C15 1.46(2) . ?
N3 C22 1.365(16) . ?
C17 C16 1.515(17) . ?
C17 C22 1.48(2) . ?
C18 C19 1.490(17) . ?
C19 C20 1.52(2) . ?
N4 C20 1.33(2) . ?
