#------------------------------------------------------------------------------
#$Date: 2022-02-04 21:21:59 +0200 (Fri, 04 Feb 2022) $
#$Revision: 272620 $
#$URL: file:///home/coder/svn-repositories/cod/cif/7/24/41/7244147.cif $
#------------------------------------------------------------------------------
#
# This file is available in the Crystallography Open Database (COD),
# http://www.crystallography.net/
#
# All data on this site have been placed in the public domain by the
# contributors.
#
data_7244147
loop_
_publ_author_name
'Rixson, Daniel'
'G\"unay Sezer, G\"une\,s'
'Alp, Emre'
'Mahon, Mary F.'
'Burrows, Andrew D.'
_publ_section_title
;
 Synthesis, structures and properties of metal--organic frameworks
 prepared using a semi-rigid tricarboxylate linker
;
_journal_issue                   4
_journal_name_full               CrystEngComm
_journal_page_first              863
_journal_page_last               876
_journal_paper_doi               10.1039/D1CE01284C
_journal_volume                  24
_journal_year                    2022
_chemical_absolute_configuration ad
_chemical_formula_moiety         'C10 H11 Co N O8'
_chemical_formula_sum            'C10 H11 Co N O8'
_chemical_formula_weight         332.13
_space_group_crystal_system      monoclinic
_space_group_IT_number           4
_space_group_name_Hall           'P 2yb'
_space_group_name_H-M_alt        'P 1 21 1'
_atom_sites_solution_hydrogens   mixed
_atom_sites_solution_primary     iterative
_audit_creation_date             2019-01-08
_audit_creation_method
;
Olex2 1.2
(compiled 2018.05.29 svn.r3508 for OlexSys, GUI svn.r5506)
;
_audit_update_record
;
2021-07-19 deposited with the CCDC.	2021-12-20 downloaded from the CCDC.
;
_cell_angle_alpha                90
_cell_angle_beta                 95.158(4)
_cell_angle_gamma                90
_cell_formula_units_Z            2
_cell_length_a                   4.8412(2)
_cell_length_b                   10.1675(4)
_cell_length_c                   11.3320(4)
_cell_measurement_reflns_used    1467
_cell_measurement_temperature    150.00(10)
_cell_measurement_theta_max      73.1930
_cell_measurement_theta_min      4.0170
_cell_volume                     555.54(4)
_computing_cell_refinement       'CrysAlisPro 1.171.39.46 (Rigaku OD, 2018)'
_computing_data_collection       'CrysAlisPro 1.171.39.46 (Rigaku OD, 2018)'
_computing_data_reduction        'CrysAlisPro 1.171.39.46 (Rigaku OD, 2018)'
_computing_molecular_graphics    'Olex2 (Dolomanov et al., 2009)'
_computing_publication_material  'Olex2 (Dolomanov et al., 2009)'
_computing_structure_refinement  'ShelXL (Sheldrick, 2015)'
_computing_structure_solution    'olex2.solve (Bourhis et al., 2015)'
_diffrn_ambient_environment      N~2~
_diffrn_ambient_temperature      150.00(10)
_diffrn_detector                 'CCD plate'
_diffrn_detector_area_resol_mean 8.1150
_diffrn_detector_type            EosS2
_diffrn_measured_fraction_theta_full 0.999
_diffrn_measured_fraction_theta_max 0.997
_diffrn_measurement_device       'four-circle diffractometer'
_diffrn_measurement_device_type  'SuperNova, Dual, Cu at home/near, EosS2'
_diffrn_measurement_method       '\w scans'
_diffrn_radiation_monochromator  mirror
_diffrn_radiation_probe          x-ray
_diffrn_radiation_type           CuK\a
_diffrn_radiation_wavelength     1.54184
_diffrn_reflns_av_R_equivalents  0.0292
_diffrn_reflns_av_unetI/netI     0.0444
_diffrn_reflns_Laue_measured_fraction_full 0.999
_diffrn_reflns_Laue_measured_fraction_max 0.997
_diffrn_reflns_limit_h_max       6
_diffrn_reflns_limit_h_min       -5
_diffrn_reflns_limit_k_max       12
_diffrn_reflns_limit_k_min       -12
_diffrn_reflns_limit_l_max       14
_diffrn_reflns_limit_l_min       -13
_diffrn_reflns_number            2451
_diffrn_reflns_point_group_measured_fraction_full 0.755
_diffrn_reflns_point_group_measured_fraction_max 0.743
_diffrn_reflns_theta_full        67.684
_diffrn_reflns_theta_max         73.255
_diffrn_reflns_theta_min         3.917
_diffrn_source                   'micro-focus sealed X-ray tube'
_diffrn_source_type              'SuperNova (Cu) X-ray Source'
_exptl_absorpt_coefficient_mu    12.568
_exptl_absorpt_correction_T_max  0.32408
_exptl_absorpt_correction_T_min  0.24298
_exptl_absorpt_correction_type   analytical
_exptl_absorpt_process_details
;
CrysAlisPro 1.171.39.46 (Rigaku Oxford Diffraction, 2018)
Analytical numeric absorption correction using a multifaceted crystal
			model based on expressions derived by R.C. Clark & J.S. Reid.
(Clark, R. C. & Reid, J. S. (1995). Acta Cryst. A51, 887-897)
Empirical absorption correction using spherical harmonics,
 implemented in SCALE3 ABSPACK scaling algorithm.
;
_exptl_crystal_colour            pink
_exptl_crystal_colour_primary    pink
_exptl_crystal_density_diffrn    1.986
_exptl_crystal_description       needle
_exptl_crystal_F_000             338
_exptl_crystal_size_max          0.183
_exptl_crystal_size_mid          0.046
_exptl_crystal_size_min          0.033
_refine_diff_density_max         0.687
_refine_diff_density_min         -0.610
_refine_diff_density_rms         0.099
_refine_ls_abs_structure_details
;
 Classical Flack method preferred over Parsons because s.u. lower.
;
_refine_ls_abs_structure_Flack   -0.001(6)
_refine_ls_extinction_method     none
_refine_ls_goodness_of_fit_ref   1.044
_refine_ls_hydrogen_treatment    mixed
_refine_ls_matrix_type           full
_refine_ls_number_parameters     204
_refine_ls_number_reflns         1637
_refine_ls_number_restraints     10
_refine_ls_restrained_S_all      1.041
_refine_ls_R_factor_all          0.0472
_refine_ls_R_factor_gt           0.0461
_refine_ls_shift/su_max          0.000
_refine_ls_shift/su_mean         0.000
_refine_ls_structure_factor_coef Fsqd
_refine_ls_weighting_details
'w=1/[\s^2^(Fo^2^)+(0.0944P)^2^+0.0631P] where P=(Fo^2^+2Fc^2^)/3'
_refine_ls_weighting_scheme      calc
_refine_ls_wR_factor_gt          0.1224
_refine_ls_wR_factor_ref         0.1241
_reflns_Friedel_coverage         0.406
_reflns_Friedel_fraction_full    0.480
_reflns_Friedel_fraction_max     0.456
_reflns_number_gt                1586
_reflns_number_total             1637
_reflns_threshold_expression     'I > 2\s(I)'
_iucr_refine_instructions_details
;
TITL s18adb33
CELL 1.54184 4.8412 10.1675 11.332 90 95.158 90
ZERR 2 0.0002 0.0004 0.0004 0 0.004 0
LATT -1
SYMM -X,0.5+Y,-Z
SFAC C H Co N O
UNIT 20 22 2 2 16
EQIV $1 -X,0.5+Y,-Z
EQIV $2 1+X,+Y,1+Z
EQIV $3 2-X,-0.5+Y,1-Z
EQIV $4 1-X,0.5+Y,1-Z
EQIV $5 1-X,-0.5+Y,1-Z
DFIX 0.98 0.005 O8 H8b O8 H8a
DFIX 1.5 0.005 H8a H8b
DFIX 0.98 0.005 O7 H7b O7 H7a
DFIX 1.5 0.005 H7b H7a
DFIX 2.55 0.005 Co1 H7b
DFIX 0.98 0.005 O6 H6
DFIX 0.98 0.005 N1 H1
 
L.S. 10
PLAN  2
HTAB O6 O2_$1
HTAB O7 O2_$2
HTAB O7 O5_$3
HTAB O8 O1_$4
HTAB O8 O2_$2
HTAB O8 O5_$5
HTAB N1 O4_$3
BOND $H
list 4
more -3
fmap 2
acta
REM <olex2.extras>
REM <HklSrc "%.\\s18adb33.hkl">
REM </olex2.extras>
 
WGHT    0.094400    0.063100
FVAR       1.13788
CO1   3    1.358637    0.649720    0.732160    11.00000    0.01857    0.01485 =
         0.01211   -0.00236    0.00134   -0.00032
O1    5    0.395116    0.194534    0.111965    11.00000    0.02300    0.02106 =
         0.01676    0.00330    0.00324   -0.00456
O2    5    0.387624    0.313382   -0.053422    11.00000    0.03858    0.04002 =
         0.01936    0.01250   -0.00931   -0.01585
O3    5    1.076381    0.614170    0.594221    11.00000    0.02220    0.02859 =
         0.01457   -0.00548    0.00115    0.00056
O4    5    0.689360    0.712490    0.641887    11.00000    0.02774    0.02182 =
         0.01093   -0.00591    0.00766    0.00007
O5    5    0.020504    0.804805    0.282510    11.00000    0.04311    0.03019 =
         0.04668   -0.01978   -0.02117    0.01729
O6    5   -0.003852    0.659617    0.135799    11.00000    0.02518    0.02048 =
         0.01707   -0.00003   -0.00157    0.00355
H6    2   -0.121558    0.729065    0.098440    11.00000    0.05765
O7    5    1.488327    0.457108    0.711752    11.00000    0.03891    0.01830 =
         0.07071   -0.00125    0.03062   -0.00054
H7A   2    1.679514    0.426266    0.709488    11.00000    0.04140
H7B   2    1.434490    0.406536    0.779644    11.00000    0.17494
O8    5    1.090257    0.559560    0.851253    11.00000    0.02266    0.02713 =
         0.02109    0.00592    0.00834    0.00230
H8A   2    0.910951    0.579410    0.880657    11.00000    0.05356
H8B   2    1.094131    0.463892    0.860885    11.00000    0.02756
N1    4    0.796537    0.346174    0.226532    11.00000    0.01791    0.01695 =
         0.01117   -0.00105    0.00116    0.00088
C1    1    0.490545    0.282738    0.047690    11.00000    0.01912    0.01931 =
         0.01287   -0.00313    0.00259   -0.00093
C2    1    0.754868    0.352636    0.095984    11.00000    0.02214    0.01879 =
         0.01226   -0.00226    0.00578   -0.00175
AFIX  23
H2A   2    0.912368    0.312576    0.062736    11.00000   -1.20000
H2B   2    0.745798    0.444028    0.071386    11.00000   -1.20000
AFIX   0
C3    1    0.677529    0.452450    0.288238    11.00000    0.01667    0.01765 =
         0.01251   -0.00086    0.00417   -0.00286
C4    1    0.795207    0.490037    0.398627    11.00000    0.01602    0.01810 =
         0.01281    0.00040    0.00079   -0.00105
AFIX  43
H4    2    0.948821    0.445051    0.433408    11.00000   -1.20000
AFIX   0
C5    1    0.684310    0.595830    0.458738    11.00000    0.02160    0.01585 =
         0.00928   -0.00449    0.00353   -0.00311
C6    1    0.825313    0.642562    0.574278    11.00000    0.02372    0.01272 =
         0.01356   -0.00134    0.00306   -0.00295
C7    1    0.455909    0.663984    0.406612    11.00000    0.02174    0.01675 =
         0.01142   -0.00333    0.00702    0.00190
AFIX  43
H7    2    0.381842    0.734064    0.446055    11.00000   -1.20000
AFIX   0
C8    1    0.339103    0.626537    0.295043    11.00000    0.02243    0.01384 =
         0.01493   -0.00239    0.00164    0.00050
C9    1    0.103456    0.704844    0.236902    11.00000    0.02651    0.01515 =
         0.01847    0.00062    0.00399   -0.00071
C10   1    0.446463    0.519761    0.234845    11.00000    0.01866    0.01727 =
         0.01030   -0.00015   -0.00174    0.00038
AFIX  43
H10   2    0.365489    0.494250    0.160853    11.00000   -1.20000
AFIX   0
H1    2    0.995462    0.348441    0.251709    11.00000   -1.20000
HKLF 4
 
REM  s18adb33
REM R1 =  0.0461 for    1586 Fo > 4sig(Fo)  and  0.0472 for all    1637 data
REM    204 parameters refined using     10 restraints
 
END  
     
WGHT      0.0944      0.0631 

REM Highest difference peak  0.687,  deepest hole -0.610,  1-sigma level  0.099
Q1    1   1.1667  0.6453  0.7340  11.00000  0.05    0.69
Q2    1   1.3056  0.7176  0.6895  11.00000  0.05    0.67

  REM The information below was added by Olex2.
  REM
  REM R1 = 0.0461 for 1586 Fo > 4sig(Fo) and 0.0472 for all 2458 data
  REM n/a parameters refined using n/a restraints
  REM Highest difference peak 0.69, deepest hole -0.61
  REM Mean Shift 0, Max Shift 0.000.

  REM +++ Tabular Listing of Refinement Information +++
  REM R1_all = 0.0472
  REM R1_gt = 0.0461
  REM wR_ref = 0.1241
  REM GOOF = 1.044
  REM Shift_max = 0.000
  REM Shift_mean = 0
  REM Reflections_all = 2458
  REM Reflections_gt = 1586
  REM Parameters = n/a
  REM Hole = -0.61
  REM Peak = 0.69
  REM Flack = 0.000(9)

  
;
_cod_data_source_file            d1ce01284c2.cif
_cod_data_source_block           s18adb33
_cod_depositor_comments
'Adding full bibliography for 7244143--7244152.cif.'
_cod_database_code               7244147
_shelxl_version_number           2014-3
_chemical_oxdiff_usercomment     'Pink Rod'
_shelx_space_group_comment
;
The symmetry employed for this shelxl refinement is uniquely defined
by the following loop, which should always be used as a source of
symmetry information in preference to the above space-group names.
They are only intended as comments.
;
_olex2_refinement_description
;
1. Fixed Uiso
 At 1.2 times of:
  All C(H) groups, All C(H,H) groups
2. Restrained distances
 O8-H8B = O8-H8A
 0.98 with sigma of 0.005
 H8A-H8B
 1.5 with sigma of 0.005
 O7-H7B = O7-H7A
 0.98 with sigma of 0.005
 H7B-H7A
 1.5 with sigma of 0.005
 Co1-H7B
 2.55 with sigma of 0.005
 O6-H6
 0.98 with sigma of 0.005
 N1-H1
 0.98 with sigma of 0.005
3.a Secondary CH2 refined with riding coordinates:
 C2(H2A,H2B)
3.b Aromatic/amide H refined with riding coordinates:
 C4(H4), C7(H7), C10(H10)
;
_olex2_submission_special_instructions 'No special instructions were received'
loop_
_space_group_symop_operation_xyz
'x, y, z'
'-x, y+1/2, -z'
loop_
_atom_site_label
_atom_site_type_symbol
_atom_site_fract_x
_atom_site_fract_y
_atom_site_fract_z
_atom_site_U_iso_or_equiv
_atom_site_adp_type
_atom_site_occupancy
_atom_site_site_symmetry_order
_atom_site_calc_flag
_atom_site_refinement_flags_posn
_atom_site_refinement_flags_adp
_atom_site_refinement_flags_occupancy
_atom_site_disorder_assembly
_atom_site_disorder_group
Co1 Co 1.35864(16) 0.64972(10) 0.73216(6) 0.0152(3) Uani 1 1 d D . . . .
O1 O 0.3951(9) 0.1945(4) 0.1120(4) 0.0202(9) Uani 1 1 d . . . . .
O2 O 0.3876(11) 0.3134(6) -0.0534(4) 0.0334(12) Uani 1 1 d . . . . .
O3 O 1.0764(9) 0.6142(5) 0.5942(3) 0.0218(10) Uani 1 1 d . . . . .
O4 O 0.6894(9) 0.7125(5) 0.6419(4) 0.0198(9) Uani 1 1 d . . . . .
O5 O 0.0205(12) 0.8048(6) 0.2825(5) 0.0415(15) Uani 1 1 d . . . . .
O6 O -0.0039(9) 0.6596(5) 0.1358(3) 0.0211(9) Uani 1 1 d D . . . .
H6 H -0.122(19) 0.729(8) 0.098(9) 0.06(3) Uiso 1 1 d D . . . .
O7 O 1.4883(12) 0.4571(6) 0.7118(6) 0.0411(14) Uani 1 1 d D . . . .
H7A H 1.680(8) 0.426(9) 0.709(7) 0.04(3) Uiso 1 1 d D . . . .
H7B H 1.43(2) 0.407(3) 0.780(5) 0.17(10) Uiso 1 1 d D . . . .
O8 O 1.0903(10) 0.5596(5) 0.8513(4) 0.0232(9) Uani 1 1 d D . . . .
H8A H 0.911(10) 0.579(7) 0.881(8) 0.05(3) Uiso 1 1 d D . . . .
H8B H 1.094(15) 0.4639(12) 0.861(7) 0.03(2) Uiso 1 1 d D . . . .
N1 N 0.7965(10) 0.3462(5) 0.2265(4) 0.0154(10) Uani 1 1 d D . . . .
C1 C 0.4905(12) 0.2827(6) 0.0477(5) 0.0170(11) Uani 1 1 d . . . . .
C2 C 0.7549(12) 0.3526(6) 0.0960(5) 0.0175(11) Uani 1 1 d . . . . .
H2A H 0.9124 0.3126 0.0627 0.021 Uiso 1 1 calc R . . . .
H2B H 0.7458 0.4440 0.0714 0.021 Uiso 1 1 calc R . . . .
C3 C 0.6775(12) 0.4524(6) 0.2882(5) 0.0154(11) Uani 1 1 d . . . . .
C4 C 0.7952(12) 0.4900(6) 0.3986(5) 0.0157(11) Uani 1 1 d . . . . .
H4 H 0.9488 0.4451 0.4334 0.019 Uiso 1 1 calc R . . . .
C5 C 0.6843(12) 0.5958(6) 0.4587(5) 0.0154(11) Uani 1 1 d . . . . .
C6 C 0.8253(11) 0.6426(7) 0.5743(4) 0.0166(10) Uani 1 1 d . . . . .
C7 C 0.4559(11) 0.6640(7) 0.4066(5) 0.0163(11) Uani 1 1 d . . . . .
H7 H 0.3818 0.7341 0.4461 0.020 Uiso 1 1 calc R . . . .
C8 C 0.3391(12) 0.6265(6) 0.2950(5) 0.0171(11) Uani 1 1 d . . . . .
C9 C 0.1035(13) 0.7048(7) 0.2369(6) 0.0199(12) Uani 1 1 d . . . . .
C10 C 0.4465(12) 0.5198(6) 0.2348(5) 0.0156(11) Uani 1 1 d . . . . .
H10 H 0.3655 0.4942 0.1609 0.019 Uiso 1 1 calc R . . . .
H1 H 0.995(4) 0.348(9) 0.252(7) 0.019 Uiso 1 1 d DR . . . .
loop_
_atom_site_aniso_label
_atom_site_aniso_U_11
_atom_site_aniso_U_22
_atom_site_aniso_U_33
_atom_site_aniso_U_23
_atom_site_aniso_U_13
_atom_site_aniso_U_12
Co1 0.0186(5) 0.0149(5) 0.0121(4) -0.0024(4) 0.0013(3) -0.0003(4)
O1 0.023(2) 0.021(2) 0.0168(19) 0.0033(17) 0.0032(16) -0.0046(16)
O2 0.039(3) 0.040(3) 0.019(2) 0.012(2) -0.0093(19) -0.016(2)
O3 0.022(2) 0.029(3) 0.0146(17) -0.0055(17) 0.0012(15) 0.0006(17)
O4 0.028(2) 0.022(2) 0.0109(17) -0.0059(17) 0.0077(15) 0.0001(17)
O5 0.043(3) 0.030(3) 0.047(3) -0.020(3) -0.021(2) 0.017(2)
O6 0.025(2) 0.020(2) 0.0171(17) 0.000(2) -0.0016(14) 0.0036(19)
O7 0.039(3) 0.018(2) 0.071(4) -0.001(3) 0.031(3) -0.001(2)
O8 0.023(2) 0.027(2) 0.021(2) 0.0059(19) 0.0083(16) 0.0023(17)
N1 0.018(2) 0.017(3) 0.011(2) -0.0010(19) 0.0012(16) 0.0009(18)
C1 0.019(3) 0.019(3) 0.013(2) -0.003(2) 0.0026(19) -0.001(2)
C2 0.022(3) 0.019(3) 0.012(2) -0.002(2) 0.006(2) -0.002(2)
C3 0.017(3) 0.018(3) 0.013(2) -0.001(2) 0.0042(19) -0.003(2)
C4 0.016(3) 0.018(3) 0.013(2) 0.000(2) 0.0008(19) -0.001(2)
C5 0.022(3) 0.016(3) 0.009(2) -0.004(2) 0.004(2) -0.003(2)
C6 0.024(3) 0.013(3) 0.014(2) -0.001(3) 0.0031(18) -0.003(2)
C7 0.022(3) 0.017(3) 0.011(2) -0.003(2) 0.0070(19) 0.002(2)
C8 0.022(3) 0.014(3) 0.015(2) -0.002(2) 0.0016(19) 0.000(2)
C9 0.027(3) 0.015(3) 0.018(3) 0.001(2) 0.004(2) -0.001(2)
C10 0.019(3) 0.017(3) 0.010(2) 0.000(2) -0.0017(19) 0.000(2)
loop_
_atom_type_symbol
_atom_type_description
_atom_type_scat_dispersion_real
_atom_type_scat_dispersion_imag
_atom_type_scat_source
C C 0.0181 0.0091 'International Tables Vol C Tables 4.2.6.8 and 6.1.1.4'
H H 0.0000 0.0000 'International Tables Vol C Tables 4.2.6.8 and 6.1.1.4'
Co Co -2.3653 3.6143 'International Tables Vol C Tables 4.2.6.8 and 6.1.1.4'
N N 0.0311 0.0180 'International Tables Vol C Tables 4.2.6.8 and 6.1.1.4'
O O 0.0492 0.0322 'International Tables Vol C Tables 4.2.6.8 and 6.1.1.4'
loop_
_geom_angle_atom_site_label_1
_geom_angle_atom_site_label_2
_geom_angle_atom_site_label_3
_geom_angle
_geom_angle_site_symmetry_1
_geom_angle_site_symmetry_3
_geom_angle_publ_flag
O1 Co1 O8 83.91(18) 2_756 . ?
O1 Co1 N1 78.58(17) 2_756 2_756 ?
O3 Co1 O1 172.04(17) . 2_756 ?
O3 Co1 O4 99.92(17) . 1_655 ?
O3 Co1 O7 86.3(2) . . ?
O3 Co1 O8 90.26(18) . . ?
O3 Co1 N1 96.16(18) . 2_756 ?
O4 Co1 O1 86.73(18) 1_655 2_756 ?
O4 Co1 O8 166.42(18) 1_655 . ?
O4 Co1 N1 96.83(19) 1_655 2_756 ?
O7 Co1 O1 98.3(2) . 2_756 ?
O7 Co1 O4 88.9(2) . 1_655 ?
O7 Co1 O8 82.8(2) . . ?
O7 Co1 N1 173.3(2) . 2_756 ?
O8 Co1 N1 90.93(19) . 2_756 ?
C1 O1 Co1 115.5(4) . 2_746 ?
C6 O3 Co1 132.8(4) . . ?
C6 O4 Co1 126.1(4) . 1_455 ?
C9 O6 H6 107(7) . . ?
Co1 O7 H7A 127(6) . . ?
Co1 O7 H7B 107.6(7) . . ?
H7A O7 H7B 99.9(9) . . ?
Co1 O8 H8A 137(5) . . ?
Co1 O8 H8B 119(4) . . ?
H8A O8 H8B 100.1(9) . . ?
Co1 N1 H1 108(5) 2_746 . ?
C2 N1 Co1 103.6(4) . 2_746 ?
C2 N1 H1 109(5) . . ?
C3 N1 Co1 114.8(4) . 2_746 ?
C3 N1 C2 115.5(5) . . ?
C3 N1 H1 106(5) . . ?
O1 C1 C2 117.5(5) . . ?
O2 C1 O1 124.6(5) . . ?
O2 C1 C2 117.9(5) . . ?
N1 C2 C1 112.0(5) . . ?
N1 C2 H2A 109.2 . . ?
N1 C2 H2B 109.2 . . ?
C1 C2 H2A 109.2 . . ?
C1 C2 H2B 109.2 . . ?
H2A C2 H2B 107.9 . . ?
C4 C3 N1 119.9(5) . . ?
C4 C3 C10 120.3(5) . . ?
C10 C3 N1 119.8(5) . . ?
C3 C4 H4 119.8 . . ?
C3 C4 C5 120.4(5) . . ?
C5 C4 H4 119.8 . . ?
C4 C5 C6 120.2(5) . . ?
C7 C5 C4 120.0(5) . . ?
C7 C5 C6 119.7(5) . . ?
O3 C6 O4 124.6(5) . . ?
O3 C6 C5 116.4(5) . . ?
O4 C6 C5 118.9(5) . . ?
C5 C7 H7 120.3 . . ?
C5 C7 C8 119.5(5) . . ?
C8 C7 H7 120.3 . . ?
C7 C8 C9 119.1(5) . . ?
C7 C8 C10 121.0(5) . . ?
C10 C8 C9 119.9(5) . . ?
O5 C9 O6 123.1(6) . . ?
O5 C9 C8 121.5(6) . . ?
O6 C9 C8 115.4(5) . . ?
C3 C10 C8 118.9(5) . . ?
C3 C10 H10 120.6 . . ?
C8 C10 H10 120.6 . . ?
loop_
_geom_bond_atom_site_label_1
_geom_bond_atom_site_label_2
_geom_bond_distance
_geom_bond_site_symmetry_2
_geom_bond_publ_flag
Co1 O1 2.091(4) 2_756 ?
Co1 O3 2.014(4) . ?
Co1 O4 2.076(4) 1_655 ?
Co1 O7 2.076(6) . ?
Co1 O8 2.160(5) . ?
Co1 N1 2.199(5) 2_756 ?
O1 Co1 2.090(4) 2_746 ?
O1 C1 1.268(8) . ?
O2 C1 1.247(7) . ?
O3 C6 1.250(7) . ?
O4 Co1 2.076(4) 1_455 ?
O4 C6 1.271(7) . ?
O5 C9 1.224(9) . ?
O6 H6 0.979(7) . ?
O6 C9 1.299(8) . ?
O7 H7A 0.980(7) . ?
O7 H7B 0.980(7) . ?
O8 H8A 0.978(7) . ?
O8 H8B 0.979(7) . ?
N1 Co1 2.199(5) 2_746 ?
N1 C2 1.476(7) . ?
N1 C3 1.436(7) . ?
N1 H1 0.980(7) . ?
C1 C2 1.522(8) . ?
C2 H2A 0.9700 . ?
C2 H2B 0.9700 . ?
C3 C4 1.381(8) . ?
C3 C10 1.401(8) . ?
C4 H4 0.9300 . ?
C4 C5 1.405(8) . ?
C5 C6 1.498(7) . ?
C5 C7 1.391(8) . ?
C7 H7 0.9300 . ?
C7 C8 1.391(7) . ?
C8 C9 1.495(8) . ?
C8 C10 1.406(8) . ?
C10 H10 0.9300 . ?
loop_
_geom_hbond_atom_site_label_D
_geom_hbond_atom_site_label_H
_geom_hbond_atom_site_label_A
_geom_hbond_distance_DH
_geom_hbond_distance_HA
_geom_hbond_distance_DA
_geom_hbond_angle_DHA
_geom_hbond_site_symmetry_A
O6 H6 O2 0.979(7) 1.59(4) 2.541(6) 162(11) 2
O7 H7A O5 0.980(7) 1.90(4) 2.833(9) 158(8) 2_746
O7 H7B O2 0.980(7) 2.15(2) 3.112(8) 169(9) 1_656
O8 H8A O1 0.978(7) 1.90(4) 2.785(6) 150(7) 2_656
O8 H8B O2 0.979(7) 2.25(5) 3.037(7) 137(6) 1_656
O8 H8B O5 0.979(7) 2.32(7) 3.025(8) 128(6) 2_646
N1 H1 O4 0.980(7) 2.32(6) 3.098(7) 136(7) 2_746
loop_
_refln_index_h
_refln_index_k
_refln_index_l
_refln_F_squared_meas
_refln_F_squared_sigma
0 -11 5 341.66 17.22
0 -10 4 465.73 26.95
0 -10 5 156.34 15.68
0 -10 6 195.69 16.72
0 -10 7 403.76 21.63
0 -9 3 442.33 28.33
0 -9 4 54.62 12.22
0 -9 5 1310.01 53.25
0 -9 6 73.4 12.27
0 -9 7 190.58 17.86
0 -9 8 191.63 15.97
0 -9 9 31.1 5.52
0 -8 6 363.3 27.55
0 -8 7 412.22 29.31
0 -8 8 27.21 9.19
0 -8 9 324.18 20.87
0 -7 7 58.17 11.81
0 -7 7 57.46 13
0 -7 8 401.39 27.84
0 -7 8 458.32 30.67
0 -7 9 57.14 10.7
0 -7 9 48.73 9.65
0 -7 10 183.81 14.74
0 -7 11 170.31 12.78
0 -6 4 1629.11 52.34
0 -6 5 464.5 28.18
0 -6 6 1800.67 62.79
0 -6 7 1632.63 61.63
0 -6 7 1628.62 62.27
0 -6 8 425.08 30.86
0 -6 8 439.26 30.26
0 -6 8 422.08 30.65
0 -6 9 1410.34 56.98
0 -6 9 1415.8 53.46
0 -6 10 10.2 4.23
0 -6 10 11.48 5.58
0 -6 11 88.01 11.07
0 -6 12 43.01 5.16
0 -6 12 54.25 6.25
0 -5 2 321.65 17.09
0 -5 3 2456.32 61.75
0 -5 4 862.55 34.93
0 -5 5 2785.81 75.54
0 -5 6 430.3 28.25
0 -5 7 1366.29 55.44
0 -5 8 388.49 28.18
0 -5 8 376.68 29.38
0 -5 8 326.43 27.66
0 -5 9 15.92 7.88
0 -5 9 3.35 6.64
0 -5 10 134.59 17.34
0 -5 11 141.08 15.41
0 -5 12 372.47 18.62
0 -4 0 3890.08 102.14
0 -4 -1 1071.36 50.49
0 -4 1 967.79 27.09
0 -4 2 1517.81 39.67
0 -4 3 237.25 15.04
0 -4 4 639.18 27.94
0 -4 5 402.68 23.91
0 -4 6 1134.08 44.97
0 -4 7 1452.16 54.98
0 -4 8 447.12 28.73
0 -4 8 416.29 29.98
0 -4 8 454.51 31.18
0 -4 9 131.08 18.11
0 -4 9 142.7 18.07
0 -4 10 115.7 17.65
0 -4 11 269.3 23.63
0 -4 12 41.12 6.77
0 -4 12 20.2 6.6
0 -4 13 262.62 14.23
0 -3 0 6.56 4.47
0 -3 1 2308.4 46.26
0 -3 2 1990.33 44.88
0 -3 3 424.39 19.11
0 -3 4 720.26 27.66
0 -3 5 1519.22 46.66
0 -3 6 115.51 13.42
0 -3 7 1031.34 43
0 -3 8 1346.37 53.75
0 -3 9 23.09 8.71
0 -3 9 48.92 11.16
0 -3 9 38.56 10.53
0 -3 10 514.07 35.33
0 -3 10 451.96 29.56
0 -3 11 94.92 12.85
0 -3 11 95.44 14.54
0 -3 12 466.42 27.61
0 -3 13 41.63 5.93
0 -2 0 9999 172.14
0 -2 2 907.35 24.52
0 -2 3 583.01 21.65
0 -2 4 302.94 12.64
0 -2 4 320.27 17.35
0 -2 5 96.27 10.94
0 -2 6 650.39 30.28
0 -2 7 3032.88 78.76
0 -2 8 892.78 40.89
0 -2 9 239.87 22.01
0 -2 9 254.29 22.77
0 -2 9 237.9 23.21
0 -2 10 184 20.76
0 -2 10 172.56 19.4
0 -2 10 151.15 19.26
0 -2 11 99.79 14.81
0 -2 11 127.4 17.03
0 -2 12 69.67 11.14
0 -2 13 298.1 17.36
0 -1 0 0.25 1.11
0 -1 -2 27.17 7.73
0 -1 -3 456.06 33.56
0 -1 -4 462.02 38.59
0 -1 4 462.51 19.48
0 -1 4 472.55 15.72
0 -1 4 433.45 15.37
0 -1 5 35.65 5.2
0 -1 5 18.37 5.03
0 -1 6 409.18 22.13
0 -1 7 941.29 37.42
0 -1 8 927.67 40.29
0 -1 9 141.77 16.66
0 -1 9 119.61 15.6
0 -1 9 118.61 16.58
0 -1 10 341.27 26.38
0 -1 10 322.35 27.12
0 -1 11 178.68 20.24
0 -1 11 156.18 18.14
0 -1 12 821.71 37.97
0 -1 12 741.49 34.35
0 -1 13 24.19 6.06
0 0 -1 46 6.07
0 0 -2 6788.27 139.65
0 0 3 531.99 17.69
0 0 -3 530.83 34.72
0 0 -4 298.34 30.17
0 0 4 322.61 15.01
0 0 4 317.9 13.24
0 0 5 1218.39 36.14
0 0 6 5660.39 111.04
0 0 7 2326.65 62.83
0 0 8 681.84 33.3
0 0 9 918.06 41.64
0 0 9 948.51 47.22
0 0 10 174.66 21.91
0 0 10 166.19 19.3
0 0 11 51.72 12.56
0 0 12 26.25 9.21
0 0 13 123.69 12.3
0 0 14 11.64 3.15
0 1 1 2172.5 55.21
0 1 -3 49.13 9.62
0 1 -4 264.02 28.17
0 1 4 281.07 13.01
0 1 5 174.76 11.76
0 1 6 161.93 12.72
0 1 7 1217.69 40.6
0 1 8 492.49 26.67
0 1 9 142.03 18.17
0 1 10 253.79 25.35
0 1 11 137.68 17.87
0 1 13 24.61 5.79
0 2 -1 3149.02 67.08
0 2 1 3260.68 79.96
0 2 2 470.85 31.63
0 2 4 392.01 14.74
0 2 -4 374.73 32.97
0 2 -5 207.99 29.9
0 2 5 266.6 13.88
0 2 9 141.66 17.99
0 2 10 275.87 25.31
0 2 11 201.25 20.66
0 2 12 33.42 8.01
0 2 13 472.44 21.47
0 3 0 2 2.7
0 3 1 1947.06 65.31
0 3 1 2020.33 43.54
0 3 2 2091.18 76.85
0 3 -2 2014.93 58.64
0 3 9 161.46 19.72
0 3 10 540.14 34.4
0 3 11 65.08 11.8
0 3 12 570.96 27.01
0 3 13 27.31 4.69
0 4 0 2958.83 83.76
0 4 0 3102.52 64.67
0 4 1 967.44 29.6
0 4 1 966.56 48.58
0 4 -1 911.23 30.21
0 4 2 2071.29 84.6
0 4 9 69.67 13.72
0 4 10 40.14 8.49
0 4 11 303.01 20.42
0 4 12 34.78 6.24
0 5 0 -0.82 4.46
0 5 1 1061.5 34.55
0 5 -1 1059.02 36.11
0 5 -2 237.75 17.44
0 6 0 4748.84 101.05
0 6 1 386.04 21.8
0 6 -1 385.33 23.18
0 6 -2 1166.38 43.84
0 6 -3 723.31 35.18
0 6 -4 922.19 41.55
0 6 -5 212.79 19.99
0 6 -8 645.56 36.22
0 7 0 -1.59 4.66
0 7 -1 80.23 11.74
0 7 -2 173.78 17.51
0 7 -3 611.4 34.25
0 7 -4 20.2 7.46
0 7 -5 1087.15 48.03
0 7 -5 1136.88 43.95
0 7 -6 343.22 26.38
0 8 0 282.98 21.91
0 8 -1 276.76 22.35
0 8 -1 257.8 21.06
0 8 -2 238.19 20.29
0 8 2 262.46 20.5
0 8 -2 257.47 22.47
0 8 -3 10.42 6.18
0 8 -3 9.44 7.42
0 8 -4 269.14 23.88
0 8 -4 265.15 21.68
0 8 -5 234.84 19.87
0 8 -5 248.56 22.5
0 9 0 -1.95 4.97
0 9 1 357.08 25.12
0 9 -1 351.66 25.58
0 9 -1 357.47 26.12
0 9 -2 69.03 12.46
0 9 -2 61.95 11.53
0 9 2 52.08 9.32
0 9 -3 469.38 29.39
0 9 -3 445.84 30.21
0 9 -4 101.56 13.91
0 9 -5 999.87 41.7
0 9 -6 121.74 13.41
0 10 0 299.65 22.95
0 10 1 23.12 7.04
0 10 -1 25.4 7.9
0 10 2 506.96 27.39
0 10 -2 496.21 29.64
0 10 -3 18.96 8.22
0 10 -4 190.29 17.76
0 10 -5 161.93 15.26
0 10 -6 96.54 9.86
0 11 0 11.92 6.17
0 11 1 479.18 25.17
0 11 -1 455.4 25.78
0 11 2 129.11 12.15
0 11 -2 134.5 13.93
0 11 -3 1044.95 38.7
0 11 -4 210.21 15.96
0 11 -5 540.13 23.13
0 11 -6 152.67 9.53
0 12 0 61.72 7.73
0 12 1 17.44 4.26
0 12 -1 23.58 5.48
0 12 -2 74.51 8.34
0 12 -3 78.96 7.96
0 12 -4 24.45 4.25
1 -12 1 204.76 12
1 -12 2 86.57 8.07
1 -12 3 316.67 14.85
-1 -11 6 6.54 2.79
-1 -11 5 277.91 15.03
1 -11 4 124.46 11.86
1 -11 5 18.07 4.91
1 -11 6 121.81 8.64
-1 -10 8 102.47 8.88
-1 -10 7 11.33 4.33
-1 -10 6 410.11 23.35
-1 -10 5 4.91 5.85
1 -10 6 24.57 6.12
1 -10 7 416.74 17.91
1 -10 8 10.2 3.15
-1 -9 9 255.16 15.12
-1 -9 8 2.64 5.35
-1 -9 7 23.04 7.52
1 -9 3 8.79 5.55
1 -9 4 203.66 19.15
1 -9 5 217.4 19.93
1 -9 6 291.3 22.2
1 -9 7 30.3 6.73
1 -9 7 46.24 8.56
1 -9 8 288.32 16.49
1 -9 9 6.45 2.58
-1 -8 10 394.07 18.94
-1 -8 9 20.36 7.34
-1 -8 8 219.79 18.91
1 -8 -4 833.01 38.34
1 -8 3 526.61 31.32
1 -8 4 333.56 25.72
1 -8 5 268.61 23.14
1 -8 6 231.35 21.67
1 -8 7 582.4 32.74
1 -8 8 75.86 11.55
1 -8 9 439.47 22.33
1 -8 10 72.69 7.53
1 -8 10 73.81 6.85
-1 -7 11 399.33 19.17
-1 -7 10 32.06 6.84
-1 -7 10 23.49 6.66
-1 -7 9 669.03 33.34
-1 -7 9 669.26 33.92
-1 -7 8 56.13 10.91
1 -7 4 721.36 37.88
1 -7 5 165.2 18.4
1 -7 5 160.09 16.69
1 -7 6 449.3 29.73
1 -7 6 424.18 29.76
1 -7 7 135.77 16.79
1 -7 8 657.81 34.86
1 -7 9 13.74 6.71
1 -7 10 312.02 18.88
1 -7 11 318.25 15.21
-1 -6 12 111.71 9.92
-1 -6 11 13.15 5.3
-1 -6 10 665.82 30.74
-1 -6 10 586.03 32.55
-1 -6 9 32.31 9.94
-1 -6 8 124.86 16.19
-1 -6 8 114.26 16.58
-1 -6 7 120.05 16.27
-1 -6 7 132.97 16.59
-1 -6 6 112.22 14.26
1 -6 3 820.59 35.83
1 -6 4 285.46 21.85
1 -6 5 785.85 38.54
1 -6 6 237.23 22
1 -6 6 224.73 20.67
1 -6 6 235.35 21.72
1 -6 7 546.28 34.04
1 -6 7 568.1 34.87
1 -6 7 520.31 32.81
1 -6 8 73.86 13.3
1 -6 8 84.85 13.83
1 -6 9 868.5 40.8
1 -6 9 888.36 38.73
1 -6 9 875.62 39.94
1 -6 10 74.92 11.98
1 -6 10 69.23 9.34
1 -6 11 72.03 7.79
1 -6 11 70.11 8.67
-1 -5 12 23.8 6.87
-1 -5 11 418.6 26.94
-1 -5 10 254.83 23.3
-1 -5 9 667.34 38.66
-1 -5 8 59.63 12.77
-1 -5 8 73.6 13.67
-1 -5 7 201.08 19.83
-1 -5 6 71.06 11.32
-1 -5 5 414.77 25.19
-1 -5 4 820.11 33.17
1 -5 2 598.11 27.12
1 -5 3 538.06 27.63
1 -5 4 854.84 36.92
1 -5 5 201.85 18.54
1 -5 5 199.11 16.68
1 -5 6 2021.57 66.57
1 -5 7 182.52 19.2
1 -5 7 211.18 20.89
1 -5 7 187.03 20.41
1 -5 8 793.07 42.92
1 -5 8 821.96 41.27
1 -5 8 834.05 43.01
1 -5 9 136.1 17.53
1 -5 9 166.43 17.51
1 -5 10 102.48 13.91
1 -5 11 93.3 10.94
1 -5 11 70.36 10.12
1 -5 12 90.1 8.43
1 -5 12 89.82 8.43
-1 -4 13 24.49 5.34
-1 -4 12 228.29 18.28
-1 -4 11 264.01 22.74
-1 -4 10 161.65 18.98
-1 -4 9 263.3 23.35
-1 -4 9 227.4 22.94
-1 -4 8 553.14 33.71
-1 -4 8 557.9 34.82
-1 -4 7 509.05 31.12
-1 -4 6 445.98 28.06
-1 -4 5 171.75 16
-1 -4 4 991.83 36.55
1 -4 -4 926.8 31.62
-1 -4 3 682.35 26.54
-1 -4 2 2679.63 57.47
1 -4 2 1112.3 36.82
1 -4 3 2750.34 68.68
1 -4 4 449.71 25.32
1 -4 5 1700.54 55.9
1 -4 5 1612.65 49.91
1 -4 6 37.67 8.22
1 -4 6 55.65 9.15
1 -4 7 1218.2 50.91
1 -4 8 131.92 17.84
1 -4 8 149.01 18.33
1 -4 8 170.98 18.44
1 -4 9 908.06 46.48
1 -4 9 897.9 41.07
1 -4 9 964.43 45.72
1 -4 10 621.99 34.77
1 -4 11 586.33 29.81
1 -4 12 88.37 9.8
1 -4 12 90.61 8.83
-1 -3 13 110.71 10.6
-1 -3 12 142.42 14.26
-1 -3 12 138.46 15.11
-1 -3 11 250.83 21.25
-1 -3 11 228.74 21.45
-1 -3 10 117.1 16.37
-1 -3 10 124.05 17.9
-1 -3 9 4131.6 106.21
-1 -3 9 3917.75 104.49
-1 -3 9 4045.22 110.29
-1 -3 8 305.96 24.58
-1 -3 7 1534.21 54.62
-1 -3 6 184.52 16.87
-1 -3 5 373.46 22.36
-1 -3 4 718.79 29.07
1 -3 -4 748.42 25.51
-1 -3 3 3532.29 74.11
1 -3 -2 6979.23 186.73
1 -3 -1 4342.22 133.59
1 -3 1 1082.46 32.16
-1 -3 -1 1102.75 47.51
-1 -3 -2 1624.93 68.92
1 -3 2 1472.17 41.52
1 -3 3 119.51 11.74
-1 -3 -3 135.6 22.23
1 -3 4 1465.51 46.73
1 -3 4 1504.65 43.28
1 -3 5 92.03 12.63
1 -3 5 63.12 9.45
1 -3 6 684.87 34.23
1 -3 6 619.06 28.93
1 -3 7 88.17 13.23
1 -3 8 158.75 18.26
1 -3 8 132.37 17.72
1 -3 9 160.36 18.66
1 -3 9 189.07 21.78
1 -3 10 83.62 12.65
1 -3 10 93.41 12.81
1 -3 10 102.2 15.93
1 -3 11 17.58 5.8
1 -3 11 21.74 6.32
1 -3 12 106.8 9.9
1 -3 12 92.18 9.37
1 -3 12 105.38 11.46
1 -3 13 161.05 10.75
-1 -2 13 43.11 6.68
-1 -2 13 42.1 6.99
-1 -2 12 155.41 15.79
-1 -2 12 152.14 15.96
-1 -2 11 272.7 23.25
-1 -2 11 295.49 24.83
-1 -2 10 315.02 26.34
-1 -2 10 330.23 27.76
-1 -2 10 347.62 26.64
-1 -2 9 248.76 23.55
-1 -2 9 249.24 22.9
-1 -2 9 258.56 22.73
-1 -2 8 1297.98 50.93
-1 -2 7 6.19 4.58
-1 -2 6 1554.16 44.34
-1 -2 6 1596.91 50.93
-1 -2 5 684.63 29.97
1 -2 -4 1681.48 39.65
1 -2 -3 646.49 21.31
-1 -2 2 7683.45 136.48
1 -2 -2 8043.18 191.57
1 -2 -2 7825.48 129.99
1 -2 -1 750.19 46.18
1 -2 1 2239.19 48.98
1 -2 2 1119.19 32.53
-1 -2 -3 2374.2 96.73
1 -2 3 2250.78 55.02
1 -2 4 3135.6 74.52
1 -2 4 3275.08 69.42
1 -2 5 871.3 36
1 -2 5 821.89 30.6
1 -2 6 6.59 4.65
1 -2 6 3.23 5.55
1 -2 7 289.79 19.44
1 -2 7 328.28 24.05
1 -2 8 93.13 14.21
1 -2 9 429.39 31.92
1 -2 9 433.01 29.23
1 -2 9 472.73 30.01
1 -2 10 453.19 28.69
1 -2 10 444.3 28.77
1 -2 10 514.66 34.11
1 -2 11 715.99 34.65
1 -2 11 685.38 31.78
1 -2 12 62.77 9.09
1 -2 12 81.27 11.03
1 -2 13 167.44 11.5
1 -2 13 152.44 10.22
-1 -1 13 127.38 12.21
-1 -1 12 106.49 13.01
-1 -1 12 94.97 12.98
-1 -1 11 17.41 10.32
-1 -1 11 15.97 6.14
-1 -1 10 196.01 21.18
-1 -1 10 157.8 18.47
-1 -1 10 176.06 19.35
-1 -1 9 1854.6 64.37
-1 -1 9 1957.83 69.17
-1 -1 9 1977.28 68.02
-1 -1 8 180.04 18.34
-1 -1 7 1405.51 49.18
-1 -1 7 1368.83 43.43
-1 -1 6 66.63 9.23
-1 -1 6 63.47 8.61
-1 -1 5 482.08 21.16
1 -1 -4 222.88 11.24
-1 -1 3 2180.38 70.62
1 -1 -3 2110.17 44.65
1 -1 -2 8941.99 198.23
1 -1 -2 8958.92 144.86
1 -1 -1 1040.31 50.33
-1 -1 1 980.57 38.15
1 -1 0 822.87 21.56
1 -1 2 1589.15 37.94
1 -1 3 1272.26 34.38
1 -1 3 1300.28 35.98
1 -1 4 6045.6 110.19
1 -1 4 5897.54 115.42
1 -1 5 95.96 9.82
1 -1 5 67.45 10.05
1 -1 6 2103.87 61.94
1 -1 6 2046.31 54.6
1 -1 7 52.57 8.88
1 -1 7 49.08 9.99
1 -1 8 249.36 21.01
1 -1 9 138.34 16.5
1 -1 9 149.21 18.47
1 -1 9 150.98 18.24
1 -1 9 153.33 17.43
1 -1 11 37.67 9.44
1 -1 12 505.45 26.81
1 -1 12 510.57 26.43
1 -1 13 91.95 8.95
1 -1 13 109.35 9.4
-1 0 14 163.95 10.11
-1 0 13 98.3 11.27
-1 0 12 65.74 11.43
-1 0 11 293.56 24.9
-1 0 10 654.34 35.88
-1 0 10 674.17 38.52
-1 0 9 96.81 16.35
-1 0 9 92.24 13.77
-1 0 9 104.53 14.56
-1 0 8 446.23 27.54
-1 0 7 375.53 23.41
-1 0 6 1267.63 40.26
-1 0 5 185.52 13.59
-1 0 4 2711.45 60.66
-1 0 4 2969.14 102.45
1 0 -3 1066.66 27.34
-1 0 3 1098.55 53.45
1 0 -2 49.81 4.94
1 0 -2 44.98 10.58
-1 0 1 2486.42 74.61
1 0 -1 2467.35 73.23
-1 0 0 1960.04 66.04
1 0 1 1821.68 38.27
1 0 2 803.66 24.01
1 0 2 809.55 22.62
1 0 3 3800.53 71.8
1 0 3 3631.03 73.24
1 0 4 1181.72 35.2
1 0 4 1147.37 34.63
1 0 5 4099.09 89.4
1 0 5 4307.38 87.24
1 0 6 50.93 8.34
1 0 6 38.43 7.3
1 0 7 77.12 10.8
1 0 8 531.44 29.94
1 0 9 378.84 28.98
1 0 9 325.28 26.6
1 0 10 179.68 20.2
1 0 11 264.85 22.61
1 0 12 63.29 9.3
1 0 12 61.12 10.08
1 0 13 240.7 14.97
1 0 13 218.62 12.13
-1 1 13 10.26 5.07
-1 1 12 90.28 12.44
-1 1 11 73.38 12.78
-1 1 10 228.38 22.28
-1 1 9 1903.96 67.21
-1 1 9 1844.03 61.38
-1 1 8 172.63 16.89
-1 1 7 1526.92 49.9
-1 1 5 320.07 18.4
-1 1 4 448.49 20.53
-1 1 4 467.34 41.34
-1 1 3 2172.69 49.29
1 1 -2 9217.24 178.9
-1 1 2 9396.08 151.82
-1 1 1 1717.45 36.19
1 1 1 2168.87 43.1
1 1 2 1970.41 43.36
1 1 3 1514.74 34.39
1 1 3 1539.98 39.38
1 1 4 6772.61 124.64
1 1 4 6869.01 118.29
1 1 5 58.26 8.65
1 1 5 75.49 8.19
1 1 10 147.73 18.56
1 1 11 76.96 13.22
1 1 12 556.93 28.71
1 1 13 67.58 8.02
-1 2 13 115.69 10.75
-1 2 12 110.76 13.46
-1 2 11 214.64 19.9
-1 2 10 359.83 26.88
-1 2 9 259.44 23.46
-1 2 7 26.78 5.92
1 2 -3 916.32 40.47
1 2 -2 5646.27 95.64
1 2 -1 802.02 21.25
-1 2 0 95.76 16.37
-1 2 -1 1041.89 54.24
1 2 9 559.88 35.82
1 2 10 334.06 27.06
1 2 11 664.88 35.24
1 2 12 45.19 8.14
1 2 13 258.04 14.15
-1 3 13 24.78 4.17
-1 3 12 80.24 10.49
-1 3 12 67.73 9.14
-1 3 11 219.31 19.28
-1 3 10 53.53 10.14
-1 3 9 3955.44 104.46
1 3 -3 2866.88 62.15
1 3 -2 6215.34 110.22
-1 3 2 6253.67 105.66
-1 3 1 5516.7 95.54
1 3 -1 5420.19 98.3
1 3 0 1616.27 39.26
-1 3 0 1703.07 73.2
-1 3 -1 1583.97 71.18
-1 3 -2 749.04 50.92
1 3 8 16.15 7.22
1 3 9 89.83 14.03
1 3 10 43.58 10.82
1 3 11 11.26 7
1 3 12 25.51 5.74
1 3 13 129.88 8.72
-1 4 11 308.14 20.53
1 4 -4 646.58 28.21
1 4 -3 766.85 29.76
1 4 -2 3236.75 71
-1 4 2 3212.25 66.2
-1 4 1 767.29 26.48
1 4 -1 804.28 28.54
-1 4 0 1779.26 45.49
1 4 0 1831.13 46.96
-1 4 -1 1519.77 74.19
-1 4 -2 1044.86 62.99
1 4 8 202.15 19.26
1 4 9 575.14 33.22
1 4 10 658.36 33.97
1 4 11 457.24 24.96
1 4 12 71.24 7.84
1 5 -6 59.01 10.09
1 5 -5 136.51 14.09
1 5 -4 843.6 35.27
1 5 -3 2019 57.62
1 5 -2 2205.78 60.1
-1 5 2 2319.84 56.28
-1 5 1 1284.15 39.27
1 5 -1 1221.8 40.69
-1 5 0 828.92 31.2
1 5 0 820.67 31.95
-1 5 -1 1241.43 40.88
1 5 10 211.26 16.85
1 6 -12 136.84 9.92
1 6 -6 152.73 16.2
1 6 -5 219.13 18.99
1 6 -4 1159.21 45.76
1 6 -3 156.45 16.34
1 6 -2 614.99 31.24
1 6 -1 1196.63 43.49
-1 6 1 1190.53 41.16
-1 6 0 396.35 22.72
-1 6 -1 550.64 28.37
-1 6 -2 111.14 13.5
1 7 -11 210.27 13
1 7 -10 9.7 5.04
1 7 -9 443.46 27.18
1 7 -8 34.88 9.07
1 7 -7 330.29 26.11
1 7 -6 152.58 16.17
1 7 -6 142.82 16.96
1 7 -5 374.29 26.01
1 7 -5 387.81 26.12
1 7 -5 361.01 27.19
1 7 -4 187.31 18.64
1 7 -3 711.2 36.64
1 7 -2 867.28 40.06
1 7 -1 666.66 33.91
-1 7 1 656.93 31.39
-1 7 0 457.9 26.44
-1 7 -1 50.59 9.94
-1 7 -2 395.92 27.04
-1 7 -3 32.04 8.42
-1 7 -4 630.7 36.98
-1 7 -4 639.58 32.72
-1 7 -5 139.98 18.14
-1 7 -6 721.07 39.77
1 8 -10 236.09 13.83
1 8 -9 17.99 6.13
1 8 -8 241.78 18.87
1 8 -7 186.76 17.76
1 8 -6 781.92 35.32
1 8 -6 754.01 37.72
1 8 -5 103.87 13.78
1 8 -5 99.7 14.16
1 8 -5 66.72 11.7
1 8 -4 770.98 39.13
1 8 -4 870.86 41.89
1 8 -4 865.26 40.74
1 8 -3 146.31 16.66
-1 8 3 187.66 18.24
1 8 -3 157.92 17.54
1 8 -3 157.46 17.2
1 8 -2 325.94 24.64
1 8 -2 330.31 25.4
-1 8 2 375.65 26.23
1 8 -2 298.87 22.76
-1 8 1 107.39 14.41
1 8 -1 88.85 12.78
1 8 -1 84.47 12.45
1 8 0 178.17 17.1
-1 8 0 136.96 15.48
1 8 0 161.41 16.45
-1 8 0 118.24 14.31
1 8 1 135.74 14.78
-1 8 -1 133.85 15.73
-1 8 -1 135.32 16.54
-1 8 -2 136.58 16.52
-1 8 -2 161.83 18.05
-1 8 -3 747.21 37.65
-1 8 -3 725.47 39.7
-1 8 -4 174.64 19.59
-1 8 -4 158.07 17.23
-1 8 -5 39.57 8.65
1 9 -7 75.62 9.86
1 9 -6 67.47 10.01
1 9 -6 82.44 11.23
1 9 -5 333.53 23.18
1 9 -5 265.9 20.87
1 9 -4 77.59 12.18
1 9 -4 64.64 10.83
1 9 -3 167.16 18.4
-1 9 3 198.65 18.36
1 9 -2 175.26 17.49
-1 9 2 173.59 17.43
-1 9 1 404.36 27.43
1 9 -1 410.97 27.55
-1 9 0 600.12 33.87
1 9 0 632.51 33.24
1 9 1 138.21 14.73
-1 9 -1 94.73 13.79
-1 9 -1 108.31 15.17
-1 9 -2 43.62 10.53
-1 9 -3 37.63 8.96
-1 9 -4 161.18 16.69
-1 9 -5 239.88 19.78
1 10 -6 535.25 24.14
1 10 -5 6.47 4.75
1 10 -4 863.62 37.02
1 10 -3 49.01 9.67
-1 10 2 135.3 14.6
1 10 -2 155.37 15.85
-1 10 1 163.21 16.83
1 10 -1 146.08 15.67
1 10 0 100.73 12.94
-1 10 0 83.76 12.4
1 10 1 1184.88 44.15
-1 10 -1 1292.54 49.02
-1 10 -2 702.44 35.2
-1 10 -3 1263.97 47.48
-1 10 -4 15.94 5.3
-1 10 -5 102.45 11.51
1 11 -6 8.93 2.74
1 11 -5 258.44 15.23
1 11 -4 28.08 6.14
1 11 -3 160.36 13.96
1 11 -2 86.46 11.35
-1 11 1 50.53 8.71
1 11 -1 49.59 8.04
1 11 0 262.2 17.92
-1 11 0 275.68 19.56
1 11 1 99.58 10.75
-1 11 -1 115.11 12.96
-1 11 -2 225.03 17.79
-1 11 -3 195.46 15.37
1 12 -3 40.74 5.41
1 12 -2 45.21 5.98
1 12 -1 53.33 6.56
1 12 0 8.93 3.2
2 -11 0 296.81 16.33
2 -11 1 70.57 8.26
2 -11 2 59.08 7.78
2 -11 3 26.12 5.81
2 -11 4 199.72 12.48
-2 -10 7 176.75 12.11
2 -10 0 79.05 11.43
2 -10 1 411.44 24.51
2 -10 2 202.49 18.05
2 -10 3 29.48 7.26
2 -10 4 382.14 22.29
2 -10 4 342 17.75
2 -10 5 27.16 6.34
2 -10 5 17.5 4.85
2 -10 6 365.83 16.56
2 -10 6 371.51 16.33
-2 -9 9 59.04 6.29
-2 -9 8 207.64 14.48
2 -9 -1 174.19 17.3
2 -9 0 1322.62 50.52
2 -9 1 104.85 15.19
2 -9 2 465.39 29.4
2 -9 3 54.68 12.3
2 -9 4 455.46 27.89
2 -9 5 459.24 25.9
2 -9 6 189.59 15.18
2 -9 6 192.71 14.97
2 -9 7 333.91 17.8
2 -9 7 304.78 15.49
2 -9 8 104.98 8.18
-2 -8 9 302.34 18.35
2 -8 -3 134.82 16.33
2 -8 -2 118.52 15.38
2 -8 -1 417.7 27.82
2 -8 -1 422 28.95
2 -8 0 532.83 32.83
2 -8 0 510.5 32.06
2 -8 1 164.85 18.25
2 -8 2 110.8 14.31
2 -8 4 155.25 18.05
2 -8 5 50.12 11.18
2 -8 6 296.36 20.95
2 -8 7 41.32 7.07
2 -8 7 43.87 7.63
2 -8 8 44.09 6.95
2 -8 8 33.74 6.51
2 -8 9 20.23 4.09
2 -8 9 24.04 4.15
-2 -7 10 116.73 10.73
-2 -7 10 113.06 11.39
-2 -7 9 53.66 9.61
-2 -7 8 859.21 38.32
-2 -7 7 327.13 24.16
2 -7 -4 170.62 17.7
2 -7 -3 34.87 8.96
2 -7 -2 886.41 41.87
2 -7 -1 39.5 9.35
2 -7 0 2067.26 69.2
2 -7 1 1268.16 51.72
2 -7 2 1145.22 47.25
2 -7 3 137.08 14.91
2 -7 4 319.83 24.93
2 -7 5 144.07 16.16
2 -7 5 122.59 15.38
2 -7 6 22.3 7.81
2 -7 6 11.82 6.62
2 -7 7 290.23 20.21
2 -7 7 311.44 22.32
2 -7 8 97.12 12.06
2 -7 9 116.23 11.44
2 -7 9 106.14 10.33
2 -7 10 34.36 5.31
-2 -6 11 136.52 12.43
-2 -6 10 291.77 20.8
-2 -6 9 209.98 19.67
-2 -6 8 410.61 29.06
2 -6 -5 134.87 14.75
2 -6 -4 124.55 14.5
2 -6 -3 261.11 20.64
2 -6 -2 37.3 8.62
2 -6 -1 1108.4 45.52
2 -6 0 78.97 12.68
2 -6 1 645.74 34.74
2 -6 2 15.14 7.34
2 -6 3 435.83 25.79
2 -6 4 471.69 29.6
2 -6 5 324.71 25.07
2 -6 5 341.17 25.85
2 -6 5 305.51 23.41
2 -6 6 353.53 25.16
2 -6 6 333.48 25.85
2 -6 6 323.92 23.34
2 -6 7 45.57 10.13
2 -6 7 47.06 10.12
2 -6 8 238.74 19.4
2 -6 8 232.2 19.77
2 -6 9 198.59 16.97
2 -6 9 215.97 16.85
2 -6 9 207.09 16.22
2 -6 10 168.73 13.46
2 -6 10 159.49 11.28
2 -6 10 181 12.69
2 -6 11 44.18 5.29
-2 -5 12 37.51 6.48
-2 -5 11 264.56 20.24
-2 -5 10 35.48 9
-2 -5 9 143.97 18.29
-2 -5 8 446.57 29.79
-2 -5 7 278.95 23.74
-2 -5 6 273.67 22.32
2 -5 -5 240.72 19.17
2 -5 -4 76.02 11.1
2 -5 -3 347.62 22.19
2 -5 -2 401.96 24.44
2 -5 -1 -5.24 5.11
2 -5 0 900.19 38.34
2 -5 1 267.5 20.05
2 -5 2 1562.41 51.82
2 -5 3 199.48 16.74
2 -5 4 383.66 25.36
2 -5 5 356.07 25.37
2 -5 5 317.84 25.65
2 -5 5 327.52 23.56
2 -5 6 106.04 14.17
2 -5 6 114.37 15.96
2 -5 6 88.49 13.51
2 -5 7 679.07 34.79
2 -5 7 782.04 40.26
2 -5 7 739.22 37.67
2 -5 8 110.8 15.03
2 -5 8 108.23 14.11
2 -5 9 478.71 27.55
2 -5 9 468.5 28.67
2 -5 9 441.27 25.56
2 -5 10 140.98 14.33
2 -5 10 137.98 11.71
2 -5 10 143.31 13.38
2 -5 11 304.68 15.86
2 -5 11 325.02 17.2
-2 -4 12 426.38 23.14
-2 -4 12 384.09 19.28
-2 -4 11 314.14 20.86
-2 -4 11 360.1 25.22
-2 -4 10 131.87 15.83
-2 -4 10 139.95 18.05
-2 -4 9 350.23 26.08
-2 -4 8 437.77 30.69
-2 -4 8 447.5 30.22
-2 -4 7 125.54 16.68
-2 -4 7 165.52 18.49
-2 -4 7 140.63 15.94
-2 -4 6 154.95 16.41
-2 -4 5 1261.37 46.96
2 -4 -5 1272.07 44.11
-2 -4 4 613.98 29.3
2 -4 -4 586.01 28.56
2 -4 -3 2506.26 65.74
2 -4 -2 78.17 10.59
2 -4 -1 570.35 27.24
2 -4 0 232.02 16.8
2 -4 1 1264.29 42.44
2 -4 2 262.21 18.29
2 -4 3 398.29 22.11
2 -4 4 989.17 39.81
2 -4 5 87.67 12.1
2 -4 6 484.09 31.9
2 -4 6 537.92 30.41
2 -4 6 463.25 30.26
2 -4 6 570.2 34.95
2 -4 7 261.19 23.87
2 -4 7 253.05 20.95
2 -4 7 248.94 22.18
2 -4 8 49.12 11.47
2 -4 8 71.05 13.05
2 -4 9 438.45 28.79
2 -4 9 484.43 26.82
2 -4 9 492.46 29.35
2 -4 10 377.21 24.6
2 -4 10 344.78 22.79
2 -4 11 12.3 4.45
2 -4 11 15.15 4.83
2 -4 12 212.92 11.42
-2 -3 13 347.25 16.2
-2 -3 12 9.97 5.61
-2 -3 12 -4.06 5.13
-2 -3 11 226.52 20.02
-2 -3 11 209.48 19.72
-2 -3 10 115.21 16.15
-2 -3 10 120.73 16.75
-2 -3 9 453.74 30.85
-2 -3 9 453.74 32.03
-2 -3 8 521.23 34.01
-2 -3 8 524.14 33.2
-2 -3 7 506.97 29.52
-2 -3 7 487.26 30.23
-2 -3 6 716.18 35.24
2 -3 -5 700.34 29.83
2 -3 -4 2177.32 58.4
2 -3 -3 934.52 34.53
2 -3 -2 1679.5 48.29
2 -3 -1 252.87 16.67
2 -3 0 1778.65 48.91
2 -3 1 68.16 8.87
2 -3 2 1667.23 46.86
2 -3 3 771.61 32.41
2 -3 3 711 28.36
2 -3 4 1366.01 45.85
2 -3 5 716.94 33.41
2 -3 5 716.59 37.85
2 -3 6 388.12 29.13
2 -3 6 380.59 25.41
2 -3 7 394.9 28.95
2 -3 7 420.77 30.16
2 -3 7 411.86 26.86
2 -3 7 407.35 29.23
2 -3 8 430.13 30.45
2 -3 8 448.1 28.07
2 -3 8 454.42 31.05
2 -3 8 391.97 26.71
2 -3 8 405.63 29.34
2 -3 9 770.45 39.64
2 -3 9 712.33 37.67
2 -3 10 85.95 12.17
2 -3 10 74.45 11.39
2 -3 11 231.01 16.86
2 -3 11 263.4 18.21
2 -3 12 1.69 2.5
-2 -2 13 76.79 8.4
-2 -2 13 79.07 7.84
-2 -2 12 791.14 33.46
-2 -2 12 764.17 33.85
-2 -2 11 839.28 39.53
-2 -2 11 892.13 40.95
-2 -2 10 99.23 15.81
-2 -2 9 601.62 36.31
-2 -2 9 608.37 36.9
-2 -2 8 156.57 19.53
-2 -2 8 155.48 17.92
-2 -2 8 161.42 17.1
-2 -2 7 343.27 24.9
-2 -2 7 378.54 25.21
-2 -2 6 293.85 21.3
2 -2 -5 2469.11 61.24
2 -2 -4 1027.33 35.34
2 -2 -3 4928.27 99.15
2 -2 -2 641.63 26.16
2 -2 -1 1206.78 37
2 -2 0 75.95 9.15
-2 -2 0 86.02 16.08
2 -2 1 10.72 3.87
2 -2 2 247.88 15.12
2 -2 3 657.68 28.1
2 -2 3 581.85 23.32
2 -2 4 532.32 26.79
2 -2 4 550.89 29.3
2 -2 5 662.52 31.29
2 -2 5 632.14 34.26
2 -2 6 288.93 21.3
2 -2 6 185.38 19.36
2 -2 7 170.5 18.93
2 -2 7 153.27 17.82
2 -2 7 186.34 18.09
2 -2 8 181.95 19.86
2 -2 8 166.41 19.19
2 -2 8 174.55 17.99
2 -2 8 169.66 18.44
2 -2 8 166.25 17.08
2 -2 9 187.54 17.66
2 -2 9 155.09 18.39
2 -2 9 162.1 18.01
2 -2 10 380.4 25.86
2 -2 10 338.52 22.21
2 -2 10 363.32 25.03
2 -2 11 21.52 5.76
2 -2 11 21.25 5.78
2 -2 11 20.27 5.73
2 -2 12 163.8 12.13
-2 -1 13 237.93 15.41
-2 -1 12 152.25 14.07
-2 -1 12 160.28 16.05
-2 -1 11 98.66 14.49
-2 -1 11 87.18 12.23
-2 -1 10 22.36 9.75
-2 -1 9 180.96 19.59
-2 -1 9 197.99 21.63
-2 -1 8 23.11 7.88
-2 -1 8 12.8 8.55
-2 -1 8 17.65 7.49
-2 -1 7 127.04 14.2
-2 -1 6 457.3 25.84
2 -1 -5 238.77 16.04
2 -1 -4 1838.04 49.37
2 -1 -3 317.38 17.8
2 -1 -2 1551.88 42.86
-2 -1 1 838.33 51.59
2 -1 -1 799.73 28.1
-2 -1 0 870.65 56.74
2 -1 0 827.49 28.09
2 -1 1 3382.21 72.45
2 -1 1 3397.16 70.12
2 -1 2 1720.72 46.81
2 -1 2 1655.35 42.25
2 -1 3 811.05 31.91
2 -1 4 1837.43 53.33
2 -1 5 116.17 13.26
2 -1 5 128.95 14.36
2 -1 6 778.87 38.04
2 -1 6 826.91 36.31
2 -1 7 1194.78 49.89
2 -1 7 1329.24 48.79
2 -1 8 94.69 14.32
2 -1 8 104 14.88
2 -1 8 104.21 15.65
2 -1 9 763.28 39.38
2 -1 9 717.04 37.13
2 -1 9 728.52 38.59
2 -1 10 91.44 12.53
2 -1 10 92.05 12.7
2 -1 10 85.44 12.79
2 -1 11 391.35 22.7
2 -1 11 405.75 24.11
2 -1 12 0.87 3.25
2 -1 12 10.8 4.76
-2 0 13 16.73 5.58
-2 0 12 362 23.4
-2 0 11 996.11 44.44
-2 0 10 697.58 35.58
-2 0 10 702.05 39.37
-2 0 9 25.16 9.44
-2 0 9 40.69 11.48
-2 0 8 272.37 22.54
-2 0 7 281.97 21.11
-2 0 6 243.9 18.72
-2 0 5 2802.86 71.03
-2 0 4 468.57 24.37
2 0 -4 514.72 23.98
2 0 -3 3747.51 80.12
2 0 -2 275.52 16.28
-2 0 1 1012.07 62.17
2 0 -1 965.11 26.18
2 0 -1 982.19 31.34
2 0 0 312.66 16.15
2 0 0 321.02 15.13
-2 0 0 353.52 37.13
2 0 1 173.5 11.77
2 0 1 163.93 11.88
2 0 2 44.53 8.6
2 0 2 51.15 7.46
2 0 3 1948.2 53.47
2 0 4 961.52 36.97
2 0 5 2616.4 70.06
2 0 6 393.76 25.07
2 0 7 174.45 16.67
2 0 8 239.1 21.38
2 0 8 231.93 22.08
2 0 8 192.33 19.59
2 0 9 305.36 23.34
2 0 9 281.19 24.04
2 0 9 256.64 22.57
2 0 10 292.84 23
2 0 10 315.81 23.57
2 0 11 31.4 8.16
2 0 11 36.58 7.54
2 0 12 320.97 17.78
2 0 12 297.03 15.48
-2 1 13 256.67 15.83
-2 1 12 133.95 13.93
-2 1 11 393.46 27.24
-2 1 10 63.13 12.36
-2 1 9 323.22 24.73
-2 1 9 357.27 27.64
-2 1 8 65.77 11.89
-2 1 6 526.69 28.88
-2 1 5 272.15 19.89
-2 1 4 1857.37 53.47
-2 1 3 264.79 17.3
-2 1 2 1804.58 47.99
-2 1 1 941.72 29.72
2 1 0 198.93 11.72
2 1 1 4276.87 83.13
2 1 2 1621.34 44.66
2 1 3 944.72 34.69
2 1 4 1776.01 53.42
2 1 5 225.38 18.73
2 1 8 22.91 9.3
2 1 8 34.29 9.83
2 1 9 605.64 35.68
2 1 9 603.51 33.5
2 1 10 30.3 8.32
2 1 10 52.18 9.5
2 1 11 378.68 23.92
2 1 12 1.61 3.47
-2 2 13 73.68 7.95
-2 2 13 50.75 5.97
-2 2 12 390.41 22.81
-2 2 11 979.98 41.73
-2 2 10 18.88 8.11
-2 2 9 387.32 28.1
-2 2 8 222.84 20.31
-2 2 4 1133.15 40.98
-2 2 3 4727.98 97.89
-2 2 2 630.1 25.68
-2 2 1 1625.83 41.55
-2 2 0 79.84 7.19
2 2 1 346.13 17.15
2 2 2 387.61 19.62
2 2 7 307.48 24.47
2 2 8 597.14 35.85
2 2 9 259.34 22.98
2 2 10 328.12 24.86
2 2 11 32.62 8.18
2 2 12 74.76 8.62
2 3 -13 215.31 12.32
-2 3 12 15.58 4.96
-2 3 11 104.77 12.74
-2 3 10 187.89 17.97
-2 3 9 456.51 29.11
2 3 7 471.39 30.57
2 3 8 284.54 24.18
2 3 9 874.56 42.59
2 3 10 75.1 11.99
2 3 11 206.28 16.61
2 3 12 4.91 2.8
2 4 6 457.7 28.67
2 4 6 399.47 25.57
2 4 7 258.04 22.24
2 4 8 243.14 21.66
2 4 9 281.65 23.13
2 4 10 328.97 22.29
2 4 11 23.46 5.94
2 5 -12 27.01 5.45
-2 5 -1 398.4 22.31
2 5 5 131.24 14.73
2 5 6 318.34 23.28
2 5 6 270.62 21.69
2 5 7 725.25 36.86
2 5 8 65.5 11.12
2 5 9 804.51 35.53
2 5 10 165.81 13.57
2 6 -11 121.49 11.32
2 6 -10 296.97 21.19
2 6 -9 139.71 16.17
2 6 -8 429.5 29.61
2 6 -7 53.15 12.51
2 6 -6 91.64 13.48
2 6 -6 88.52 14.66
2 6 -5 183.35 20.59
-2 6 -1 667.89 31.41
-2 6 -2 55.04 9.55
2 6 4 352.02 25.86
2 7 -11 164.37 10.57
2 7 -10 31.4 6.61
2 7 -9 95.68 12.71
2 7 -8 710.26 35.79
2 7 -7 183.94 15.88
2 7 -7 194.26 19.6
2 7 -6 1105.32 45.25
2 7 -6 1079.81 48.57
2 7 -5 99.48 14.66
2 7 -5 139.1 18.23
2 7 -4 229.66 21.83
2 7 -4 215.67 22.06
2 7 -3 20.56 8.94
2 7 -3 19.93 8.08
-2 7 2 1008.83 43.27
2 7 -2 992.49 44.93
2 7 -1 65.11 13.27
-2 7 1 88.4 14.13
-2 7 1 86.41 13.67
2 7 0 1896.5 62.64
2 7 0 1920.26 62.38
-2 7 0 1782.71 65.59
2 7 1 1377.96 50.35
2 7 1 1443.06 53.44
-2 7 -2 737.03 36.52
2 7 2 774.75 39.38
-2 7 -2 768.5 40.15
-2 7 -3 149.01 17.33
2 7 3 154.43 17.94
-2 7 -3 138.91 16.86
-2 7 -4 299.25 25.01
-2 7 -4 313.38 23.31
2 8 -10 111.49 8.77
2 8 -9 117.44 11.65
2 8 -8 132.67 13.91
2 8 -7 478.7 23.94
2 8 -7 514.15 29.25
2 8 -6 27.74 7.43
2 8 -6 35.66 9.4
2 8 -5 164.01 17.01
2 8 -5 180.85 19.37
2 8 -4 17.18 8.16
2 8 -4 10.12 7.08
2 8 -3 262.16 22.35
2 8 -3 219.79 21.17
2 8 -2 115.01 15.77
2 8 -2 120.77 15.83
2 8 -1 618.14 34.02
2 8 -1 580.35 34.4
-2 8 1 654.93 37.76
2 8 0 410.73 27.27
-2 8 0 351.41 27.62
2 8 1 199.04 17.75
-2 8 -1 204.67 20.79
-2 8 -2 153.05 17.61
-2 8 -3 106.51 14.79
2 9 -8 231.94 14.49
2 9 -7 9.61 3.75
2 9 -7 7.25 4.26
2 9 -6 556.02 26.41
2 9 -6 515.53 27.06
2 9 -5 21.1 7.32
2 9 -5 16.49 8.04
2 9 -4 45.15 9.52
2 9 -4 40.83 9
2 9 -3 196.05 18.74
2 9 -3 207.35 19.56
2 9 -2 307.98 22.78
2 9 -2 264.54 22.35
2 9 -1 142.49 16.06
2 9 0 1025.15 42.8
2 9 1 103.16 12.75
2 10 -7 64.9 6.58
2 10 -6 0.28 2.48
2 10 -6 4.97 3.5
2 10 -5 102.76 10.99
2 10 -5 75.53 9.1
2 10 -4 -3.31 4.35
2 10 -3 177.52 15.81
2 10 -2 30.16 8.18
2 10 -1 197.98 16.85
2 10 0 45.79 8.5
2 10 1 398.81 21.95
2 11 -5 1.62 1.98
2 11 -4 19.73 4.32
2 11 -3 133.65 10.96
2 11 -2 38.23 6.37
2 11 -1 34.63 6.33
2 11 0 383.85 18.72
3 -10 0 127.5 10.29
3 -10 1 138.14 11.6
3 -10 2 153.7 11.78
3 -10 3 292.55 15.57
3 -10 4 77.47 7.29
3 -9 -1 165.8 14.51
3 -9 0 29.78 7.77
3 -9 1 176.77 16.14
3 -9 2 -0.46 4.85
3 -9 3 350.85 21.25
3 -9 4 23.24 5.8
3 -9 4 26.98 5.26
3 -9 5 391.05 18.63
3 -9 5 405.08 17.46
3 -9 6 27.75 4.23
3 -8 -1 52.91 9.87
3 -8 0 57.41 10.17
3 -8 1 156.77 17.54
3 -8 2 422.9 28.4
3 -8 3 57.63 10.26
3 -8 3 59.89 9.36
3 -8 4 287.76 20.95
3 -8 4 277.03 19.07
3 -8 5 3.74 4.75
3 -8 5 -3.88 3.46
3 -8 6 220.32 14.31
3 -8 6 205.55 14.22
3 -8 7 25.78 4.6
-3 -7 9 36.86 6.04
-3 -7 8 213.76 15.97
3 -7 -1 96.64 13.3
3 -7 -1 85.3 14.16
3 -7 0 168.78 18.63
3 -7 0 116.32 15.54
3 -7 1 192.89 20.99
3 -7 2 5.42 6.77
3 -7 2 6.72 5.84
3 -7 3 478.89 31.27
3 -7 3 445.91 28
3 -7 4 38.29 9.85
3 -7 4 24.52 8.25
3 -7 5 375.02 24.44
3 -7 5 394.49 24.6
3 -7 6 141.4 13.34
3 -7 6 130.64 13.81
3 -7 7 287.58 17.54
3 -7 8 13.74 3.61
-3 -6 10 4.68 3.94
-3 -6 9 288.26 20.25
3 -6 -4 343.58 25.22
3 -6 -3 132.55 15.95
3 -6 -2 758.97 40.06
3 -6 -2 805.13 37.73
3 -6 -1 619.12 34.24
3 -6 -1 614.15 36.22
3 -6 0 297.8 24.94
3 -6 0 259.18 23.57
3 -6 1 205.78 17.97
3 -6 1 172.73 18.93
3 -6 1 205.3 22.14
3 -6 2 616.06 33.54
3 -6 2 614.43 33.62
3 -6 3 19.85 7.62
3 -6 3 9.46 5.91
3 -6 3 14.02 7.14
3 -6 4 827.8 40.65
3 -6 4 717.02 38.73
3 -6 5 79.74 12.95
3 -6 5 85.99 12.43
3 -6 5 81.76 13.36
3 -6 5 64.04 9.83
3 -6 6 170.14 15.89
3 -6 6 180.64 17.11
3 -6 6 141.48 16.14
3 -6 6 174.73 15.6
3 -6 7 264.28 18.99
3 -6 7 260.48 18.88
3 -6 7 250.02 17.35
3 -6 8 93.72 10.02
3 -6 8 88.46 9.11
3 -6 9 142.76 9.62
3 -6 9 129.63 8.9
-3 -5 11 4.49 4.14
-3 -5 10 107.14 10.73
-3 -5 10 120.99 13.49
-3 -5 9 42.32 9.38
-3 -5 8 143.4 16.56
-3 -5 7 46.08 10.57
-3 -5 6 143 19.52
-3 -5 5 221.14 22.46
3 -5 -5 220.76 19.78
-3 -5 4 213.36 22.3
3 -5 -4 214.75 20.02
3 -5 -3 281 22.6
3 -5 -2 116.9 15.18
3 -5 -1 256.43 22.26
3 -5 0 2.64 5.22
3 -5 1 256.49 22.99
3 -5 1 208.52 19.52
3 -5 2 25.74 8.31
3 -5 2 29.51 9.32
3 -5 2 40.61 8.97
3 -5 2 37.31 10.47
3 -5 3 422.86 29.99
3 -5 3 461.07 30.35
3 -5 3 545.66 33.71
3 -5 3 486.41 28.96
3 -5 4 17.31 8.09
3 -5 4 15.54 8
3 -5 4 26.62 8.04
3 -5 4 10.49 7.45
3 -5 4 28.25 8.81
3 -5 5 183.35 18.88
3 -5 5 177.44 20
3 -5 5 195.07 20
3 -5 5 210.53 19.44
3 -5 6 51.2 9.88
3 -5 6 48.12 10.59
3 -5 6 54.96 10.03
3 -5 6 41.3 9.11
3 -5 7 596.1 32.64
3 -5 7 540.31 29.68
3 -5 7 626.17 31.38
3 -5 8 65.72 10.45
3 -5 8 68.48 9.79
3 -5 8 67.31 9.78
3 -5 9 279.54 15.45
3 -5 9 258.95 15.94
3 -5 10 291.54 13.27
-3 -4 11 129.43 12.81
-3 -4 11 125.83 11.46
-3 -4 10 29.18 7.24
-3 -4 10 25.3 9.42
-3 -4 9 487.81 30.73
-3 -4 8 285.83 25.18
-3 -4 7 821.21 43.8
-3 -4 7 699.68 37.78
-3 -4 7 773.26 39.37
-3 -4 6 114.12 18.59
-3 -4 6 144.2 16.51
-3 -4 5 785.89 43.51
3 -4 -5 888.51 40.1
3 -4 -4 590.26 32.61
3 -4 -3 414.11 26.84
3 -4 -2 123.68 14.72
3 -4 -1 224.25 19.82
3 -4 0 867.55 39.4
3 -4 1 280.05 21.98
3 -4 2 1240.33 50.06
3 -4 2 1146.3 45.26
3 -4 3 240.45 22.53
3 -4 3 255.93 21.81
3 -4 3 255.12 22.12
3 -4 3 212.86 19.7
3 -4 4 263.42 22.58
3 -4 4 269.33 23.96
3 -4 4 240.59 22.12
3 -4 4 296.49 23.8
3 -4 4 256.7 23.06
3 -4 5 9.26 6.75
3 -4 5 28.61 9.56
3 -4 5 4.48 6.44
3 -4 5 13.56 6.36
3 -4 5 27.25 8.28
3 -4 6 154.87 18.23
3 -4 6 174.78 19.17
3 -4 6 192.28 19.76
3 -4 7 27.22 9.49
3 -4 7 13.84 7.31
3 -4 7 22.39 8.16
3 -4 8 436.49 27.65
3 -4 8 463.88 25.63
3 -4 8 465.66 27.55
3 -4 9 134.97 11.3
3 -4 9 132 12.94
3 -4 10 107.19 9.43
-3 -3 12 261.26 14.55
-3 -3 12 259.25 14.49
-3 -3 11 16.1 6.41
-3 -3 11 25.1 7.61
-3 -3 10 477.03 29.29
-3 -3 9 68.65 13.38
-3 -3 8 571.22 36.28
-3 -3 7 153.61 18.14
-3 -3 7 166.14 20.1
-3 -3 7 138.82 17.26
-3 -3 6 424.39 31.84
3 -3 -6 421.99 26.81
-3 -3 6 436.77 29.82
3 -3 -5 910.88 40.12
3 -3 -4 1340.59 49.56
3 -3 -3 945.21 40.07
3 -3 -2 94.38 12.46
3 -3 -1 879.54 37.73
3 -3 0 531.87 28.83
3 -3 1 1376.81 50.73
3 -3 1 1337.3 47.77
3 -3 2 15.75 8.15
3 -3 2 10.58 5.62
3 -3 3 1368.85 52.32
3 -3 4 364.76 26.74
3 -3 4 381.34 28.2
3 -3 4 348.34 25.47
3 -3 4 419.73 27.81
3 -3 4 356.56 26.55
3 -3 5 558.52 32.1
3 -3 5 456.4 32.36
3 -3 5 518.15 31.86
3 -3 5 496.29 32.9
3 -3 5 599.42 33.61
3 -3 6 88.7 13.54
3 -3 6 75.27 13.52
3 -3 6 86.72 13.59
3 -3 6 77.59 13.85
3 -3 7 232.95 22.3
3 -3 7 269.14 21.52
3 -3 7 254.25 23.42
3 -3 8 271.58 22.52
3 -3 8 272.09 19.75
3 -3 8 252.51 21.64
3 -3 9 171.03 16.16
3 -3 10 134.69 11.84
3 -3 11 8.39 2.9
-3 -2 12 138.56 10.87
-3 -2 12 115.67 10.98
-3 -2 11 329.9 21.56
-3 -2 11 351.01 22.49
-3 -2 10 26.26 9.1
-3 -2 9 154.84 19.36
-3 -2 8 136.03 19.26
-3 -2 8 98.61 15.24
-3 -2 8 105.75 14.8
-3 -2 7 538.44 35.92
-3 -2 7 504.48 31.56
-3 -2 6 56.94 12.71
-3 -2 6 78.54 13.51
3 -2 -6 64.02 10.55
3 -2 -5 656.14 33.21
3 -2 -4 480.36 28.1
3 -2 -3 196.58 17.8
3 -2 -2 559.21 29.55
3 -2 -1 357.77 21.25
3 -2 -1 440.38 25.14
3 -2 0 1501.45 49.74
3 -2 0 1699.21 52.42
3 -2 1 532.95 28.49
3 -2 1 547.04 27.74
3 -2 2 1472.47 48.61
3 -2 2 1470.06 51.71
3 -2 3 100.93 13.86
3 -2 4 235.29 20.94
3 -2 5 171.04 19.4
3 -2 5 164.76 17.34
3 -2 5 174.9 18.66
3 -2 5 133.75 17
3 -2 6 312.88 26.33
3 -2 6 331.22 24.37
3 -2 6 360.94 25.84
3 -2 7 11.21 6.92
3 -2 7 24.59 8.08
3 -2 7 6.11 5.81
3 -2 8 516.15 32.26
3 -2 9 22.48 7.49
3 -2 10 228.76 16.45
3 -2 11 73.16 7.04
-3 -1 12 473.79 22.72
-3 -1 11 98.75 13.03
-3 -1 11 124.22 12.99
-3 -1 10 428.32 29.37
-3 -1 9 14.66 8.02
-3 -1 8 186.95 21.42
-3 -1 8 170.19 18.63
-3 -1 7 171.92 21.61
-3 -1 7 170.67 18.11
-3 -1 6 28.94 8.59
-3 -1 5 451.15 28.12
3 -1 -4 278.8 21.34
3 -1 -3 302.29 21.8
3 -1 -2 1190.69 44.02
3 -1 -1 299.87 20.6
3 -1 0 1976.07 57.42
3 -1 0 1955.36 54.42
3 -1 1 1446.38 47.07
3 -1 1 1373.13 46.16
3 -1 2 90.12 11.78
3 -1 2 90.86 11.34
3 -1 3 629.5 32.27
3 -1 4 17.92 8.1
3 -1 5 220.37 21.12
3 -1 5 238.74 19.66
3 -1 5 220.68 21.61
3 -1 5 239.69 20.71
3 -1 6 511.97 33.07
3 -1 6 469.4 30.44
3 -1 6 541.32 30.25
3 -1 6 475.23 32.93
3 -1 6 532.77 31.3
3 -1 7 1205.64 49.91
3 -1 7 1239.33 48.63
3 -1 8 30.91 7.86
3 -1 8 16.07 7.21
3 -1 9 384.86 23.2
3 -1 9 374.89 24.67
3 -1 10 63.36 7.98
3 -1 10 66.57 9.42
3 -1 11 20.04 4.3
-3 0 12 223.22 15.84
-3 0 11 1472.22 50.71
-3 0 10 30.74 12.27
-3 0 9 558.6 35.52
-3 0 8 71.43 14.13
-3 0 7 160.97 17.88
-3 0 7 166.38 20.33
-3 0 6 21.6 7.7
-3 0 5 907.15 40.62
-3 0 4 51.45 9.93
-3 0 3 169.6 16.43
3 0 -2 434.32 25.82
3 0 -1 36.96 8.68
3 0 0 1534.82 48.97
3 0 0 1514.08 44.02
3 0 1 6.88 4.18
3 0 2 1357.53 46.57
3 0 3 139.4 15.08
3 0 4 348.1 24.42
3 0 5 1128.77 47.57
3 0 5 1132.34 46.68
3 0 6 52.6 10.19
3 0 6 49.04 10.17
3 0 6 51.97 10.26
3 0 7 701.51 39.7
3 0 7 818.04 41.08
3 0 8 879.71 42.01
3 0 8 841.69 40.65
3 0 9 115.72 13.53
3 0 9 118.09 13.72
3 0 10 333.98 19.78
3 0 10 328.46 19.35
3 0 11 241.81 13.25
-3 1 12 666.67 26.91
-3 1 11 131.29 14.02
-3 1 10 622.67 34.46
-3 1 9 17.58 8.58
-3 1 8 196.82 21.8
-3 1 7 178.3 20.5
-3 1 6 206.76 19.28
-3 1 5 366.35 25.82
-3 1 4 455.78 27.59
-3 1 3 306.78 21.19
-3 1 2 1330.5 44.49
-3 1 1 75.44 9.63
3 1 1 1733.98 49.51
3 1 2 52.49 8.93
3 1 3 847.31 36.62
3 1 4 37.06 9.6
3 1 5 1.67 5.95
3 1 5 4.51 5.6
3 1 6 655.84 37.88
3 1 6 653.05 34.59
3 1 7 1079.82 49.94
3 1 7 1119.71 46.53
3 1 8 20.78 7.13
3 1 8 16.59 7.31
3 1 9 341.79 24.19
3 1 9 375.28 22.29
3 1 10 101.25 11.52
3 1 11 75.62 7.79
-3 2 12 168.48 11.23
-3 2 11 375.12 21.58
-3 2 10 28.35 8.18
-3 2 9 221.82 20.41
-3 2 8 162.23 18.45
-3 2 7 440.9 29.76
-3 2 4 316.02 23.57
-3 2 3 364.69 23.66
-3 2 2 556.82 27.41
3 2 5 144.56 16.99
3 2 5 150.67 15.72
3 2 6 96.11 15.06
3 2 7 58.86 12.08
3 2 8 586.39 34.42
3 2 9 32.07 8.04
3 2 10 233.83 17.14
3 3 -11 27.39 5.94
3 3 -10 296.04 20.01
3 3 -6 294.01 23.8
3 3 4 381.53 26.83
3 3 4 377.76 24.75
3 3 5 465.42 30.4
3 3 5 457.29 28.3
3 3 6 95.05 14.61
3 3 7 88.91 14.3
3 3 8 160.63 18.07
3 3 9 188.09 17.06
3 3 10 133.04 12.55
3 4 -11 94.95 9.46
3 4 -10 19.23 6.04
3 4 -9 203.63 18.26
3 4 -8 251.35 21.56
3 4 -7 322.43 25.75
3 4 -6 55.96 11.27
3 4 -5 657.29 36.78
3 4 3 297.75 23.35
3 4 4 195.89 19.84
3 4 4 195.64 18.7
3 4 5 18.27 8.99
3 4 6 134.16 16.41
3 4 6 97.4 12.44
3 4 7 8.65 6.69
3 4 8 326.09 23.36
3 4 9 70.28 9.91
3 5 -11 7.9 3.22
3 5 -10 223.63 15.8
3 5 -9 41.02 8.35
3 5 -8 71.24 12.43
3 5 -7 76.22 12.56
3 5 -6 85.26 13.68
3 5 -5 353.13 28.09
3 5 -4 434.56 30.5
3 5 -3 60.41 12.93
-3 5 3 75.12 14.01
3 5 -2 336.19 25.81
-3 5 2 389.96 28.52
-3 5 1 708.6 38.06
-3 5 0 29.55 9.41
3 5 1 696.35 37.74
3 5 2 27.77 11.05
3 5 3 430.38 29.91
3 5 5 176.83 17.77
3 5 6 44.2 10.27
3 6 -10 6.8 3.88
3 6 -9 335.23 20.61
3 6 -8 58.09 10.35
3 6 -7 276.04 20.11
3 6 -7 296.78 23.55
3 6 -6 22.61 8.81
3 6 -5 881.96 45.11
3 6 -4 174.29 19.5
3 6 -3 283.82 24.69
3 6 -2 567.01 34.55
-3 6 2 580.98 34.76
3 6 -1 377.34 27.19
-3 6 1 387.35 28.17
-3 6 0 227.54 21.48
3 6 0 211.06 20.01
-3 6 -1 174.14 19.91
3 6 3 16.66 6.79
3 6 4 542.98 32.52
3 6 5 98.84 13.68
3 7 -9 16.34 4.07
3 7 -8 227.81 16.9
3 7 -7 50.02 8.12
3 7 -7 51.92 9.82
3 7 -6 432.34 26.78
3 7 -6 505.17 30.29
3 7 -5 264.8 22.73
3 7 -5 257.57 22.9
3 7 -4 232.65 21.63
3 7 -3 446.45 30.78
3 7 -2 533.15 33.63
-3 7 2 520.57 31.9
3 7 -1 251.71 23.13
-3 7 1 275.77 23.07
-3 7 0 93.28 13.59
3 7 0 77.46 12.46
3 7 1 357.46 24.73
-3 7 -1 361.27 26.43
3 7 1 327.38 25.38
-3 7 -2 15.39 7.78
3 7 2 17 7.44
-3 7 -3 539.17 32.33
3 7 3 547.63 32.81
-3 7 -8 12.22 3.87
3 8 -8 138.97 11.39
3 8 -7 288.29 15.94
3 8 -7 309.02 18.94
3 8 -6 28.05 6.59
3 8 -6 17.35 6.85
3 8 -5 387.11 24.32
3 8 -5 374.45 25.28
3 8 -4 109.62 14.08
3 8 -4 136.77 16.49
3 8 -3 77.2 12.46
3 8 -3 69.27 12.5
3 8 -2 954.11 41.69
3 8 -2 1010.25 44.77
3 8 -1 59.45 11
-3 8 1 38.47 9.15
3 8 0 152.62 15.78
-3 8 0 149.18 15.88
-3 8 -1 189.21 17.94
-3 8 -2 332.48 23.49
-3 8 -3 60.93 10.78
-3 8 -4 289.24 20.22
-3 8 -5 13.16 4.95
-3 8 -6 224.76 14.15
3 9 -7 10.95 3.28
3 9 -6 111.16 9.73
3 9 -6 93.92 9.79
3 9 -5 107.32 11.13
3 9 -5 107.62 11.16
3 9 -4 87.46 11.11
3 9 -4 93.92 11.21
3 9 -3 299.11 20.25
3 9 -2 73.65 10.64
3 9 -1 156.49 14.45
3 9 0 38.13 8.24
3 10 -5 78.27 7.18
3 10 -4 99.56 8.97
3 10 -3 153.83 11.65
3 10 -2 252.04 15.17
3 10 -1 20.53 4.86
3 10 0 26.19 4.86
4 -9 -2 30.05 4.51
4 -9 -1 310.78 14.65
4 -9 0 4.03 2.9
4 -9 1 109.34 8.58
4 -9 1 132.6 9.14
4 -9 2 44.1 5.21
4 -9 2 44.89 4.86
4 -8 -4 136.82 9.87
4 -8 -3 11.86 4.07
4 -8 -2 340.82 18.71
4 -8 -1 94.98 9.69
4 -8 -1 109.91 11.17
4 -8 0 51.93 8.11
4 -8 0 50.59 8.27
4 -8 1 343.97 19.98
4 -8 1 381.19 20.04
4 -8 2 94.17 10.08
4 -8 2 127.71 10.77
4 -8 3 185.11 13.12
4 -8 3 177.82 10.94
4 -8 4 221.51 12.56
4 -7 -4 7.93 3.99
4 -7 -3 576.16 27.21
4 -7 -2 5.07 3.52
4 -7 -2 9.59 6.43
4 -7 -1 684.31 31.93
4 -7 -1 734.86 33.22
4 -7 0 201.13 18.04
4 -7 0 222.85 18.93
4 -7 1 175.26 17.26
4 -7 2 104.37 13.42
4 -7 2 102.71 10.38
4 -7 3 46.84 8.77
4 -7 3 56.7 7.82
4 -7 3 51.45 7.78
4 -7 4 51.25 7.8
4 -7 4 53.8 7.43
4 -7 4 59.3 6.56
4 -7 5 304.6 15.58
4 -7 5 294.37 15.06
4 -7 6 226.18 11.3
-4 -6 8 36.23 6.24
-4 -6 6 94.92 11.25
-4 -6 5 40.16 8.96
4 -6 -5 32.13 6.64
-4 -6 4 263.64 20.62
4 -6 -4 301.78 19.96
-4 -6 3 50.42 10.63
4 -6 -3 47.09 9.05
-4 -6 2 400.34 26.52
4 -6 -2 354.71 23.83
4 -6 -2 363.55 24.1
4 -6 -1 7.19 6.13
4 -6 -1 9.69 5.62
4 -6 0 30.6 9.12
4 -6 1 121.35 16.51
4 -6 1 156.65 14.37
4 -6 2 7.69 6.84
4 -6 2 6.09 4.66
4 -6 3 110.95 14.49
4 -6 3 107.53 12.62
4 -6 3 127.73 12.83
4 -6 4 223.32 17.48
4 -6 4 214.55 16.78
4 -6 4 208.69 14.19
4 -6 5 130.42 12.11
4 -6 5 133.92 12.16
4 -6 5 113.83 9.87
4 -6 6 108.37 9.68
4 -6 6 112.83 8.51
4 -6 7 101.64 7.66
-4 -5 9 186.62 13.36
-4 -5 9 162.55 11.14
-4 -5 8 73.14 10.18
-4 -5 7 199.35 17.38
-4 -5 6 15.71 7.37
-4 -5 5 117.82 15.35
4 -5 -5 140.27 14.3
-4 -5 4 27.08 9.66
4 -5 -4 13.53 7.17
-4 -5 3 790.68 41.67
4 -5 -3 708.01 34.84
4 -5 -2 12.06 6.41
4 -5 -2 5.04 5.63
4 -5 -1 326.58 24.5
4 -5 -1 350.01 25.03
4 -5 0 117.58 16.36
4 -5 0 115.86 13.28
4 -5 0 124.93 15.7
4 -5 0 134.43 13.71
4 -5 1 27.75 9.92
4 -5 1 24.15 7.79
4 -5 1 34.45 7.65
4 -5 2 191.01 20.11
4 -5 2 209.05 19.07
4 -5 2 202.33 18.82
4 -5 2 216.88 18.06
4 -5 3 44.1 10.62
4 -5 3 40.65 8.81
4 -5 3 52.97 9.7
4 -5 3 64.45 10.37
4 -5 4 26.15 8.26
4 -5 4 35.05 7.48
4 -5 5 89.86 11.05
4 -5 5 67.18 10.54
4 -5 5 82.34 10.23
4 -5 6 228.94 15.65
4 -5 6 206.71 14.36
4 -5 7 50.28 6.38
4 -5 7 50.05 6.5
-4 -4 10 132.13 10.75
-4 -4 10 108.94 9.02
-4 -4 9 313.68 18.95
-4 -4 8 220.04 18.72
-4 -4 7 96.54 14.09
-4 -4 6 356.5 27.29
-4 -4 5 -1.61 6.84
4 -4 -5 14.82 6.75
-4 -4 4 331.73 27.68
4 -4 -4 359.54 24.51
4 -4 -3 631.34 33.64
4 -4 -3 675.81 31.81
4 -4 -2 951.21 42.43
4 -4 -2 930.33 41.22
4 -4 -2 945.64 44.32
4 -4 -2 980.17 39.76
4 -4 -1 8.52 7.05
4 -4 -1 4.24 6.68
4 -4 -1 17.23 7.12
4 -4 -1 17.4 8.25
4 -4 0 329.52 26.28
4 -4 0 370.66 24.54
4 -4 0 393.9 26.57
4 -4 0 368.75 26.92
4 -4 0 375.34 24.93
4 -4 1 240.84 22.1
4 -4 1 210.75 18.74
4 -4 1 232.29 20.81
4 -4 1 230.83 19.88
4 -4 2 80.37 13.63
4 -4 2 73.67 11.8
4 -4 2 77.11 11.61
4 -4 2 79.93 12.01
4 -4 3 27.7 9.31
4 -4 3 25.56 8.15
4 -4 3 48.51 9.63
4 -4 3 32.75 8.71
4 -4 4 509.67 30.62
4 -4 4 418.94 27.58
4 -4 4 491.39 28.31
4 -4 5 189.62 17.03
4 -4 5 193.45 17.52
4 -4 6 84.16 10.84
4 -4 6 101.54 11.46
4 -4 7 308.66 17.59
4 -4 7 287.96 17.43
4 -4 8 60.37 6.9
-4 -3 10 127.03 11.31
-4 -3 9 380.98 23.13
-4 -3 8 211.4 19.7
-4 -3 7 489.6 31.85
-4 -3 6 12.01 7.51
-4 -3 5 496.56 34.38
4 -3 -5 548.18 30.41
-4 -3 4 93.32 17.13
4 -3 -4 84.98 12.94
4 -3 -4 69.88 11.63
4 -3 -3 346.28 25.14
4 -3 -3 331.6 25.66
4 -3 -3 359.99 24.07
4 -3 -2 593.42 32.58
4 -3 -2 574.33 33.72
4 -3 -2 609.35 32.1
4 -3 -1 849.9 41.08
4 -3 -1 855.12 39.66
4 -3 -1 839.58 41.37
4 -3 -1 904.75 40.21
4 -3 0 254.51 22.95
4 -3 0 267.88 21.02
4 -3 0 229.99 19.96
4 -3 0 251.49 21.96
4 -3 0 229.33 19.98
4 -3 1 539.13 33.24
4 -3 1 565.92 31.31
4 -3 1 558.75 30.98
4 -3 1 501.75 31.07
4 -3 1 553.44 31.68
4 -3 1 469.21 29.46
4 -3 2 108.18 15.05
4 -3 2 131.12 17.34
4 -3 2 137.78 15.95
4 -3 2 130.6 14.78
4 -3 2 146.16 16.94
4 -3 3 -3.45 6.75
4 -3 3 -2.72 5.89
4 -3 3 0.81 4.7
4 -3 4 513.36 31.22
4 -3 4 490.86 30
4 -3 4 471.65 29.76
4 -3 5 91.06 12.39
4 -3 5 86.73 13.23
4 -3 6 302.19 20.71
4 -3 6 298.18 22.38
4 -3 7 49.93 7.68
4 -3 7 62.66 9.85
4 -3 8 224.63 14.23
4 -3 9 91.18 7.11
-4 -2 11 108.55 8.79
-4 -2 10 46.6 8.01
-4 -2 9 108.93 14.03
-4 -2 8 305.67 24.19
-4 -2 7 22.73 10.62
-4 -2 6 611.91 37.66
-4 -2 5 21.03 9.99
-4 -2 5 16.86 6.72
-4 -2 4 48.04 13.27
4 -2 -4 43.99 11.08
-4 -2 4 50.6 11.19
4 -2 -3 252.21 21.76
4 -2 -3 216.44 20.83
4 -2 -3 271.17 21.52
4 -2 -2 839.75 39.47
4 -2 -2 864.35 42.03
4 -2 -2 836.97 39.14
4 -2 -1 359.82 24.93
4 -2 -1 348.33 26.13
4 -2 -1 394.48 25.79
4 -2 0 978.51 42.09
4 -2 0 1022.57 45.72
4 -2 0 1013.01 43.41
4 -2 1 504.26 31.83
4 -2 1 479.17 28.9
4 -2 1 480.58 28.59
4 -2 1 424.34 28.72
4 -2 1 520.23 30.78
4 -2 2 413.96 29.28
4 -2 2 403.7 26.97
4 -2 2 417.72 26.13
4 -2 2 415.43 27.86
4 -2 2 405.28 27.75
4 -2 3 102.06 13.81
4 -2 3 85.27 13.22
4 -2 3 70.62 12.87
4 -2 4 753.01 37.36
4 -2 4 749.03 38.57
4 -2 5 591.67 31.78
4 -2 5 532.63 32.57
4 -2 6 177.22 15.91
4 -2 6 107.76 13.86
4 -2 7 400.06 24.29
4 -2 8 27.53 6.03
4 -2 9 235.88 12.5
-4 -1 11 19.73 4.51
-4 -1 10 98.46 11.77
-4 -1 9 414.26 26.37
-4 -1 8 262.43 23
-4 -1 7 1124.16 50.58
-4 -1 6 103.82 17.42
-4 -1 5 49.09 12.24
-4 -1 5 41.67 10.65
-4 -1 4 83.83 16.65
-4 -1 4 78.1 13.28
4 -1 -3 98.76 13.66
-4 -1 3 98.26 14.08
4 -1 -3 112.07 14.86
4 -1 -2 114.19 15.19
-4 -1 2 96.89 13.6
4 -1 -2 92.35 13.13
4 -1 -1 499.09 29.63
4 -1 -1 553.88 31.24
4 -1 0 207.68 18.73
4 -1 0 166.25 17.06
4 -1 1 704.26 34.52
4 -1 1 692.85 35.45
4 -1 2 82.41 13.05
4 -1 3 46.9 9.47
4 -1 3 47.53 10.99
4 -1 3 38.83 8.69
4 -1 4 25.5 8.36
4 -1 4 20.82 7.22
4 -1 5 290.99 24.46
4 -1 6 640.81 33.82
4 -1 7 28.34 7.76
4 -1 8 217.76 15.26
4 -1 9 23.01 4.32
-4 0 11 53.56 6.66
-4 0 10 90.26 10.95
-4 0 9 80.06 12.89
-4 0 8 567.23 33.66
-4 0 7 35.29 10.16
-4 0 6 757.24 42.2
-4 0 5 23.27 10.75
-4 0 5 18.07 8.36
-4 0 4 58.09 13.46
-4 0 4 64.66 11.98
4 0 -3 63.97 11
-4 0 3 55.12 10.59
4 0 -2 341.07 24.42
4 0 -1 94.05 13.25
4 0 -1 76.16 12.23
4 0 0 275.63 21.29
4 0 0 299.06 22.86
4 0 1 124.63 14.13
4 0 1 121.17 14.91
4 0 2 229.71 19.96
4 0 3 24.29 7.77
4 0 3 17.74 7.57
4 0 4 575.06 32.54
4 0 5 315.19 23.1
4 0 6 12.94 6.69
4 0 7 175.39 15.24
4 0 8 21.02 5.22
4 0 9 100.66 7.94
-4 1 10 114.55 11.15
-4 1 9 339.06 21.84
-4 1 8 313.97 23.17
-4 1 7 1205.98 50.14
-4 1 6 161.71 18.56
-4 1 5 146.27 18.22
-4 1 4 76.02 12.23
-4 1 4 58.49 12.92
-4 1 3 435.89 30.6
4 1 -3 481.07 29.04
4 1 -2 90.35 12.86
4 1 -1 464.68 28.09
4 1 0 200.7 18.31
4 1 1 726.48 35.53
4 1 2 204.51 18.37
4 1 3 177.23 17.53
4 1 4 200.08 18.31
4 1 5 105.82 13.19
4 1 6 918.15 37.34
4 1 7 16.06 4.96
-4 2 9 162.78 13.91
-4 2 8 433.27 25.03
-4 2 7 0.98 6.6
4 2 -2 886.41 38.53
-4 2 2 808.77 40.26
4 2 -1 286.49 21.8
-4 2 1 267.69 23.2
4 2 0 1009.68 41.35
-4 2 0 951.82 45.13
4 2 1 395.15 25.2
4 2 2 411.13 25.24
4 2 3 4.64 3.95
4 2 4 748.07 35.4
4 2 5 487.19 26.85
-4 3 3 60.6 12.31
-4 3 2 628.46 36.56
-4 3 1 741.99 40.08
-4 3 0 214.43 22.2
4 3 3 108.86 16.07
4 3 4 695.4 34.8
4 3 6 400.69 21.92
-4 4 2 919.42 44.95
-4 4 1 47.6 11.98
-4 4 0 391.08 30.34
-4 4 -1 195.17 20.99
4 4 1 214.28 22.59
4 4 2 334.16 26.35
4 4 3 167.14 18.68
4 4 4 356.58 24.12
4 4 5 268.27 19.16
4 4 6 93.57 10.51
4 5 -7 123.03 11.88
4 5 -6 3.44 3.82
4 5 -5 130.37 14.26
4 5 -4 10.67 6.22
4 5 -3 247.5 20.56
-4 5 2 16.19 8.91
4 5 -2 35.08 10.09
-4 5 1 319.27 26.2
4 5 -1 338.99 24.97
-4 5 0 46.24 11.8
4 5 0 57.76 11.5
-4 5 -1 51.57 12.42
4 5 1 54.52 11.93
-4 5 -2 77.03 14.12
4 5 2 89.6 14.32
4 5 4 68.21 10.54
4 5 5 56.22 9.65
-4 5 -8 194.27 11.57
4 6 -8 38.34 5.44
4 6 -7 8.75 3.5
4 6 -7 14.28 4.66
4 6 -6 110.97 11.76
4 6 -5 47.92 8.82
4 6 -4 382.16 24.31
-4 6 2 265.48 22.22
-4 6 1 8.67 6.63
-4 6 0 88.13 15.13
-4 6 -1 63.35 11.78
4 6 1 53.12 9.85
-4 6 -2 160.3 16.8
4 6 2 116.6 13.69
-4 6 -3 174.19 17.76
4 6 3 139.94 15.52
-4 6 -4 208.68 18.13
4 6 4 221.78 17.71
-4 6 -5 120.09 12.52
-4 6 -6 78.43 9.2
-4 6 -7 87.84 8.21
4 7 -7 259.74 12.57
4 7 -7 271.61 13.75
4 7 -6 261.91 15.58
4 7 -6 237.87 15.04
4 7 -5 351.97 20.87
4 7 -4 0.97 4.36
-4 7 1 789.88 35.95
4 7 -1 654.73 29.53
4 7 0 181.68 15.69
-4 7 0 179.98 17.26
4 7 0 190.36 15.87
-4 7 -1 393.93 24.87
4 7 1 365.95 22.92
-4 7 -2 89.96 12
4 7 2 70.32 10.16
-4 7 -3 145.69 13.93
-4 7 -4 154.32 13.25
-4 7 -5 124.42 10.75
4 8 -6 58.87 5.76
4 8 -5 33.09 5.52
4 8 -4 96.68 10.07
4 8 -3 12.97 4.91
4 8 -2 273.03 16.84
4 8 -1 140.09 11.75
4 8 0 55.39 6.96
-4 8 -1 319.31 18.97
-4 8 -2 95.35 10.33
-4 8 -3 123.38 10.55
-4 8 -4 152.05 10.14
4 9 -3 126.18 8.67
4 9 -2 49.75 5.5
4 9 -1 164.61 9.46
5 -7 -1 41.23 4.83
-5 -6 3 166.59 11.45
-5 -6 2 27.03 5.45
5 -6 -2 15.84 4.28
-5 -6 1 141.64 11.15
5 -6 -1 106.79 9.87
-5 -6 0 273.26 15.27
5 -6 0 273.69 15.38
-5 -6 -1 190.38 12.33
5 -6 1 187.73 11.64
-5 -5 6 10.11 3.59
-5 -5 5 114.35 10.59
-5 -5 4 252.33 16.94
-5 -5 3 40.52 7.56
-5 -5 2 228 17.17
5 -5 -2 199.99 15.13
-5 -5 1 84.23 11.13
5 -5 -1 67.52 9.44
5 -5 0 58.28 8.82
5 -5 1 47.92 7.17
5 -5 1 64.98 7.1
5 -5 2 519.39 20.11
5 -5 2 491.09 19.05
5 -5 3 15.23 3.69
-5 -4 7 35.81 6.15
-5 -4 6 46.25 7.44
-5 -4 5 23.46 7.07
-5 -4 4 200.11 17.03
-5 -4 3 229.15 19.42
-5 -4 2 201.61 19.4
5 -4 -2 215.3 16.92
5 -4 -1 221.56 17.36
5 -4 -1 243.84 15.91
5 -4 0 35.33 7.68
5 -4 0 49.28 8.27
5 -4 1 9.59 3.62
5 -4 1 7.82 5
5 -4 2 100.47 9.9
5 -4 3 209.85 13.6
5 -4 4 90.48 8.33
5 -4 5 86.87 7.09
-5 -3 8 55.06 6.73
-5 -3 7 69.16 9.27
-5 -3 6 43.35 8.53
-5 -3 5 938.48 39.13
-5 -3 4 181.88 18.48
-5 -3 3 71.71 12.65
-5 -3 2 472.16 30.22
5 -3 -1 2.13 6.29
5 -3 -1 13.53 6.64
5 -3 0 261.74 19.24
5 -3 0 272.94 18.92
5 -3 1 123.64 12.93
5 -3 2 723.87 30.65
5 -3 3 81.56 10.35
5 -3 4 527.57 23.64
5 -3 5 32.6 5.49
-5 -2 8 30.35 5.93
-5 -2 7 233.46 17.27
-5 -2 6 107.13 13.37
-5 -2 5 218.25 19.42
-5 -2 4 30.91 8.9
-5 -2 3 118.26 16.06
5 -2 -2 30.87 7.74
5 -2 -1 266.17 19.72
5 -2 0 30.73 7.14
5 -2 1 115.11 13.2
5 -2 2 6.87 4.78
5 -2 3 218.02 16.86
5 -2 4 16 5.42
5 -2 5 290.98 16.82
5 -2 6 32.58 5.09
-5 -1 8 157.24 12.27
-5 -1 7 187.83 15.91
-5 -1 6 47.94 9.41
-5 -1 5 799.71 37.54
-5 -1 4 380.33 26.31
-5 -1 3 271.72 23.17
5 -1 -2 267.93 19.67
5 -1 -1 36.71 9.09
5 -1 0 59.47 10.46
5 -1 1 27.95 7.14
5 -1 2 296.07 20.5
5 -1 3 13.19 5.59
5 -1 4 240.69 17.03
5 -1 5 2.62 3.36
5 -1 6 126.23 9.26
-5 0 8 209.72 13.66
-5 0 7 52.01 8.88
-5 0 6 197.5 17.07
-5 0 5 276.86 21.16
-5 0 4 12.81 5.61
-5 0 3 594.19 33.01
-5 0 2 45.83 11.37
5 0 -1 411.29 24.71
5 0 0 6.34 5.39
5 0 1 77.42 11.08
5 0 2 1.77 4.24
5 0 3 205.75 16.08
5 0 4 34.02 6.87
5 0 5 326.93 17.16
5 0 6 12.87 3.47
-5 1 7 361.74 18.9
-5 1 6 41.77 8.22
-5 1 5 595.6 29.16
-5 1 4 565.45 29.64
-5 1 3 279.13 21.04
-5 1 2 308.36 22.24
5 1 -1 120.34 13.15
5 1 0 64.6 10
5 1 1 7.14 5.08
5 1 2 351.99 20.53
5 1 3 28.41 6.18
5 1 3 36.78 9.32
5 1 4 170.49 12.82
5 1 4 160.5 13.12
5 1 5 8.6 3.45
5 2 0 84.83 10.37
5 2 1 30.03 6.84
5 2 2 24.21 6.01
5 2 2 31.86 9.78
5 2 3 67.08 10.31
5 2 4 10.73 4.41
-5 3 0 325.12 21.55
5 3 0 406.06 25.44
-5 3 -1 142.55 14.09
5 3 1 154.05 16.78
-5 3 -2 525.19 26.9
5 3 2 621.14 30.2
-5 3 -3 47.95 7.95
5 3 3 81.46 10.98
-5 3 -4 400.21 20.46
5 3 4 356.35 18.84
-5 3 -5 29.42 4.87
5 3 5 28.92 4.81
5 4 -3 325.2 18.14
5 4 -2 86.46 11.29
5 4 -1 273.73 19.51
-5 4 0 28.73 7.53
5 4 0 30.74 8.09
-5 4 -1 89.54 11.53
5 4 1 78.92 11.32
-5 4 -2 86.21 10.85
5 4 2 89.83 11.38
-5 4 -3 24.12 6.04
5 4 3 7.79 4.77
-5 4 -4 101.6 9.6
5 4 4 108.92 9.97
5 5 -6 20.09 3.5
-5 5 -1 51.54 8.4
5 5 1 34.88 6.33
-5 5 -2 243.8 15.78
5 5 2 225.32 15.23
-5 5 -3 1.03 3.23
5 5 3 15.88 5.24
-5 5 -4 222.16 12.39
5 6 -5 88.89 6.94
5 6 -4 11.7 3.45
5 6 -1 147.26 10.26
5 6 -1 181.09 11.23
5 6 0 322.89 16.05
5 6 1 189.25 12.27
-5 6 -2 29.62 5.16
5 6 2 43.02 6.42
6 0 -1 289 13.61
