#------------------------------------------------------------------------------
#$Date: 2022-07-23 06:13:03 +0300 (Sat, 23 Jul 2022) $
#$Revision: 276885 $
#$URL: file:///home/coder/svn-repositories/cod/cif/7/24/52/7245211.cif $
#------------------------------------------------------------------------------
#
# This file is available in the Crystallography Open Database (COD),
# http://www.crystallography.net/
#
# All data on this site have been placed in the public domain by the
# contributors.
#
data_7245211
loop_
_publ_author_name
'Mehreen, Saba'
'Zia, Mehwash'
'Khan, Ajmal'
'Hussain, Javid'
'Ullah, Saeed'
'Anwar, Muhammad U.'
'Al-Harrasi, Ahmed'
'Naseer, Muhammad Moazzam'
_publ_section_title
;
 Phenoxy pendant isatins as potent \a-glucosidase inhibitors: reciprocal
 carbonyl&#x22EF;carbonyl interactions, antiparallel \p&#x22EF;\p stacking
 driven solid state self-assembly and biological evaluation
;
_journal_issue                   32
_journal_name_full               'RSC Advances'
_journal_page_first              20919
_journal_page_last               20928
_journal_paper_doi               10.1039/D2RA03307K
_journal_volume                  12
_journal_year                    2022
_chemical_formula_moiety         'C16 H11 Cl F N O3'
_chemical_formula_sum            'C16 H11 Cl F N O3'
_chemical_formula_weight         319.71
_space_group_crystal_system      triclinic
_space_group_IT_number           2
_space_group_name_Hall           '-P 1'
_space_group_name_H-M_alt        'P -1'
_atom_sites_solution_hydrogens   geom
_audit_creation_method           SHELXL-2018/3
_audit_update_record
;
2022-05-26 deposited with the CCDC.	2022-07-04 downloaded from the CCDC.
;
_cell_angle_alpha                92.36(5)
_cell_angle_beta                 106.63(4)
_cell_angle_gamma                116.57(4)
_cell_formula_units_Z            2
_cell_length_a                   8.324(10)
_cell_length_b                   8.326(10)
_cell_length_c                   12.233(16)
_cell_measurement_reflns_used    4619
_cell_measurement_temperature    296(2)
_cell_measurement_theta_max      24.47
_cell_measurement_theta_min      2.85
_cell_volume                     712.3(16)
_computing_cell_refinement       'Bruker SAINT'
_computing_data_collection       'Bruker APEX2'
_computing_data_reduction        'Bruker SAINT'
_computing_molecular_graphics    'Bruker SHELXTL'
_computing_publication_material  'Bruker SHELXTL'
_computing_structure_refinement  'SHELXL-2018/3 (Sheldrick, 2018)'
_computing_structure_solution    'SHELXT 2018/2 (Sheldrick, 2018)'
_diffrn_ambient_temperature      296(2)
_diffrn_measured_fraction_theta_full 0.998
_diffrn_measured_fraction_theta_max 0.987
_diffrn_measurement_device_type  'Bruker APEX-II CCD'
_diffrn_measurement_method       '\f and \w scans'
_diffrn_radiation_type           MoK\a
_diffrn_radiation_wavelength     0.71073
_diffrn_reflns_av_R_equivalents  0.0958
_diffrn_reflns_av_unetI/netI     0.0648
_diffrn_reflns_Laue_measured_fraction_full 0.998
_diffrn_reflns_Laue_measured_fraction_max 0.987
_diffrn_reflns_limit_h_max       10
_diffrn_reflns_limit_h_min       -10
_diffrn_reflns_limit_k_max       10
_diffrn_reflns_limit_k_min       -10
_diffrn_reflns_limit_l_max       15
_diffrn_reflns_limit_l_min       -15
_diffrn_reflns_number            16520
_diffrn_reflns_point_group_measured_fraction_full 0.998
_diffrn_reflns_point_group_measured_fraction_max 0.987
_diffrn_reflns_theta_full        25.242
_diffrn_reflns_theta_max         26.556
_diffrn_reflns_theta_min         2.845
_exptl_absorpt_coefficient_mu    0.291
_exptl_absorpt_correction_T_max  0.7452
_exptl_absorpt_correction_T_min  0.6735
_exptl_absorpt_correction_type   multi-scan
_exptl_absorpt_process_details   SADABS
_exptl_crystal_colour            red
_exptl_crystal_density_diffrn    1.491
_exptl_crystal_description       plate
_exptl_crystal_F_000             328
_exptl_crystal_size_max          0.600
_exptl_crystal_size_mid          0.280
_exptl_crystal_size_min          0.050
_refine_diff_density_max         0.232
_refine_diff_density_min         -0.297
_refine_diff_density_rms         0.066
_refine_ls_extinction_method     none
_refine_ls_goodness_of_fit_ref   1.028
_refine_ls_hydrogen_treatment    constr
_refine_ls_matrix_type           full
_refine_ls_number_parameters     199
_refine_ls_number_reflns         2928
_refine_ls_number_restraints     0
_refine_ls_restrained_S_all      1.028
_refine_ls_R_factor_all          0.0979
_refine_ls_R_factor_gt           0.0457
_refine_ls_shift/su_max          0.000
_refine_ls_shift/su_mean         0.000
_refine_ls_structure_factor_coef Fsqd
_refine_ls_weighting_details
'w=1/[\s^2^(Fo^2^)+(0.0619P)^2^] where P=(Fo^2^+2Fc^2^)/3'
_refine_ls_weighting_scheme      calc
_refine_ls_wR_factor_gt          0.1009
_refine_ls_wR_factor_ref         0.1211
_reflns_Friedel_coverage         0.000
_reflns_number_gt                1822
_reflns_number_total             2928
_reflns_threshold_expression     'I > 2\s(I)'
_cod_data_source_file            d2ra03307k2.cif
_cod_data_source_block           SM_8_0m_a_a
_cod_depositor_comments
;
The following automatic conversions were performed:

data item '_exptl_absorpt_correction_type' value 'Multi-scan' was
changed to 'multi-scan' in accordance with the
/home/data/users/saulius/crontab/automatic-downloads/rss-feeds/RSC/lib/dictionaries/cif_core.dic
dictionary named 'cif_core.dic' version 2.4.2 last updated on
2011-04-26.

Automatic conversion script
Id: cif_fix_values 7556 2019-12-06 15:28:31Z antanas 
;
_cod_original_cell_volume        712.2(15)
_cod_database_code               7245211
_shelx_shelxl_version_number     2018/3
_shelx_space_group_comment
;
The symmetry employed for this shelxl refinement is uniquely defined
by the following loop, which should always be used as a source of
symmetry information in preference to the above space-group names.
They are only intended as comments.
;
_shelx_estimated_absorpt_t_min   0.845
_shelx_estimated_absorpt_t_max   0.986
_shelx_res_file
;
TITL SM_8_0m_a_a.res in P-1
    SM_8_0m_a_a.res
    created by SHELXL-2018/3 at 15:09:06 on 20-Jan-2022
REM Old TITL SM_8_0m_a.res in P-1
REM SHELXT solution in P-1: R1 0.187, Rweak 0.026, Alpha 0.057
REM <I/s>   0.000 for    0 systematic absences,  Orientation as input
REM Formula found by SHELXT:  C16 Cl N O4
CELL  0.71073   8.3236   8.3256  12.2330   92.357  106.631  116.574
ZERR   2.000   0.0095   0.0098   0.0159    0.046    0.041    0.043
LATT  1
SFAC C H CL N O F
UNIT 32 22 2 2 6 2
ACTA
TEMP 23.000
SIZE 0.05 0.28 0.60
L.S. 10
BOND
LIST 4
FMAP 2
PLAN 20
WGHT    0.061900
FVAR       1.07949
CL1   3    0.289268    0.623111    0.733925    11.00000    0.06376    0.06789 =
         0.06769    0.02660    0.04527    0.03639
F1    6   -0.240262   -0.005745   -0.148428    11.00000    0.07165    0.06703 =
         0.08847   -0.02859   -0.00785    0.01547
O2    5    0.317795    0.598566    0.177924    11.00000    0.03669    0.05032 =
         0.02826   -0.00019    0.01192    0.01228
O3    5    0.939863    0.847069    0.378265    11.00000    0.04164    0.05896 =
         0.04503    0.00720    0.02275    0.02102
O4    5    0.941501    0.735071    0.603511    11.00000    0.04157    0.07285 =
         0.04622    0.01663    0.01422    0.03743
N1    4    0.648856    0.819707    0.373826    11.00000    0.03261    0.03813 =
         0.02812    0.00584    0.00854    0.01496
C1    1   -0.096150    0.143877   -0.067954    11.00000    0.04860    0.04688 =
         0.05003   -0.01057   -0.00637    0.02210
C2    1   -0.113152    0.173912    0.037949    11.00000    0.03906    0.05260 =
         0.06249    0.01553    0.01259    0.01481
AFIX  43
H2    2   -0.219356    0.092096    0.054787    11.00000   -1.20000
AFIX   0
C3    1    0.029832    0.327476    0.119157    11.00000    0.04033    0.05625 =
         0.03715    0.00997    0.01257    0.02316
AFIX  43
H3    2    0.021104    0.350464    0.191705    11.00000   -1.20000
AFIX   0
C4    1    0.186512    0.447383    0.092308    11.00000    0.03327    0.04124 =
         0.02762    0.00431    0.00595    0.02144
C5    1    0.201745    0.412227   -0.014713    11.00000    0.04356    0.05285 =
         0.03380    0.00317    0.01284    0.02187
AFIX  43
H5    2    0.308623    0.491642   -0.031892    11.00000   -1.20000
AFIX   0
C6    1    0.057203    0.258423   -0.095890    11.00000    0.05744    0.06501 =
         0.03841   -0.00810    0.00909    0.03241
AFIX  43
H6    2    0.064780    0.233693   -0.168542    11.00000   -1.20000
AFIX   0
C7    1    0.489278    0.721626    0.161059    11.00000    0.03978    0.05101 =
         0.02930    0.00962    0.01140    0.01786
AFIX  23
H7A   2    0.460934    0.766316    0.089828    11.00000   -1.20000
H7B   2    0.563190    0.660672    0.155534    11.00000   -1.20000
AFIX   0
C8    1    0.599478    0.877974    0.264272    11.00000    0.04435    0.04456 =
         0.03381    0.01189    0.01016    0.01842
AFIX  23
H8A   2    0.715835    0.967059    0.253776    11.00000   -1.20000
H8B   2    0.523755    0.937704    0.267846    11.00000   -1.20000
AFIX   0
C9    1    0.815501    0.813096    0.420511    11.00000    0.03131    0.03462 =
         0.03311   -0.00203    0.00893    0.01157
C10   1    0.816048    0.756882    0.539769    11.00000    0.03103    0.03271 =
         0.03299   -0.00041    0.00822    0.01470
C11   1    0.638018    0.736428    0.550871    11.00000    0.02660    0.02702 =
         0.02863   -0.00153    0.00588    0.01088
C12   1    0.541097    0.773187    0.450076    11.00000    0.02967    0.02564 =
         0.03111   -0.00032    0.00760    0.01020
C13   1    0.366506    0.763805    0.435312    11.00000    0.03404    0.04309 =
         0.03892    0.00423    0.00410    0.02156
AFIX  43
H13   2    0.301266    0.787932    0.368219    11.00000   -1.20000
AFIX   0
C14   1    0.291307    0.717086    0.524060    11.00000    0.03018    0.04429 =
         0.05233    0.00456    0.01461    0.02110
AFIX  43
H14   2    0.173711    0.709959    0.516277    11.00000   -1.20000
AFIX   0
C15   1    0.388428    0.680807    0.624224    11.00000    0.03529    0.03177 =
         0.04334    0.00386    0.01897    0.01537
C16   1    0.562977    0.688916    0.639446    11.00000    0.03768    0.03191 =
         0.03098    0.00464    0.01169    0.01803
AFIX  43
H16   2    0.627457    0.663588    0.706260    11.00000   -1.20000
REM #####
AFIX   0
HKLF 4




REM  SM_8_0m_a_a.res in P-1
REM wR2 = 0.121145, GooF = S = 1.02780, Restrained GooF = 1.02780 for all data
REM R1 = 0.045666 for 1822 Fo > 4sig(Fo) and 0.097936 for all 2928 data
REM 199 parameters refined using 0 restraints

END

WGHT      0.0608      0.0108

REM Highest difference peak  0.232,  deepest hole -0.297,  1-sigma level  0.066
Q1    1   0.2036  0.5612 -0.0998  11.00000  0.05    0.23
Q2    1   0.5008  0.4624  0.1118  11.00000  0.05    0.22
Q3    1   0.9748  1.0813  0.2589  11.00000  0.05    0.21
Q4    1   0.4367  0.4887 -0.0048  11.00000  0.05    0.20
Q5    1   0.2195  0.4893 -0.1614  11.00000  0.05    0.20
Q6    1   0.4152  0.6250  0.8239  11.00000  0.05    0.19
Q7    1   0.0237  0.4925  0.3921  11.00000  0.05    0.19
Q8    1  -0.0580  0.4702  0.0974  11.00000  0.05    0.18
Q9    1   0.4272  0.8602  0.0995  11.00000  0.05    0.18
Q10   1   0.8768  0.8203  0.7027  11.00000  0.05    0.18
Q11   1   0.4763  0.9263  0.3070  11.00000  0.05    0.17
Q12   1   0.5000  0.5000  0.5000  10.50000  0.05    0.17
Q13   1   0.3119  0.5482 -0.0793  11.00000  0.05    0.17
Q14   1  -0.1673  0.3624  0.1445  11.00000  0.05    0.17
Q15   1  -0.0217  0.0018 -0.2513  11.00000  0.05    0.17
Q16   1   0.4800  0.6141 -0.0239  11.00000  0.05    0.17
Q17   1  -0.0912  0.4702  0.1911  11.00000  0.05    0.17
Q18   1   0.8311  0.8239  0.4881  11.00000  0.05    0.17
Q19   1   0.1019  0.4934  0.4979  11.00000  0.05    0.17
Q20   1  -0.2608 -0.1120  0.0538  11.00000  0.05    0.16
;
_shelx_res_checksum              71397
loop_
_space_group_symop_operation_xyz
'x, y, z'
'-x, -y, -z'
loop_
_atom_site_label
_atom_site_type_symbol
_atom_site_fract_x
_atom_site_fract_y
_atom_site_fract_z
_atom_site_U_iso_or_equiv
_atom_site_adp_type
_atom_site_occupancy
_atom_site_site_symmetry_order
_atom_site_calc_flag
_atom_site_refinement_flags_posn
_atom_site_refinement_flags_adp
_atom_site_refinement_flags_occupancy
_atom_site_disorder_assembly
_atom_site_disorder_group
Cl1 Cl 0.28927(10) 0.62311(10) 0.73392(6) 0.0585(2) Uani 1 1 d . . . . .
F1 F -0.2403(3) -0.0057(2) -0.14843(16) 0.0929(6) Uani 1 1 d . . . . .
O2 O 0.3178(2) 0.5986(2) 0.17792(12) 0.0420(4) Uani 1 1 d . . . . .
O3 O 0.9399(2) 0.8471(2) 0.37826(13) 0.0480(4) Uani 1 1 d . . . . .
O4 O 0.9415(2) 0.7351(2) 0.60351(14) 0.0495(5) Uani 1 1 d . . . . .
N1 N 0.6489(2) 0.8197(2) 0.37383(14) 0.0342(4) Uani 1 1 d . . . . .
C1 C -0.0962(4) 0.1439(4) -0.0680(2) 0.0551(7) Uani 1 1 d . . . . .
C2 C -0.1132(4) 0.1739(4) 0.0379(2) 0.0553(7) Uani 1 1 d . . . . .
H2 H -0.219356 0.092096 0.054787 0.066 Uiso 1 1 calc R U . . .
C3 C 0.0298(3) 0.3275(3) 0.1192(2) 0.0447(6) Uani 1 1 d . . . . .
H3 H 0.021104 0.350464 0.191705 0.054 Uiso 1 1 calc R U . . .
C4 C 0.1865(3) 0.4474(3) 0.09231(17) 0.0338(5) Uani 1 1 d . . . . .
C5 C 0.2017(4) 0.4122(3) -0.01471(18) 0.0442(6) Uani 1 1 d . . . . .
H5 H 0.308623 0.491642 -0.031892 0.053 Uiso 1 1 calc R U . . .
C6 C 0.0572(4) 0.2584(4) -0.0959(2) 0.0547(7) Uani 1 1 d . . . . .
H6 H 0.064780 0.233693 -0.168542 0.066 Uiso 1 1 calc R U . . .
C7 C 0.4893(3) 0.7216(3) 0.16106(18) 0.0416(6) Uani 1 1 d . . . . .
H7A H 0.460934 0.766316 0.089828 0.050 Uiso 1 1 calc R U . . .
H7B H 0.563190 0.660672 0.155534 0.050 Uiso 1 1 calc R U . . .
C8 C 0.5995(3) 0.8780(3) 0.26427(17) 0.0427(6) Uani 1 1 d . . . . .
H8A H 0.715835 0.967059 0.253776 0.051 Uiso 1 1 calc R U . . .
H8B H 0.523755 0.937704 0.267846 0.051 Uiso 1 1 calc R U . . .
C9 C 0.8155(3) 0.8131(3) 0.42051(18) 0.0355(5) Uani 1 1 d . . . . .
C10 C 0.8160(3) 0.7569(3) 0.53977(18) 0.0334(5) Uani 1 1 d . . . . .
C11 C 0.6380(3) 0.7364(3) 0.55087(16) 0.0293(5) Uani 1 1 d . . . . .
C12 C 0.5411(3) 0.7732(3) 0.45008(17) 0.0309(5) Uani 1 1 d . . . . .
C13 C 0.3665(3) 0.7638(3) 0.43531(19) 0.0396(6) Uani 1 1 d . . . . .
H13 H 0.301266 0.787932 0.368219 0.048 Uiso 1 1 calc R U . . .
C14 C 0.2913(3) 0.7171(3) 0.5241(2) 0.0410(6) Uani 1 1 d . . . . .
H14 H 0.173711 0.709959 0.516277 0.049 Uiso 1 1 calc R U . . .
C15 C 0.3884(3) 0.6808(3) 0.62422(19) 0.0359(5) Uani 1 1 d . . . . .
C16 C 0.5630(3) 0.6889(3) 0.63945(17) 0.0330(5) Uani 1 1 d . . . . .
H16 H 0.627457 0.663588 0.706260 0.040 Uiso 1 1 calc R U . . .
loop_
_atom_site_aniso_label
_atom_site_aniso_U_11
_atom_site_aniso_U_22
_atom_site_aniso_U_33
_atom_site_aniso_U_23
_atom_site_aniso_U_13
_atom_site_aniso_U_12
Cl1 0.0638(5) 0.0679(5) 0.0677(4) 0.0266(4) 0.0453(4) 0.0364(4)
F1 0.0717(13) 0.0670(12) 0.0885(13) -0.0286(10) -0.0079(10) 0.0155(10)
O2 0.0367(9) 0.0503(11) 0.0283(8) -0.0002(7) 0.0119(7) 0.0123(8)
O3 0.0416(10) 0.0590(11) 0.0450(9) 0.0072(8) 0.0227(8) 0.0210(9)
O4 0.0416(10) 0.0728(13) 0.0462(9) 0.0166(9) 0.0142(8) 0.0374(10)
N1 0.0326(11) 0.0381(11) 0.0281(9) 0.0058(8) 0.0085(8) 0.0150(9)
C1 0.0486(17) 0.0469(17) 0.0500(15) -0.0106(13) -0.0064(13) 0.0221(15)
C2 0.0391(16) 0.0526(17) 0.0625(17) 0.0155(14) 0.0126(13) 0.0148(14)
C3 0.0403(14) 0.0562(17) 0.0372(12) 0.0100(12) 0.0126(11) 0.0232(13)
C4 0.0333(13) 0.0412(14) 0.0276(11) 0.0043(10) 0.0059(9) 0.0214(11)
C5 0.0436(15) 0.0528(16) 0.0338(12) 0.0032(11) 0.0128(11) 0.0219(13)
C6 0.0574(18) 0.065(2) 0.0384(13) -0.0081(13) 0.0091(13) 0.0324(17)
C7 0.0398(14) 0.0510(16) 0.0293(11) 0.0096(11) 0.0114(10) 0.0179(13)
C8 0.0444(15) 0.0446(15) 0.0338(12) 0.0119(11) 0.0102(10) 0.0184(13)
C9 0.0313(13) 0.0346(13) 0.0331(11) -0.0020(10) 0.0089(10) 0.0116(11)
C10 0.0310(13) 0.0327(13) 0.0330(11) -0.0004(9) 0.0082(9) 0.0147(11)
C11 0.0266(12) 0.0270(12) 0.0286(10) -0.0015(9) 0.0059(9) 0.0109(10)
C12 0.0297(12) 0.0256(12) 0.0311(11) -0.0003(9) 0.0076(9) 0.0102(10)
C13 0.0340(14) 0.0431(15) 0.0389(12) 0.0042(11) 0.0041(10) 0.0216(12)
C14 0.0302(13) 0.0443(15) 0.0523(14) 0.0046(12) 0.0146(11) 0.0211(12)
C15 0.0353(13) 0.0318(13) 0.0433(12) 0.0039(10) 0.0190(10) 0.0154(11)
C16 0.0377(13) 0.0319(13) 0.0310(11) 0.0046(9) 0.0117(9) 0.0180(11)
loop_
_atom_type_symbol
_atom_type_description
_atom_type_scat_dispersion_real
_atom_type_scat_dispersion_imag
_atom_type_scat_source
C C 0.0033 0.0016 'International Tables Vol C Tables 4.2.6.8 and 6.1.1.4'
H H 0.0000 0.0000 'International Tables Vol C Tables 4.2.6.8 and 6.1.1.4'
Cl Cl 0.1484 0.1585 'International Tables Vol C Tables 4.2.6.8 and 6.1.1.4'
N N 0.0061 0.0033 'International Tables Vol C Tables 4.2.6.8 and 6.1.1.4'
O O 0.0106 0.0060 'International Tables Vol C Tables 4.2.6.8 and 6.1.1.4'
F F 0.0171 0.0103 'International Tables Vol C Tables 4.2.6.8 and 6.1.1.4'
loop_
_geom_angle_atom_site_label_1
_geom_angle_atom_site_label_2
_geom_angle_atom_site_label_3
_geom_angle
_geom_angle_site_symmetry_1
_geom_angle_site_symmetry_3
_geom_angle_publ_flag
C4 O2 C7 118.66(18) . . ?
C9 N1 C12 110.60(19) . . ?
C9 N1 C8 123.16(19) . . ?
C12 N1 C8 126.14(19) . . ?
C6 C1 F1 119.1(3) . . ?
C6 C1 C2 122.6(2) . . ?
F1 C1 C2 118.3(3) . . ?
C1 C2 C3 118.8(3) . . ?
C2 C3 C4 119.7(2) . . ?
O2 C4 C3 115.0(2) . . ?
O2 C4 C5 124.6(2) . . ?
C3 C4 C5 120.4(2) . . ?
C6 C5 C4 119.6(2) . . ?
C1 C6 C5 118.9(2) . . ?
O2 C7 C8 107.11(19) . . ?
N1 C8 C7 112.9(2) . . ?
O3 C9 N1 127.2(2) . . ?
O3 C9 C10 126.7(2) . . ?
N1 C9 C10 106.17(19) . . ?
O4 C10 C11 131.1(2) . . ?
O4 C10 C9 123.7(2) . . ?
C11 C10 C9 105.17(18) . . ?
C16 C11 C12 121.6(2) . . ?
C16 C11 C10 130.8(2) . . ?
C12 C11 C10 107.57(19) . . ?
C13 C12 C11 120.8(2) . . ?
C13 C12 N1 128.7(2) . . ?
C11 C12 N1 110.5(2) . . ?
C12 C13 C14 117.7(2) . . ?
C15 C14 C13 121.2(2) . . ?
C16 C15 C14 121.5(2) . . ?
C16 C15 Cl1 118.74(18) . . ?
C14 C15 Cl1 119.80(19) . . ?
C15 C16 C11 117.2(2) . . ?
loop_
_geom_bond_atom_site_label_1
_geom_bond_atom_site_label_2
_geom_bond_distance
_geom_bond_site_symmetry_2
_geom_bond_publ_flag
Cl1 C15 1.745(3) . ?
F1 C1 1.359(3) . ?
O2 C4 1.372(3) . ?
O2 C7 1.417(3) . ?
O3 C9 1.214(3) . ?
O4 C10 1.203(3) . ?
N1 C9 1.368(3) . ?
N1 C12 1.422(3) . ?
N1 C8 1.455(3) . ?
C1 C6 1.358(4) . ?
C1 C2 1.368(4) . ?
C2 C3 1.377(4) . ?
C3 C4 1.383(3) . ?
C4 C5 1.383(3) . ?
C5 C6 1.381(4) . ?
C7 C8 1.505(3) . ?
C9 C10 1.550(4) . ?
C10 C11 1.461(3) . ?
C11 C16 1.386(3) . ?
C11 C12 1.395(3) . ?
C12 C13 1.378(3) . ?
C13 C14 1.388(3) . ?
C14 C15 1.389(4) . ?
C15 C16 1.381(3) . ?
