#------------------------------------------------------------------------------
#$Date: 2022-07-23 02:29:16 +0300 (Sat, 23 Jul 2022) $
#$Revision: 276812 $
#$URL: file:///home/coder/svn-repositories/cod/cif/7/24/51/7245159.cif $
#------------------------------------------------------------------------------
#
# This file is available in the Crystallography Open Database (COD),
# http://www.crystallography.net/
#
# All data on this site have been placed in the public domain by the
# contributors.
#
data_7245159
loop_
_publ_author_name
'Tsunashima, Ryo'
'Fujikawa, Naomi'
'Shiga, Misaki'
'Miyagawa, Sayu'
'Ohno, Shiori'
'Masuya-Suzuki, Atsuko'
'Takahashi, Kiyonori'
'Nakamura, Takayoshi'
'Akutagawa, Tomoyuki'
'Nishihara, Sadafumi'
_publ_section_title
;
 Slider-crank Mechanism in a Molecular Crystal: Conversion of Linear
 Thermal Expansion of Lattice to Circular Rotation of Coordination Chain
;
_journal_name_full               CrystEngComm
_journal_paper_doi               10.1039/D2CE00768A
_journal_year                    2022
_chemical_formula_moiety         'C9 H12 Co1 K1 N5 O3'
_chemical_formula_sum            'C9 H12 Co K N5 O3'
_chemical_formula_weight         336.27
_space_group_crystal_system      hexagonal
_space_group_IT_number           190
_space_group_name_Hall           'P -6c -2c'
_space_group_name_H-M_alt        'P -6 2 c'
_atom_sites_solution_hydrogens   geom
_atom_sites_solution_primary     dual
_audit_creation_date             2020-10-07
_audit_creation_method
;
Olex2 1.3-ac4
(compiled 2019.10.09 svn.r3662 for Rigaku Oxford Diffraction, GUI svn.r5959)
;
_audit_update_record
;
2022-03-17 deposited with the CCDC.	2022-07-19 downloaded from the CCDC.
;
_cell_angle_alpha                90
_cell_angle_beta                 90
_cell_angle_gamma                120
_cell_formula_units_Z            2
_cell_length_a                   10.4110(7)
_cell_length_b                   10.4110(7)
_cell_length_c                   7.1669(4)
_cell_measurement_reflns_used    3548
_cell_measurement_temperature    239
_cell_measurement_theta_max      30.2400
_cell_measurement_theta_min      2.2320
_cell_volume                     672.74(7)
_computing_cell_refinement       'CrysAlisPro 1.171.41.63a (Rigaku OD, 2020)'
_computing_data_collection       'CrysAlisPro 1.171.41.63a (Rigaku OD, 2020)'
_computing_data_reduction        'CrysAlisPro 1.171.41.63a (Rigaku OD, 2020)'
_computing_molecular_graphics    'Olex2 1.3-ac4 (Dolomanov et al., 2009)'
_computing_publication_material  'Olex2 1.3-ac4 (Dolomanov et al., 2009)'
_computing_structure_refinement  'ShelXL 2018/3 (Sheldrick, 2015)'
_computing_structure_solution    'ShelXT n/a (Sheldrick, 2015)'
_diffrn_ambient_temperature      239
_diffrn_detector                 'Hybrid Pixel Array Detector'
_diffrn_detector_area_resol_mean 10.0000
_diffrn_detector_type            HyPix
_diffrn_measured_fraction_theta_full 1.000
_diffrn_measured_fraction_theta_max 0.929
_diffrn_measurement_details
;
List of Runs (angles in degrees, time in seconds):

  # Type    Start    End  Width  t~exp~   \w     \q     \k     \f   Frames
#--------------------------------------------------------------------------
  1  \w    -18.00  65.00   0.50    0.22    --   -5.03  19.00  60.00  166
  2  \w    -18.00  66.00   0.50    0.22    --   -5.03  19.00 124.00  168
  3  \w      2.00  27.00   0.50    0.22    --    5.18 -95.00  34.00   50
  4  \w    -13.00  25.00   0.50    0.22    --   -5.03 -99.00 -30.00   76
  5  \w    -13.00  27.00   0.50    0.22    --   -5.03 -99.00 -60.00   80
;
_diffrn_measurement_device       'four-circle diffractometer'
_diffrn_measurement_device_type  'XtaLAB Synergy R, HyPix'
_diffrn_measurement_method       '\w scans'
_diffrn_measurement_specimen_support 'Mitegen 50um'
_diffrn_orient_matrix_type
'CrysAlisPro convention (1999,Acta A55,543-557)'
_diffrn_orient_matrix_UB_11      -0.0015084000
_diffrn_orient_matrix_UB_12      -0.0150028000
_diffrn_orient_matrix_UB_13      -0.0968003000
_diffrn_orient_matrix_UB_21      -0.0734171000
_diffrn_orient_matrix_UB_22      -0.0125293000
_diffrn_orient_matrix_UB_23      -0.0056604000
_diffrn_orient_matrix_UB_31      0.0283026000
_diffrn_orient_matrix_UB_32      0.0761943000
_diffrn_orient_matrix_UB_33      -0.0198782000
_diffrn_radiation_collimation    0.3
_diffrn_radiation_monochromator  mirror
_diffrn_radiation_probe          x-ray
_diffrn_radiation_type           'Mo K\a'
_diffrn_radiation_wavelength     0.71073
_diffrn_reflns_av_R_equivalents  0.0470
_diffrn_reflns_av_unetI/netI     0.0287
_diffrn_reflns_Laue_measured_fraction_full 1.000
_diffrn_reflns_Laue_measured_fraction_max 0.929
_diffrn_reflns_limit_h_max       12
_diffrn_reflns_limit_h_min       -13
_diffrn_reflns_limit_k_max       13
_diffrn_reflns_limit_k_min       -14
_diffrn_reflns_limit_l_max       9
_diffrn_reflns_limit_l_min       -8
_diffrn_reflns_number            6166
_diffrn_reflns_point_group_measured_fraction_full 1.000
_diffrn_reflns_point_group_measured_fraction_max 0.883
_diffrn_reflns_theta_full        25.242
_diffrn_reflns_theta_max         30.820
_diffrn_reflns_theta_min         2.259
_diffrn_source                   'micro-focus sealed X-ray tube'
_diffrn_source_current           24.0
_diffrn_source_power             1.2
_diffrn_source_target            Mo
_diffrn_source_type              'Mova (Mo) X-ray Source'
_diffrn_source_voltage           50.0
_exptl_absorpt_coefficient_mu    1.595
_exptl_absorpt_correction_T_max  1.00000
_exptl_absorpt_correction_T_min  0.44775
_exptl_absorpt_correction_type   multi-scan
_exptl_absorpt_process_details
;
CrysAlisPro 1.171.41.63a (Rigaku Oxford Diffraction, 2020)
Empirical absorption correction using spherical harmonics,
 implemented in SCALE3 ABSPACK scaling algorithm.
;
_exptl_crystal_colour            violet
_exptl_crystal_colour_primary    violet
_exptl_crystal_density_diffrn    1.660
_exptl_crystal_description       block
_exptl_crystal_F_000             342
_exptl_crystal_size_max          0.29
_exptl_crystal_size_mid          0.266
_exptl_crystal_size_min          0.221
_refine_diff_density_max         0.346
_refine_diff_density_min         -0.445
_refine_diff_density_rms         0.050
_refine_ls_abs_structure_details
;
 Flack x determined using 225 quotients [(I+)-(I-)]/[(I+)+(I-)]
 (Parsons, Flack and Wagner, Acta Cryst. B69 (2013) 249-259).
;
_refine_ls_abs_structure_Flack   0.000(17)
_refine_ls_extinction_coef       0.012(4)
_refine_ls_extinction_expression Fc^*^=kFc[1+0.001xFc^2^\l^3^/sin(2\q)]^-1/4^
_refine_ls_extinction_method     'SHELXL-2018/3 (Sheldrick 2018)'
_refine_ls_goodness_of_fit_ref   1.138
_refine_ls_hydrogen_treatment    constr
_refine_ls_matrix_type           full
_refine_ls_number_parameters     36
_refine_ls_number_reflns         670
_refine_ls_number_restraints     0
_refine_ls_restrained_S_all      1.138
_refine_ls_R_factor_all          0.0317
_refine_ls_R_factor_gt           0.0274
_refine_ls_shift/su_max          0.000
_refine_ls_shift/su_mean         0.000
_refine_ls_structure_factor_coef Fsqd
_refine_ls_weighting_details
'w=1/[\s^2^(Fo^2^)+(0.0303P)^2^+0.1961P] where P=(Fo^2^+2Fc^2^)/3'
_refine_ls_weighting_scheme      calc
_refine_ls_wR_factor_gt          0.0665
_refine_ls_wR_factor_ref         0.0680
_reflns_Friedel_coverage         0.658
_reflns_Friedel_fraction_full    1.000
_reflns_Friedel_fraction_max     0.821
_reflns_number_gt                598
_reflns_number_total             670
_reflns_threshold_expression     'I > 2\s(I)'
_cod_data_source_file            d2ce00768a2.cif
_cod_data_source_block           239k
_cod_original_cell_volume        672.75(10)
_cod_database_code               7245159
_shelx_shelxl_version_number     2018/3
_chemical_oxdiff_formula         CoKN5O3C9H12
_chemical_oxdiff_usercomment     005
_shelx_space_group_comment
;
The symmetry employed for this shelxl refinement is uniquely defined
by the following loop, which should always be used as a source of
symmetry information in preference to the above space-group names.
They are only intended as comments.
;
_reflns_odcompleteness_completeness 100.00
_reflns_odcompleteness_iscentric 1
_reflns_odcompleteness_theta     26.32
_olex2_refinement_description
;
1. Fixed Uiso
 At 1.2 times of:
  All C(H,H) groups
2.a Secondary CH2 refined with riding coordinates:
 C1(H1A,H1B)
;
_shelx_res_file
;
TITL 243k_a.res in P-62c
    243k.res
    created by SHELXL-2018/3 at 17:24:21 on 07-Oct-2020
REM Old TITL 243K in P6(3)mc
REM SHELXT solution in P-62c: R1 0.103, Rweak 0.005, Alpha 0.012
REM <I/s> 0.365 for 25 systematic absences, Orientation as input
REM Flack x = -0.019 ( 0.022 ) from 171 Parsons' quotients
REM Formula found by SHELXT: C9 N2 O1 K Co
CELL 0.71073 10.41102 10.41102 7.166944 90 90 120
ZERR 2 0.000664 0.000664 0.000437 0 0 0
LATT -1
SYMM -Y,+X-Y,+Z
SYMM +Y-X,-X,+Z
SYMM +X,+Y,0.5-Z
SYMM -Y,+X-Y,0.5-Z
SYMM +Y-X,-X,0.5-Z
SYMM +Y,+X,-Z
SYMM -Y+X,-Y,-Z
SYMM -X,-X+Y,-Z
SYMM +Y,+X,0.5+Z
SYMM -Y+X,-Y,0.5+Z
SYMM -X,-X+Y,0.5+Z
SFAC C H Co K N O
UNIT 18 24 2 2 10 6

L.S. 4
PLAN  5
CONF
BOND $H
MORE -1
fmap 2
acta
REM <olex2.extras>
REM <HklSrc "%.\\243K.hkl">
REM </olex2.extras>

WGHT    0.030300    0.196100
EXTI    0.011646
FVAR       4.59056
CO1   3    0.333333    0.666667    0.250000    10.16667    0.02646    0.02646 =
         0.02058    0.00000    0.00000    0.01323
K1    4    0.000000    1.000000    0.500000    10.16667    0.03836    0.03836 =
         0.02702    0.00000    0.00000    0.01918
O1    6    0.008449    0.812458    0.250000    10.50000    0.07433    0.06919 =
         0.04872    0.00000    0.00000    0.05837
N1    5    0.333333    0.666667    0.567150    10.33333    0.02516    0.02516 =
         0.01731    0.00000    0.00000    0.01258
N2    5    0.174300    0.719612    0.250000    10.50000    0.04477    0.05686 =
         0.02434    0.00000    0.00000    0.03569
C1    1    0.187906    0.554191    0.642498    11.00000    0.02830    0.03977 =
         0.01801   -0.00353   -0.00062    0.00772
AFIX  23
H1A   2    0.164266    0.456873    0.597682    11.00000   -1.20000
H1B   2    0.111864    0.574410    0.597677    11.00000   -1.20000
AFIX   0
C2    1    0.094906    0.765935    0.250000    10.50000    0.04454    0.03869 =
         0.02053    0.00000    0.00000    0.02560
HKLF 4




REM  243k_a.res in P-62c
REM wR2 = 0.0680, GooF = S = 1.138, Restrained GooF = 1.138 for all data
REM R1 = 0.0274 for 598 Fo > 4sig(Fo) and 0.0317 for all 670 data
REM 36 parameters refined using 0 restraints

END

WGHT      0.0303      0.1961

REM Highest difference peak  0.346,  deepest hole -0.445,  1-sigma level  0.050
Q1    1   0.2987  0.6051  0.1729  11.00000  0.05    0.35
Q2    1   0.1056  0.8987  0.2500  10.50000  0.05    0.32
Q3    1   0.2586  0.7368  0.2500  10.50000  0.05    0.23
Q4    1   0.3800  0.6947  0.6264  11.00000  0.05    0.23
Q5    1   0.1263  0.4861  0.5720  11.00000  0.05    0.22
;
_shelx_res_checksum              90008
_olex2_submission_special_instructions 'No special instructions were received'
_oxdiff_exptl_absorpt_empirical_details
;
Empirical correction (ABSPACK) includes:
- Absorption correction using spherical harmonics
- Frame scaling
;
_oxdiff_exptl_absorpt_empirical_full_max 4.222
_oxdiff_exptl_absorpt_empirical_full_min 0.553
loop_
_space_group_symop_operation_xyz
'x, y, z'
'-y, x-y, z'
'-x+y, -x, z'
'x, y, -z+1/2'
'-y, x-y, -z+1/2'
'-x+y, -x, -z+1/2'
'y, x, -z'
'x-y, -y, -z'
'-x, -x+y, -z'
'y, x, z+1/2'
'x-y, -y, z+1/2'
'-x, -x+y, z+1/2'
loop_
_atom_site_label
_atom_site_type_symbol
_atom_site_fract_x
_atom_site_fract_y
_atom_site_fract_z
_atom_site_U_iso_or_equiv
_atom_site_adp_type
_atom_site_occupancy
_atom_site_site_symmetry_order
_atom_site_calc_flag
_atom_site_refinement_flags_posn
_atom_site_refinement_flags_adp
_atom_site_refinement_flags_occupancy
_atom_site_disorder_assembly
_atom_site_disorder_group
Co1 Co 0.333333 0.666667 0.250000 0.0245(2) Uani 1 6 d S T P . .
K1 K 0.000000 1.000000 0.500000 0.0346(3) Uani 1 6 d S T P . .
O1 O 0.0084(5) 0.8125(4) 0.250000 0.0541(9) Uani 1 2 d S T P . .
N1 N 0.333333 0.666667 0.5671(4) 0.0225(6) Uani 1 3 d S T P . .
N2 N 0.1743(4) 0.7196(4) 0.250000 0.0374(8) Uani 1 2 d S T P . .
C1 C 0.1879(3) 0.5542(3) 0.6425(3) 0.0328(6) Uani 1 1 d . . . . .
H1A H 0.164266 0.456873 0.597682 0.039 Uiso 1 1 calc R U . . .
H1B H 0.111864 0.574410 0.597677 0.039 Uiso 1 1 calc R U . . .
C2 C 0.0949(5) 0.7659(5) 0.250000 0.0325(8) Uani 1 2 d S T P . .
loop_
_atom_site_aniso_label
_atom_site_aniso_U_11
_atom_site_aniso_U_22
_atom_site_aniso_U_33
_atom_site_aniso_U_23
_atom_site_aniso_U_13
_atom_site_aniso_U_12
Co1 0.0265(3) 0.0265(3) 0.0206(4) 0.000 0.000 0.01323(14)
K1 0.0384(4) 0.0384(4) 0.0270(6) 0.000 0.000 0.0192(2)
O1 0.074(2) 0.069(2) 0.049(2) 0.000 0.000 0.058(2)
N1 0.0252(9) 0.0252(9) 0.0173(13) 0.000 0.000 0.0126(4)
N2 0.045(2) 0.057(2) 0.0243(16) 0.000 0.000 0.0357(18)
C1 0.0283(12) 0.0398(15) 0.0180(11) -0.0035(9) -0.0006(9) 0.0077(11)
C2 0.045(2) 0.039(2) 0.0205(17) 0.000 0.000 0.0256(19)
loop_
_atom_type_symbol
_atom_type_description
_atom_type_scat_dispersion_real
_atom_type_scat_dispersion_imag
_atom_type_scat_source
C C 0.0033 0.0016 'International Tables Vol C Tables 4.2.6.8 and 6.1.1.4'
H H 0.0000 0.0000 'International Tables Vol C Tables 4.2.6.8 and 6.1.1.4'
Co Co 0.3494 0.9721 'International Tables Vol C Tables 4.2.6.8 and 6.1.1.4'
K K 0.2009 0.2494 'International Tables Vol C Tables 4.2.6.8 and 6.1.1.4'
N N 0.0061 0.0033 'International Tables Vol C Tables 4.2.6.8 and 6.1.1.4'
O O 0.0106 0.0060 'International Tables Vol C Tables 4.2.6.8 and 6.1.1.4'
loop_
_geom_angle_atom_site_label_1
_geom_angle_atom_site_label_2
_geom_angle_atom_site_label_3
_geom_angle
_geom_angle_site_symmetry_1
_geom_angle_site_symmetry_3
_geom_angle_publ_flag
N1 Co1 N1 180.0 . 4 ?
N2 Co1 N1 90.0 . . ?
N2 Co1 N1 90.000(1) 3_565 4 ?
N2 Co1 N1 90.0 . 4 ?
N2 Co1 N1 90.0 2_665 4 ?
N2 Co1 N1 90.0 2_665 . ?
N2 Co1 N1 90.0 3_565 . ?
N2 Co1 N2 120.0 . 2_665 ?
N2 Co1 N2 120.0 3_565 2_665 ?
N2 Co1 N2 120.000(1) . 3_565 ?
K1 K1 K1 180.0 4 4_556 ?
O1 K1 K1 48.11(4) 9_556 4_556 ?
O1 K1 K1 131.89(4) 9_556 4 ?
O1 K1 K1 48.11(4) 8_676 4_556 ?
O1 K1 K1 131.89(4) 2_675 4_556 ?
O1 K1 K1 131.89(4) 8_676 4 ?
O1 K1 K1 131.89(4) 7_466 4 ?
O1 K1 K1 131.89(4) . 4_556 ?
O1 K1 K1 131.89(4) 3_465 4_556 ?
O1 K1 K1 48.11(4) . 4 ?
O1 K1 K1 48.11(4) 3_465 4 ?
O1 K1 K1 48.11(4) 2_675 4 ?
O1 K1 K1 48.11(4) 7_466 4_556 ?
O1 K1 O1 133.27(16) 2_675 7_466 ?
O1 K1 O1 139.35(18) 8_676 3_465 ?
O1 K1 O1 139.35(18) . 7_466 ?
O1 K1 O1 80.29(7) 9_556 7_466 ?
O1 K1 O1 80.29(7) 8_676 7_466 ?
O1 K1 O1 80.29(7) 3_465 . ?
O1 K1 O1 133.27(16) 3_465 9_556 ?
O1 K1 O1 83.86(9) 8_676 2_675 ?
O1 K1 O1 133.27(16) 8_676 . ?
O1 K1 O1 80.29(7) 3_465 2_675 ?
O1 K1 O1 83.86(9) 3_465 7_466 ?
O1 K1 O1 80.29(7) . 2_675 ?
O1 K1 O1 80.29(7) 8_676 9_556 ?
O1 K1 O1 83.86(9) . 9_556 ?
O1 K1 O1 139.35(18) 2_675 9_556 ?
K1 O1 K1 83.77(9) . 4 ?
C2 O1 K1 126.1(2) . 4 ?
C2 O1 K1 126.1(2) . . ?
C1 N1 Co1 111.44(15) 3_565 . ?
C1 N1 Co1 111.44(15) . . ?
C1 N1 Co1 111.44(15) 2_665 . ?
C1 N1 C1 107.43(16) . 3_565 ?
C1 N1 C1 107.43(16) 3_565 2_665 ?
C1 N1 C1 107.43(16) . 2_665 ?
C2 N2 Co1 172.5(4) . . ?
N1 C1 C1 111.44(15) . 4_556 ?
N1 C1 H1A 109.3 . . ?
N1 C1 H1B 109.3 . . ?
C1 C1 H1A 109.3 4_556 . ?
C1 C1 H1B 109.3 4_556 . ?
H1A C1 H1B 108.0 . . ?
N2 C2 O1 178.8(5) . . ?
loop_
_geom_bond_atom_site_label_1
_geom_bond_atom_site_label_2
_geom_bond_distance
_geom_bond_site_symmetry_2
_geom_bond_publ_flag
Co1 N1 2.273(3) . ?
Co1 N1 2.273(3) 4 ?
Co1 N2 1.989(3) . ?
Co1 N2 1.989(3) 3_565 ?
Co1 N2 1.989(3) 2_665 ?
K1 K1 3.5835(2) 4 ?
K1 K1 3.5835(2) 4_556 ?
K1 O1 2.684(2) . ?
K1 O1 2.684(2) 9_556 ?
K1 O1 2.684(2) 3_465 ?
K1 O1 2.684(2) 2_675 ?
K1 O1 2.684(2) 8_676 ?
K1 O1 2.684(2) 7_466 ?
O1 C2 1.217(5) . ?
N1 C1 1.477(3) 3_565 ?
N1 C1 1.477(3) . ?
N1 C1 1.477(3) 2_665 ?
N2 C2 1.146(5) . ?
C1 C1 1.541(5) 4_556 ?
C1 H1A 0.9700 . ?
C1 H1B 0.9700 . ?
loop_
_geom_torsion_atom_site_label_1
_geom_torsion_atom_site_label_2
_geom_torsion_atom_site_label_3
_geom_torsion_atom_site_label_4
_geom_torsion
_geom_torsion_site_symmetry_1
_geom_torsion_site_symmetry_2
_geom_torsion_site_symmetry_3
_geom_torsion_site_symmetry_4
_geom_torsion_publ_flag
Co1 N1 C1 C1 180.002(0) . . . 4_556 ?
C1 N1 C1 C1 -57.66(17) 3_565 . . 4_556 ?
C1 N1 C1 C1 57.66(17) 2_665 . . 4_556 ?
