#------------------------------------------------------------------------------
#$Date: 2022-07-23 02:29:16 +0300 (Sat, 23 Jul 2022) $
#$Revision: 276812 $
#$URL: file:///home/coder/svn-repositories/cod/cif/7/24/51/7245157.cif $
#------------------------------------------------------------------------------
#
# This file is available in the Crystallography Open Database (COD),
# http://www.crystallography.net/
#
# All data on this site have been placed in the public domain by the
# contributors.
#
data_7245157
loop_
_publ_author_name
'Tsunashima, Ryo'
'Fujikawa, Naomi'
'Shiga, Misaki'
'Miyagawa, Sayu'
'Ohno, Shiori'
'Masuya-Suzuki, Atsuko'
'Takahashi, Kiyonori'
'Nakamura, Takayoshi'
'Akutagawa, Tomoyuki'
'Nishihara, Sadafumi'
_publ_section_title
;
 Slider-crank Mechanism in a Molecular Crystal: Conversion of Linear
 Thermal Expansion of Lattice to Circular Rotation of Coordination Chain
;
_journal_name_full               CrystEngComm
_journal_paper_doi               10.1039/D2CE00768A
_journal_year                    2022
_chemical_formula_moiety         'C9 H12 Co1 K1 N5 O3'
_chemical_formula_sum            'C9 H12 Co K N5 O3'
_chemical_formula_weight         336.27
_space_group_crystal_system      hexagonal
_space_group_IT_number           190
_space_group_name_Hall           'P -6c -2c'
_space_group_name_H-M_alt        'P -6 2 c'
_atom_sites_solution_hydrogens   geom
_atom_sites_solution_primary     dual
_audit_creation_date             2020-10-05
_audit_creation_method
;
Olex2 1.3-ac4
(compiled 2019.10.09 svn.r3662 for Rigaku Oxford Diffraction, GUI svn.r5959)
;
_audit_update_record
;
2022-03-17 deposited with the CCDC.	2022-07-19 downloaded from the CCDC.
;
_cell_angle_alpha                90
_cell_angle_beta                 90
_cell_angle_gamma                120
_cell_formula_units_Z            2
_cell_length_a                   10.4530(5)
_cell_length_b                   10.4530(5)
_cell_length_c                   7.1875(3)
_cell_measurement_reflns_used    2024
_cell_measurement_temperature    303
_cell_measurement_theta_max      27.8660
_cell_measurement_theta_min      2.2160
_cell_volume                     680.13(5)
_computing_cell_refinement       'CrysAlisPro 1.171.41.63a (Rigaku OD, 2020)'
_computing_data_collection       'CrysAlisPro 1.171.41.63a (Rigaku OD, 2020)'
_computing_data_reduction        'CrysAlisPro 1.171.41.63a (Rigaku OD, 2020)'
_computing_molecular_graphics    'Olex2 1.3-ac4 (Dolomanov et al., 2009)'
_computing_publication_material  'Olex2 1.3-ac4 (Dolomanov et al., 2009)'
_computing_structure_refinement  'ShelXL 2018/3 (Sheldrick, 2015)'
_computing_structure_solution    'SHELXT 2018/2 (Sheldrick, 2018)'
_diffrn_ambient_temperature      303
_diffrn_detector                 'Hybrid Pixel Array Detector'
_diffrn_detector_area_resol_mean 10.0000
_diffrn_detector_type            HyPix
_diffrn_measured_fraction_theta_full 1.000
_diffrn_measured_fraction_theta_max 0.937
_diffrn_measurement_details
;
List of Runs (angles in degrees, time in seconds):

  # Type    Start    End  Width  t~exp~   \w     \q     \k     \f   Frames
#--------------------------------------------------------------------------
  1  \w     48.00  93.00   0.50    0.16    --   21.85-178.00 150.00   90
  2  \w    -41.00  30.00   0.50    0.16    --   21.85  40.00 149.00  142
  3  \w     71.00 104.00   0.50    0.16    --   21.85  40.00 149.00   66
  4  \w     50.00 103.00   0.50    0.16    --   21.85 178.00-180.00  106
  5  \w     -5.00  59.00   0.50    0.16    --  -21.77  19.00-120.00  128
  6  \w    -87.00  -3.00   0.50    0.16    --  -21.77 110.00-129.00  168
  7  \w    -72.00 -46.00   0.50    0.16    --  -21.77 178.00-120.00   52
;
_diffrn_measurement_device       'four-circle diffractometer'
_diffrn_measurement_device_type  'XtaLAB Synergy R, HyPix'
_diffrn_measurement_method       '\w scans'
_diffrn_measurement_specimen_support 'Mitegen 50um'
_diffrn_orient_matrix_type
'CrysAlisPro convention (1999,Acta A55,543-557)'
_diffrn_orient_matrix_UB_11      0.0018589000
_diffrn_orient_matrix_UB_12      0.0154069000
_diffrn_orient_matrix_UB_13      -0.0963788000
_diffrn_orient_matrix_UB_21      0.0735906000
_diffrn_orient_matrix_UB_22      0.0137898000
_diffrn_orient_matrix_UB_23      -0.0050869000
_diffrn_orient_matrix_UB_31      -0.0267661000
_diffrn_orient_matrix_UB_32      -0.0755935000
_diffrn_orient_matrix_UB_33      -0.0205063000
_diffrn_radiation_collimation    0.3
_diffrn_radiation_monochromator  mirror
_diffrn_radiation_probe          x-ray
_diffrn_radiation_type           'Mo K\a'
_diffrn_radiation_wavelength     0.71073
_diffrn_reflns_av_R_equivalents  0.0558
_diffrn_reflns_av_unetI/netI     0.0342
_diffrn_reflns_Laue_measured_fraction_full 1.000
_diffrn_reflns_Laue_measured_fraction_max 0.937
_diffrn_reflns_limit_h_max       13
_diffrn_reflns_limit_h_min       -13
_diffrn_reflns_limit_k_max       13
_diffrn_reflns_limit_k_min       -13
_diffrn_reflns_limit_l_max       9
_diffrn_reflns_limit_l_min       -9
_diffrn_reflns_number            4236
_diffrn_reflns_point_group_measured_fraction_full 0.998
_diffrn_reflns_point_group_measured_fraction_max 0.910
_diffrn_reflns_theta_full        25.242
_diffrn_reflns_theta_max         29.104
_diffrn_reflns_theta_min         2.250
_diffrn_source                   'micro-focus sealed X-ray tube'
_diffrn_source_current           24.0
_diffrn_source_power             1.2
_diffrn_source_target            Mo
_diffrn_source_type              'Mova (Mo) X-ray Source'
_diffrn_source_voltage           50.0
_exptl_absorpt_coefficient_mu    1.578
_exptl_absorpt_correction_T_max  1.00000
_exptl_absorpt_correction_T_min  0.64682
_exptl_absorpt_correction_type   multi-scan
_exptl_absorpt_process_details
;
CrysAlisPro 1.171.41.63a (Rigaku Oxford Diffraction, 2020)
Empirical absorption correction using spherical harmonics,
 implemented in SCALE3 ABSPACK scaling algorithm.
;
_exptl_crystal_colour            violet
_exptl_crystal_colour_primary    violet
_exptl_crystal_density_diffrn    1.642
_exptl_crystal_description       block
_exptl_crystal_F_000             342
_exptl_crystal_size_max          0.29
_exptl_crystal_size_mid          0.266
_exptl_crystal_size_min          0.221
_refine_diff_density_max         0.188
_refine_diff_density_min         -0.233
_refine_diff_density_rms         0.051
_refine_ls_abs_structure_details
;
 Flack x determined using 193 quotients [(I+)-(I-)]/[(I+)+(I-)]
 (Parsons, Flack and Wagner, Acta Cryst. B69 (2013) 249-259).
;
_refine_ls_abs_structure_Flack   0.04(3)
_refine_ls_extinction_coef       0.010(2)
_refine_ls_extinction_expression Fc^*^=kFc[1+0.001xFc^2^\l^3^/sin(2\q)]^-1/4^
_refine_ls_extinction_method     'SHELXL-2018/3 (Sheldrick 2018)'
_refine_ls_goodness_of_fit_ref   1.097
_refine_ls_hydrogen_treatment    constr
_refine_ls_matrix_type           full
_refine_ls_number_parameters     36
_refine_ls_number_reflns         605
_refine_ls_number_restraints     0
_refine_ls_restrained_S_all      1.097
_refine_ls_R_factor_all          0.0374
_refine_ls_R_factor_gt           0.0279
_refine_ls_shift/su_max          0.004
_refine_ls_shift/su_mean         0.001
_refine_ls_structure_factor_coef Fsqd
_refine_ls_weighting_details
'w=1/[\s^2^(Fo^2^)+(0.0235P)^2^+0.2383P] where P=(Fo^2^+2Fc^2^)/3'
_refine_ls_weighting_scheme      calc
_refine_ls_wR_factor_gt          0.0648
_refine_ls_wR_factor_ref         0.0682
_reflns_Friedel_coverage         0.685
_reflns_Friedel_fraction_full    0.995
_reflns_Friedel_fraction_max     0.872
_reflns_number_gt                503
_reflns_number_total             605
_reflns_threshold_expression     'I > 2\s(I)'
_cod_data_source_file            d2ce00768a2.cif
_cod_data_source_block           303k
_cod_original_cell_volume        680.13(7)
_cod_database_code               7245157
_shelx_shelxl_version_number     2018/3
_chemical_oxdiff_formula         C9H12N5O3CoK
_shelx_space_group_comment
;
The symmetry employed for this shelxl refinement is uniquely defined
by the following loop, which should always be used as a source of
symmetry information in preference to the above space-group names.
They are only intended as comments.
;
_shelx_estimated_absorpt_t_max   0.722
_shelx_estimated_absorpt_t_min   0.658
_reflns_odcompleteness_completeness 100.00
_reflns_odcompleteness_iscentric 1
_reflns_odcompleteness_theta     26.32
_olex2_refinement_description
;
1. Fixed Uiso
 At 1.2 times of:
  All C(H,H) groups
2.a Secondary CH2 refined with riding coordinates:
 C1(H1A,H1B)
;
_shelx_res_file
;
TITL 303k_a.res in P-62c
    303k.res
    created by SHELXL-2018/3 at 17:19:12 on 05-Oct-2020
REM Old TITL 303K in P6(3)mc
REM SHELXT solution in P-62c: R1 0.144, Rweak 0.008, Alpha 0.028
REM <I/s> 0.343 for 22 systematic absences, Orientation as input
REM Flack x = 0.491 ( 0.163 ) from 100 Parsons' quotients
REM Formula found by SHELXT: C9 N8 K Co
CELL 0.71073 10.452954 10.452954 7.187549 90 90 120
ZERR 2 0.000512 0.000512 0.000326 0 0 0
LATT -1
SYMM -Y,+X-Y,+Z
SYMM +Y-X,-X,+Z
SYMM +X,+Y,0.5-Z
SYMM -Y,+X-Y,0.5-Z
SYMM +Y-X,-X,0.5-Z
SYMM +Y,+X,-Z
SYMM -Y+X,-Y,-Z
SYMM -X,-X+Y,-Z
SYMM +Y,+X,0.5+Z
SYMM -Y+X,-Y,0.5+Z
SYMM -X,-X+Y,0.5+Z
SFAC C H Co K N O
UNIT 18 24 2 2 10 6

L.S. 4
PLAN  5
SIZE 0.221 0.266 0.29
CONF
BOND $H
MORE -1
fmap 2
acta
REM <olex2.extras>
REM <HklSrc "%.\\303K.hkl">
REM </olex2.extras>

WGHT    0.023500    0.238300
EXTI    0.009894
FVAR       0.83093
CO1   3    0.666667    0.333333    0.250000    10.16667    0.03284    0.03284 =
         0.02759    0.00000    0.00000    0.01642
K1    4    1.000000    1.000000    0.500000    10.16667    0.04726    0.04726 =
         0.03563    0.00000    0.00000    0.02363
N1    5    0.666667    0.333333    0.567307    10.33333    0.03036    0.03036 =
         0.02197    0.00000    0.00000    0.01518
O1    6    0.817702    0.802049    0.250000    10.50000    0.09383    0.03432 =
         0.06618    0.00000    0.00000    0.01078
C1    1    0.556542    0.368390    0.642946    11.00000    0.04907    0.06355 =
         0.02510   -0.00213   -0.00229    0.03873
AFIX  23
H1A   2    0.459133    0.296140    0.598345    11.00000   -1.20000
H1B   2    0.578176    0.464763    0.598348    11.00000   -1.20000
AFIX   0
N2    5    0.723523    0.544740    0.250000    10.50000    0.06718    0.03228 =
         0.03306    0.00000    0.00000    0.02348
C2    1    0.770562    0.669142    0.250000    10.50000    0.05154    0.04137 =
         0.02503    0.00000    0.00000    0.01511
HKLF 4




REM  303k_a.res in P-62c
REM wR2 = 0.0682, GooF = S = 1.097, Restrained GooF = 1.097 for all data
REM R1 = 0.0279 for 503 Fo > 4sig(Fo) and 0.0374 for all 605 data
REM 36 parameters refined using 0 restraints

END

WGHT      0.0237      0.2344

REM Highest difference peak  0.188,  deepest hole -0.233,  1-sigma level  0.051
Q1    1   0.8879  0.7680  0.2500  10.50000  0.05    0.19
Q2    1   1.0032  0.8109  0.2500  10.50000  0.05    0.17
Q3    1   0.7271  0.4454  0.1544  11.00000  0.05    0.17
Q4    1   0.7755  0.5862  0.1778  11.00000  0.05    0.16
Q5    1   0.7229  0.3541  0.6030  11.00000  0.05    0.16
;
_shelx_res_checksum              64121
_olex2_submission_special_instructions 'No special instructions were received'
_oxdiff_exptl_absorpt_empirical_details
;
Empirical correction (ABSPACK) includes:
- Absorption correction using spherical harmonics
- Frame scaling
;
_oxdiff_exptl_absorpt_empirical_full_max 2.851
_oxdiff_exptl_absorpt_empirical_full_min 0.455
loop_
_space_group_symop_operation_xyz
'x, y, z'
'-y, x-y, z'
'-x+y, -x, z'
'x, y, -z+1/2'
'-y, x-y, -z+1/2'
'-x+y, -x, -z+1/2'
'y, x, -z'
'x-y, -y, -z'
'-x, -x+y, -z'
'y, x, z+1/2'
'x-y, -y, z+1/2'
'-x, -x+y, z+1/2'
loop_
_atom_site_label
_atom_site_type_symbol
_atom_site_fract_x
_atom_site_fract_y
_atom_site_fract_z
_atom_site_U_iso_or_equiv
_atom_site_adp_type
_atom_site_occupancy
_atom_site_site_symmetry_order
_atom_site_calc_flag
_atom_site_refinement_flags_posn
_atom_site_refinement_flags_adp
_atom_site_refinement_flags_occupancy
_atom_site_disorder_assembly
_atom_site_disorder_group
Co1 Co 0.666667 0.333333 0.250000 0.0311(3) Uani 1 6 d S T P . .
K1 K 1.000000 1.000000 0.500000 0.0434(4) Uani 1 6 d S T P . .
N1 N 0.666667 0.333333 0.5673(4) 0.0276(7) Uani 1 3 d S T P . .
O1 O 0.8177(5) 0.8020(4) 0.250000 0.0742(14) Uani 1 2 d S T P . .
C1 C 0.5565(4) 0.3684(4) 0.6429(4) 0.0412(8) Uani 1 1 d . . . . .
H1A H 0.459133 0.296140 0.598345 0.049 Uiso 1 1 calc R U . . .
H1B H 0.578176 0.464763 0.598348 0.049 Uiso 1 1 calc R U . . .
N2 N 0.7235(5) 0.5447(5) 0.250000 0.0448(11) Uani 1 2 d S T P . .
C2 C 0.7706(6) 0.6691(6) 0.250000 0.0429(12) Uani 1 2 d S T P . .
loop_
_atom_site_aniso_label
_atom_site_aniso_U_11
_atom_site_aniso_U_22
_atom_site_aniso_U_33
_atom_site_aniso_U_23
_atom_site_aniso_U_13
_atom_site_aniso_U_12
Co1 0.0328(4) 0.0328(4) 0.0276(4) 0.000 0.000 0.01642(18)
K1 0.0473(6) 0.0473(6) 0.0356(8) 0.000 0.000 0.0236(3)
N1 0.0304(12) 0.0304(12) 0.0220(15) 0.000 0.000 0.0152(6)
O1 0.094(3) 0.034(2) 0.066(3) 0.000 0.000 0.011(2)
C1 0.049(2) 0.064(2) 0.0251(14) -0.0021(13) -0.0023(12) 0.039(2)
N2 0.067(3) 0.032(2) 0.033(2) 0.000 0.000 0.023(2)
C2 0.052(3) 0.041(3) 0.025(2) 0.000 0.000 0.015(3)
loop_
_atom_type_symbol
_atom_type_description
_atom_type_scat_dispersion_real
_atom_type_scat_dispersion_imag
_atom_type_scat_source
C C 0.0033 0.0016 'International Tables Vol C Tables 4.2.6.8 and 6.1.1.4'
H H 0.0000 0.0000 'International Tables Vol C Tables 4.2.6.8 and 6.1.1.4'
Co Co 0.3494 0.9721 'International Tables Vol C Tables 4.2.6.8 and 6.1.1.4'
K K 0.2009 0.2494 'International Tables Vol C Tables 4.2.6.8 and 6.1.1.4'
N N 0.0061 0.0033 'International Tables Vol C Tables 4.2.6.8 and 6.1.1.4'
O O 0.0106 0.0060 'International Tables Vol C Tables 4.2.6.8 and 6.1.1.4'
loop_
_geom_angle_atom_site_label_1
_geom_angle_atom_site_label_2
_geom_angle_atom_site_label_3
_geom_angle
_geom_angle_site_symmetry_1
_geom_angle_site_symmetry_3
_geom_angle_publ_flag
N1 Co1 N1 180.0 4 . ?
N2 Co1 N1 90.0 3_665 4 ?
N2 Co1 N1 90.0 . . ?
N2 Co1 N1 90.0 2_655 . ?
N2 Co1 N1 90.000(1) 2_655 4 ?
N2 Co1 N1 90.0 3_665 . ?
N2 Co1 N1 90.0 . 4 ?
N2 Co1 N2 120.0 2_655 . ?
N2 Co1 N2 120.0 3_665 . ?
N2 Co1 N2 120.0 3_665 2_655 ?
K1 K1 K1 180.0 4_556 4 ?
O1 K1 K1 47.95(6) 3_675 4 ?
O1 K1 K1 47.95(6) . 4 ?
O1 K1 K1 132.05(6) 3_675 4_556 ?
O1 K1 K1 132.05(6) 7_556 4 ?
O1 K1 K1 132.05(6) 9_766 4 ?
O1 K1 K1 132.05(6) . 4_556 ?
O1 K1 K1 132.05(6) 2_765 4_556 ?
O1 K1 K1 47.95(6) 8_676 4_556 ?
O1 K1 K1 132.05(6) 8_676 4 ?
O1 K1 K1 47.95(6) 9_766 4_556 ?
O1 K1 K1 47.95(6) 7_556 4_556 ?
O1 K1 K1 47.95(6) 2_765 4 ?
O1 K1 O1 80.05(9) 3_675 2_765 ?
O1 K1 O1 80.05(9) . 2_765 ?
O1 K1 O1 130.8(2) . 9_766 ?
O1 K1 O1 84.41(12) . 7_556 ?
O1 K1 O1 80.05(9) 8_676 9_766 ?
O1 K1 O1 80.05(9) 8_676 7_556 ?
O1 K1 O1 130.8(2) 7_556 3_675 ?
O1 K1 O1 80.05(9) 9_766 7_556 ?
O1 K1 O1 84.41(12) 9_766 2_765 ?
O1 K1 O1 80.05(9) . 3_675 ?
O1 K1 O1 84.41(12) 8_676 3_675 ?
O1 K1 O1 142.1(2) 7_556 2_765 ?
O1 K1 O1 142.1(2) . 8_676 ?
O1 K1 O1 142.1(2) 9_766 3_675 ?
O1 K1 O1 130.8(2) 8_676 2_765 ?
C1 N1 Co1 111.62(17) . . ?
C1 N1 Co1 111.62(17) 3_665 . ?
C1 N1 Co1 111.62(17) 2_655 . ?
C1 N1 C1 107.24(19) 2_655 . ?
C1 N1 C1 107.24(19) 2_655 3_665 ?
C1 N1 C1 107.24(19) 3_665 . ?
K1 O1 K1 84.09(11) . 4 ?
C2 O1 K1 127.2(3) . 4 ?
C2 O1 K1 127.2(3) . . ?
N1 C1 C1 111.62(17) . 4_556 ?
N1 C1 H1A 109.3 . . ?
N1 C1 H1B 109.3 . . ?
C1 C1 H1A 109.3 4_556 . ?
C1 C1 H1B 109.3 4_556 . ?
H1A C1 H1B 108.0 . . ?
C2 N2 Co1 173.1(5) . . ?
N2 C2 O1 178.5(7) . . ?
loop_
_geom_bond_atom_site_label_1
_geom_bond_atom_site_label_2
_geom_bond_distance
_geom_bond_site_symmetry_2
_geom_bond_publ_flag
Co1 N1 2.281(3) 4 ?
Co1 N1 2.281(3) . ?
Co1 N2 1.981(4) 3_665 ?
Co1 N2 1.981(4) 2_655 ?
Co1 N2 1.981(4) . ?
K1 K1 3.59377(17) 4_556 ?
K1 K1 3.59377(17) 4 ?
K1 O1 2.683(3) 9_766 ?
K1 O1 2.683(3) 3_675 ?
K1 O1 2.683(3) 8_676 ?
K1 O1 2.683(3) 7_556 ?
K1 O1 2.683(3) . ?
K1 O1 2.683(3) 2_765 ?
N1 C1 1.475(3) 2_655 ?
N1 C1 1.475(3) . ?
N1 C1 1.475(3) 3_665 ?
O1 C2 1.220(7) . ?
C1 C1 1.539(6) 4_556 ?
C1 H1A 0.9700 . ?
C1 H1B 0.9700 . ?
N2 C2 1.137(6) . ?
loop_
_geom_torsion_atom_site_label_1
_geom_torsion_atom_site_label_2
_geom_torsion_atom_site_label_3
_geom_torsion_atom_site_label_4
_geom_torsion
_geom_torsion_site_symmetry_1
_geom_torsion_site_symmetry_2
_geom_torsion_site_symmetry_3
_geom_torsion_site_symmetry_4
_geom_torsion_publ_flag
Co1 N1 C1 C1 179.999(1) . . . 4_556 ?
C1 N1 C1 C1 57.5(2) 2_655 . . 4_556 ?
C1 N1 C1 C1 -57.5(2) 3_665 . . 4_556 ?
