#------------------------------------------------------------------------------
#$Date: 2022-06-10 03:53:31 +0300 (Fri, 10 Jun 2022) $
#$Revision: 275952 $
#$URL: file:///home/coder/svn-repositories/cod/cif/7/24/50/7245050.cif $
#------------------------------------------------------------------------------
#
# This file is available in the Crystallography Open Database (COD),
# http://www.crystallography.net/
#
# All data on this site have been placed in the public domain by the
# contributors.
#
data_7245050
loop_
_publ_author_name
'Nicholas, Aaron D.'
'Garman, Leah C.'
'Albano, Nicolina'
'Cahill, Chris'
_publ_section_title
;
 Insight on noncovalent interactions and orbital constructs in
 low-dimensional antimony halide perovskites
;
_journal_name_full               'Physical Chemistry Chemical Physics'
_journal_paper_doi               10.1039/D2CP01996E
_journal_year                    2022
_chemical_formula_moiety         'I8 Sb2, 2(C5 H5 Br N)'
_chemical_formula_sum            'C10 H10 Br2 I8 N2 Sb2'
_chemical_formula_weight         1576.72
_chemical_name_common            (C5H5NBr)SbI4
_space_group_crystal_system      monoclinic
_space_group_IT_number           14
_space_group_name_Hall           '-P 2ybc'
_space_group_name_H-M_alt        'P 1 21/c 1'
_atom_sites_solution_hydrogens   geom
_audit_update_record
;
2021-03-05 deposited with the CCDC.	2022-06-06 downloaded from the CCDC.
;
_cell_angle_alpha                90
_cell_angle_beta                 94.723(4)
_cell_angle_gamma                90
_cell_formula_units_Z            2
_cell_length_a                   9.4289(11)
_cell_length_b                   20.043(2)
_cell_length_c                   7.5474(6)
_cell_measurement_reflns_used    1964
_cell_measurement_temperature    100.(2)
_cell_measurement_theta_max      28.0727
_cell_measurement_theta_min      2.0318
_cell_volume                     1421.5(2)
_computing_cell_refinement       'APEX3 v2019.1-0 (Bruker AXS)'
_computing_data_collection       'Bruker Instrument Service vV6.2.12'
_computing_data_reduction        'SAINT V8.40A (Bruker Nano, Inc., 2019)'
_computing_molecular_graphics    'shelXle (C.B. Huebschle, rev 958)'
_computing_structure_refinement  'SHELXL-2018/3 (Sheldrick, 2018)'
_computing_structure_solution    'SHELXT 2014/5 (Sheldrick, 2014)'
_diffrn_ambient_temperature      100.(2)
_diffrn_detector_area_resol_mean 7.3910
_diffrn_measured_fraction_theta_full 0.998
_diffrn_measured_fraction_theta_max 0.998
_diffrn_measurement_device_type  'Bruker D8 QUEST'
_diffrn_measurement_method       '\f and \w scans'
_diffrn_radiation_monochromator  'multilayer mirror'
_diffrn_radiation_type           'Mo K\a'
_diffrn_radiation_wavelength     0.71073
_diffrn_reflns_av_R_equivalents  0.0465
_diffrn_reflns_av_unetI/netI     0.0244
_diffrn_reflns_limit_h_max       15
_diffrn_reflns_limit_h_min       -15
_diffrn_reflns_limit_k_max       33
_diffrn_reflns_limit_k_min       -33
_diffrn_reflns_limit_l_max       12
_diffrn_reflns_limit_l_min       -12
_diffrn_reflns_number            57842
_diffrn_reflns_theta_full        36.35
_diffrn_reflns_theta_max         36.35
_diffrn_reflns_theta_min         2.17
_diffrn_source                   'microfocus sealed tube'
_diffrn_source_type              'Incoatec I\mS 3.0'
_exptl_absorpt_coefficient_mu    13.400
_exptl_absorpt_correction_T_max  0.75
_exptl_absorpt_correction_T_min  0.39
_exptl_absorpt_correction_type   multi-scan
_exptl_absorpt_process_details
;
Krause, L., Herbst-Irmer, R., Sheldrick, G. M., Stalke, D. (2015).
"Comparison of silver and molybdenum microfocus X-ray sources for
single-crystal structure determination"
J. Appl. Cryst. 48, 3-10.
doi:10.1107/S1600576714022985
;
_exptl_crystal_colour            'clear intense red'
_exptl_crystal_density_diffrn    3.684
_exptl_crystal_density_method    'not measured'
_exptl_crystal_description       Plate
_exptl_crystal_F_000             1360
_exptl_crystal_size_max          0.338
_exptl_crystal_size_mid          0.191
_exptl_crystal_size_min          0.140
_refine_diff_density_max         1.031
_refine_diff_density_min         -1.232
_refine_ls_extinction_method     none
_refine_ls_goodness_of_fit_ref   1.260
_refine_ls_hydrogen_treatment    constr
_refine_ls_matrix_type           full
_refine_ls_number_parameters     109
_refine_ls_number_reflns         6899
_refine_ls_number_restraints     0
_refine_ls_restrained_S_all      1.260
_refine_ls_R_factor_all          0.0295
_refine_ls_R_factor_gt           0.0253
_refine_ls_shift/su_max          0.003
_refine_ls_shift/su_mean         0.000
_refine_ls_structure_factor_coef Fsqd
_refine_ls_weighting_details
'w=1/[\s^2^(Fo^2^)+4.1465P] where P=(Fo^2^+2Fc^2^)/3'
_refine_ls_weighting_scheme      calc
_refine_ls_wR_factor_gt          0.0485
_refine_ls_wR_factor_ref         0.0494
_reflns_number_gt                6353
_reflns_number_total             6899
_reflns_threshold_expression     'I > 2\s(I)'
_cod_data_source_file            d2cp01996e2.cif
_cod_data_source_block           Cmpd8_LCG1_44_C
_cod_depositor_comments
;
The following automatic conversions were performed:

data item '_exptl_absorpt_correction_type' value 'Multi-Scan' was
changed to 'multi-scan' in accordance with the
/home/data/users/saulius/crontab/automatic-downloads/rss-feeds/RSC/lib/dictionaries/cif_core.dic
dictionary named 'cif_core.dic' version 2.4.2 last updated on
2011-04-26.

Automatic conversion script
Id: cif_fix_values 7556 2019-12-06 15:28:31Z antanas 
;
_cod_original_cell_volume        1421.5(3)
_cod_database_code               7245050
_shelx_res_file
;

TITL LCG1_44_C_0m_a.res in P2(1)/c
    LCG1_44_C_0m_a.res
    created by SHELXL-2018/3 at 11:33:25 on 19-Nov-2020
REM Old TITL Integration of LCG1_44_C
REM SHELXT solution in P2(1)/c
REM R1 0.062,  Rweak 0.005,  Alpha 0.012,  Orientation a'=c, b'=-b, c'=a
REM Formula found by SHELXT:  C5 Br I5 N
CELL  0.71073   9.4289  20.0427   7.5474   90.000   94.723   90.000
ZERR    4.000   0.0011   0.0022   0.0006    0.000    0.004    0.000
LATT  1
SYMM -X, 1/2+Y, 1/2-Z
SFAC C BR I N SB H
UNIT 20 4 16 4 4 20
ACTA
TEMP -173.150
L.S. 10
HTAB
BOND $H
LIST 6
FMAP 2
PLAN 20
WGHT    0.000000    4.146500
FVAR       0.20305
RESI 1 ANTI
SB1   5    0.088071    0.551175    0.256633    11.00000    0.00840    0.00941 =
         0.01099    0.00030    0.00103    0.00008
I1    3    0.218806    0.478771    0.605488    11.00000    0.00803    0.00937 =
         0.01404    0.00107    0.00155    0.00029
I2    3    0.373737    0.561665    0.162792    11.00000    0.00935    0.01606 =
         0.01763    0.00413    0.00405    0.00085
I3    3    0.077406    0.678683    0.412392    11.00000    0.01431    0.01049 =
         0.01742   -0.00226   -0.00013   -0.00024
I4    3   -0.033724    0.603149   -0.084475    11.00000    0.01772    0.01188 =
         0.01207    0.00038   -0.00075    0.00420
RESI 0
RESI 2 PYRD
N1    4    0.389965    0.628534    0.726233    11.00000    0.02149    0.01057 =
         0.01846    0.00003    0.00146   -0.00404
AFIX  43
H1    6    0.331870    0.595190    0.743105    11.00000   -1.20000
AFIX   0
BR1   2    0.695934    0.800574    0.642672    11.00000    0.01698    0.01866 =
         0.02920   -0.00275    0.00141   -0.00859
C2    1    0.512829    0.615199    0.655923    11.00000    0.02330    0.00986 =
         0.02092   -0.00045    0.00162    0.00262
AFIX  43
H2    6    0.534784    0.570815    0.623474    11.00000   -1.20000
AFIX   0
C3    1    0.607469    0.666379    0.630858    11.00000    0.01760    0.01529 =
         0.01628   -0.00126    0.00170    0.00352
AFIX  43
H3    6    0.695796    0.657867    0.583032    11.00000   -1.20000
AFIX   0
C4    1    0.569686    0.730507    0.677574    11.00000    0.01344    0.01138 =
         0.01392   -0.00030   -0.00211   -0.00220
C5    1    0.440715    0.743431    0.748636    11.00000    0.01462    0.00981 =
         0.01804   -0.00194   -0.00104   -0.00020
AFIX  43
H5    6    0.415285    0.787499    0.779874    11.00000   -1.20000
AFIX   0
C6    1    0.350906    0.690314    0.772348    11.00000    0.01569    0.01441 =
         0.01677   -0.00011   -0.00088   -0.00058
AFIX  43
H6    6    0.262267    0.697332    0.820823    11.00000   -1.20000
RESI 0
REM #####
AFIX   0
HKLF 4




REM  LCG1_44_C_0m_a.res in P2(1)/c
REM wR2 = 0.049379, GooF = S = 1.25963, Restrained GooF = 1.25963 for all data
REM R1 = 0.025320 for 6353 Fo > 4sig(Fo) and 0.029487 for all 6899 data
REM 109 parameters refined using 0 restraints

END

WGHT      0.0000      4.1465

REM Instructions for potential hydrogen bonds
HTAB N1_2 I1_1
EQIV $2 -x+1, -y+1, -z+1
HTAB_1 C2_2 I1_$2
HTAB_1 C2_2 I2_$2
HTAB_1 C3_2 I1_$2
EQIV $3 x, -y+3/2, z+1/2
HTAB_1 C5_2 I2_$3
HTAB_1 C6_2 I3_$3

REM Highest difference peak  1.031,  deepest hole -1.232,  1-sigma level  0.212
Q1    1   0.7037  0.7977  0.7269  11.00000  0.05    1.03
Q2    1   0.3654  0.5595  0.2666  11.00000  0.05    1.01
Q3    1   0.2353  0.4812  0.5034  11.00000  0.05    0.93
Q4    1  -0.0200  0.6029 -0.1731  11.00000  0.05    0.93
Q5    1   0.1139  0.5464  0.6432  11.00000  0.05    0.91
Q6    1   0.0796  0.5527  0.3522  11.00000  0.05    0.86
Q7    1   0.3848  0.7198  0.7664  11.00000  0.05    0.85
Q8    1  -0.1129  0.6660 -0.0132  11.00000  0.05    0.78
Q9    1   0.0831  0.4598  0.2744  11.00000  0.05    0.77
Q10   1  -0.0509  0.6007  0.0108  11.00000  0.05    0.77
Q11   1   0.5654  0.5379  0.6805  11.00000  0.05    0.75
Q12   1   0.5767  0.6961  0.6616  11.00000  0.05    0.74
Q13   1   0.7994  0.8241  0.7699  11.00000  0.05    0.74
Q14   1   0.1545  0.6731  0.8178  11.00000  0.05    0.72
Q15   1   0.1905  0.5391  0.6088  11.00000  0.05    0.72
Q16   1   0.5007  0.6647  0.5526  11.00000  0.05    0.71
Q17   1   0.5354  0.5286  0.4058  11.00000  0.05    0.70
Q18   1   0.5004  0.4977  0.2073  11.00000  0.05    0.70
Q19   1   0.0843  0.6786  0.3191  11.00000  0.05    0.70
Q20   1   0.5419  0.5380  0.7992  11.00000  0.05    0.70
;
_shelx_res_checksum              10270
loop_
_space_group_symop_operation_xyz
'x, y, z'
'-x, y+1/2, -z+1/2'
'-x, -y, -z'
'x, -y-1/2, z-1/2'
loop_
_atom_site_type_symbol
_atom_site_label
_atom_site_fract_x
_atom_site_fract_y
_atom_site_fract_z
_atom_site_U_iso_or_equiv
_atom_site_adp_type
_atom_site_calc_flag
_atom_site_refinement_flags_adp
_atom_site_refinement_flags_occupancy
_atom_site_refinement_flags_posn
_atom_site_occupancy
_atom_site_disorder_assembly
_atom_site_disorder_group
Sb Sb1_1 0.08807(2) 0.55117(2) 0.25663(2) 0.00959(3) Uani d . . . 1 . .
I I1_1 0.21881(2) 0.47877(2) 0.60549(2) 0.01045(3) Uani d . . . 1 . .
I I2_1 0.37374(2) 0.56166(2) 0.16279(3) 0.01419(4) Uani d . . . 1 . .
I I3_1 0.07741(2) 0.67868(2) 0.41239(3) 0.01415(4) Uani d . . . 1 . .
I I4_1 -0.03372(2) 0.60315(2) -0.08447(2) 0.01400(4) Uani d . . . 1 . .
N N1_2 0.3900(3) 0.62853(13) 0.7262(4) 0.0168(5) Uani d . . . 1 . .
H H1_2 0.33187 0.59519 0.743105 0.02 Uiso calc U . R 1 . .
Br Br1_2 0.69593(4) 0.80057(2) 0.64267(5) 0.02164(6) Uani d . . . 1 . .
C C2_2 0.5128(4) 0.61520(15) 0.6559(4) 0.0180(5) Uani d . . . 1 . .
H H2_2 0.534784 0.570815 0.623474 0.022 Uiso calc U . R 1 . .
C C3_2 0.6075(3) 0.66638(15) 0.6309(4) 0.0164(5) Uani d . . . 1 . .
H H3_2 0.695796 0.657867 0.583032 0.02 Uiso calc U . R 1 . .
C C4_2 0.5697(3) 0.73051(14) 0.6776(4) 0.0131(4) Uani d . . . 1 . .
C C5_2 0.4407(3) 0.74343(14) 0.7486(4) 0.0143(5) Uani d . . . 1 . .
H H5_2 0.415285 0.787499 0.779874 0.017 Uiso calc U . R 1 . .
C C6_2 0.3509(3) 0.69031(15) 0.7723(4) 0.0157(5) Uani d . . . 1 . .
H H6_2 0.262267 0.697332 0.820823 0.019 Uiso calc U . R 1 . .
loop_
_atom_site_aniso_label
_atom_site_aniso_U_11
_atom_site_aniso_U_22
_atom_site_aniso_U_33
_atom_site_aniso_U_12
_atom_site_aniso_U_13
_atom_site_aniso_U_23
Sb1_1 0.00840(7) 0.00941(7) 0.01099(7) 0.00008(5) 0.00103(5) 0.00030(5)
I1_1 0.00803(6) 0.00937(6) 0.01404(7) 0.00029(5) 0.00155(5) 0.00107(5)
I2_1 0.00935(7) 0.01606(8) 0.01763(8) 0.00085(5) 0.00405(6) 0.00413(6)
I3_1 0.01431(7) 0.01049(7) 0.01742(8) -0.00024(6) -0.00013(6) -0.00226(6)
I4_1 0.01772(8) 0.01188(7) 0.01207(7) 0.00420(6) -0.00075(6) 0.00038(6)
N1_2 0.0215(12) 0.0106(10) 0.0185(11) -0.0040(8) 0.0015(9) 0.0000(8)
Br1_2 0.01698(13) 0.01866(14) 0.02920(16) -0.00859(11) 0.00141(12) -0.00275(12)
C2_2 0.0233(14) 0.0099(11) 0.0209(13) 0.0026(10) 0.0016(11) -0.0004(10)
C3_2 0.0176(12) 0.0153(12) 0.0163(12) 0.0035(10) 0.0017(10) -0.0013(10)
C4_2 0.0134(11) 0.0114(10) 0.0139(11) -0.0022(8) -0.0021(9) -0.0003(9)
C5_2 0.0146(11) 0.0098(10) 0.0180(12) -0.0002(9) -0.0010(9) -0.0019(9)
C6_2 0.0157(12) 0.0144(12) 0.0168(12) -0.0006(9) -0.0009(10) -0.0001(9)
loop_
_atom_type_symbol
_atom_type_description
_atom_type_scat_dispersion_real
_atom_type_scat_dispersion_imag
_atom_type_scat_source
C C 0.0033 0.0016 'International Tables Vol C Tables 4.2.6.8 and 6.1.1.4'
Br Br -0.2901 2.4595 'International Tables Vol C Tables 4.2.6.8 and 6.1.1.4'
I I -0.4742 1.8119 'International Tables Vol C Tables 4.2.6.8 and 6.1.1.4'
N N 0.0061 0.0033 'International Tables Vol C Tables 4.2.6.8 and 6.1.1.4'
Sb Sb -0.5866 1.5461 'International Tables Vol C Tables 4.2.6.8 and 6.1.1.4'
H H 0.0000 0.0000 'International Tables Vol C Tables 4.2.6.8 and 6.1.1.4'
loop_
_geom_angle_atom_site_label_1
_geom_angle_atom_site_label_2
_geom_angle_atom_site_label_3
_geom_angle_site_symmetry_1
_geom_angle_site_symmetry_3
_geom_angle
_geom_angle_publ_flag
I3_1 Sb1_1 I2_1 . . 95.954(8) ?
I3_1 Sb1_1 I4_1 . . 91.106(9) ?
I2_1 Sb1_1 I4_1 . . 93.765(9) ?
I3_1 Sb1_1 I1_1 . . 95.369(9) ?
I2_1 Sb1_1 I1_1 . . 85.942(8) ?
I4_1 Sb1_1 I1_1 . . 173.515(8) ?
I3_1 Sb1_1 I1_1 . 3_566 88.297(8) ?
I2_1 Sb1_1 I1_1 . 3_566 171.908(8) ?
I4_1 Sb1_1 I1_1 . 3_566 93.032(9) ?
I1_1 Sb1_1 I1_1 . 3_566 86.808(8) ?
Sb1_1 I1_1 Sb1_1 . 3_566 93.191(8) ?
C2_2 N1_2 C6_2 . . 123.3(3) ?
C2_2 N1_2 H1_2 . . 118.3 ?
C6_2 N1_2 H1_2 . . 118.3 ?
N1_2 C2_2 C3_2 . . 119.7(3) ?
N1_2 C2_2 H2_2 . . 120.2 ?
C3_2 C2_2 H2_2 . . 120.2 ?
C2_2 C3_2 C4_2 . . 118.1(3) ?
C2_2 C3_2 H3_2 . . 121.0 ?
C4_2 C3_2 H3_2 . . 121.0 ?
C3_2 C4_2 C5_2 . . 121.4(3) ?
C3_2 C4_2 Br1_2 . . 118.6(2) ?
C5_2 C4_2 Br1_2 . . 120.0(2) ?
C6_2 C5_2 C4_2 . . 118.1(3) ?
C6_2 C5_2 H5_2 . . 121.0 ?
C4_2 C5_2 H5_2 . . 121.0 ?
N1_2 C6_2 C5_2 . . 119.5(3) ?
N1_2 C6_2 H6_2 . . 120.3 ?
C5_2 C6_2 H6_2 . . 120.3 ?
loop_
_geom_bond_atom_site_label_1
_geom_bond_atom_site_label_2
_geom_bond_site_symmetry_2
_geom_bond_distance
_geom_bond_publ_flag
Sb1_1 I3_1 . 2.8183(4) ?
Sb1_1 I2_1 . 2.8487(4) ?
Sb1_1 I4_1 . 2.9232(3) ?
Sb1_1 I1_1 . 3.1660(3) ?
Sb1_1 I1_1 3_566 3.2111(4) ?
N1_2 C2_2 . 1.340(4) ?
N1_2 C6_2 . 1.346(4) ?
N1_2 H1_2 . 0.88 ?
Br1_2 C4_2 . 1.874(3) ?
C2_2 C3_2 . 1.383(4) ?
C2_2 H2_2 . 0.95 ?
C3_2 C4_2 . 1.387(4) ?
C3_2 H3_2 . 0.95 ?
C4_2 C5_2 . 1.393(4) ?
C5_2 C6_2 . 1.381(4) ?
C5_2 H5_2 . 0.95 ?
C6_2 H6_2 . 0.95 ?
