#------------------------------------------------------------------------------
#$Date: 2019-11-07 23:04:44 +0200 (Thu, 07 Nov 2019) $
#$Revision: 223927 $
#$URL: file:///home/coder/svn-repositories/cod/cif/7/70/05/7700571.cif $
#------------------------------------------------------------------------------
#
# This file is available in the Crystallography Open Database (COD),
# http://www.crystallography.net/
#
# All data on this site have been placed in the public domain by the
# contributors.
#
data_7700571
loop_
_publ_author_name
'Qin, Lu'
'Zhang, Yue'
'Chao, Jianbin'
'Cheng, Jianhua'
'Chen, Xia'
_publ_section_title
;
 Four- and five-coordinate aluminum complexes supported by N,O-bidentate
 \b-pyrazylenolate ligands: synthesis, structure and application in ROP of
 \e-caprolactone and lactide.
;
_journal_issue                   32
_journal_name_full
'Dalton transactions (Cambridge, England : 2003)'
_journal_page_first              12315
_journal_page_last               12325
_journal_paper_doi               10.1039/c9dt02330e
_journal_volume                  48
_journal_year                    2019
_chemical_formula_sum            'C16 H19 Al N2 O2'
_chemical_formula_weight         298.31
_space_group_crystal_system      triclinic
_space_group_IT_number           2
_space_group_name_Hall           '-P 1'
_space_group_name_H-M_alt        'P -1'
_symmetry_space_group_name_Hall  '-P 1'
_symmetry_space_group_name_H-M   'P -1'
_atom_sites_solution_hydrogens   geom
_audit_creation_method           SHELXL-2016/6
_audit_update_record
;
2018-09-26 deposited with the CCDC.    2019-07-15 downloaded from the CCDC.
;
_cell_angle_alpha                92.424(2)
_cell_angle_beta                 95.554(2)
_cell_angle_gamma                95.322(2)
_cell_formula_units_Z            2
_cell_length_a                   7.2633(4)
_cell_length_b                   9.1510(5)
_cell_length_c                   12.0875(7)
_cell_measurement_reflns_used    9429
_cell_measurement_temperature    200(2)
_cell_measurement_theta_max      28.2945
_cell_measurement_theta_min      3.747
_cell_volume                     795.13(8)
_computing_structure_refinement  'SHELXL-2016/6 (Sheldrick, 2016)'
_diffrn_ambient_temperature      200(2)
_diffrn_measured_fraction_theta_full 0.978
_diffrn_measured_fraction_theta_max 0.978
_diffrn_measurement_device_type  CCD
_diffrn_radiation_type           MoK\a
_diffrn_radiation_wavelength     0.71073
_diffrn_reflns_av_R_equivalents  0.0191
_diffrn_reflns_av_unetI/netI     0.0185
_diffrn_reflns_Laue_measured_fraction_full 0.978
_diffrn_reflns_Laue_measured_fraction_max 0.978
_diffrn_reflns_limit_h_max       8
_diffrn_reflns_limit_h_min       -8
_diffrn_reflns_limit_k_max       10
_diffrn_reflns_limit_k_min       -10
_diffrn_reflns_limit_l_max       14
_diffrn_reflns_limit_l_min       -14
_diffrn_reflns_number            9599
_diffrn_reflns_point_group_measured_fraction_full 0.978
_diffrn_reflns_point_group_measured_fraction_max 0.978
_diffrn_reflns_theta_full        25.047
_diffrn_reflns_theta_max         25.047
_diffrn_reflns_theta_min         3.754
_exptl_absorpt_coefficient_mu    0.133
_exptl_crystal_colour            yellow
_exptl_crystal_density_diffrn    1.246
_exptl_crystal_description       block
_exptl_crystal_F_000             316
_refine_diff_density_max         0.466
_refine_diff_density_min         -0.258
_refine_diff_density_rms         0.042
_refine_ls_extinction_method     none
_refine_ls_goodness_of_fit_ref   1.083
_refine_ls_hydrogen_treatment    constr
_refine_ls_matrix_type           full
_refine_ls_number_parameters     194
_refine_ls_number_reflns         2763
_refine_ls_number_restraints     0
_refine_ls_restrained_S_all      1.083
_refine_ls_R_factor_all          0.0461
_refine_ls_R_factor_gt           0.0430
_refine_ls_shift/su_max          0.000
_refine_ls_shift/su_mean         0.000
_refine_ls_structure_factor_coef Fsqd
_refine_ls_weighting_details
'w=1/[\s^2^(Fo^2^)+(0.0567P)^2^+0.3963P] where P=(Fo^2^+2Fc^2^)/3'
_refine_ls_weighting_scheme      calc
_refine_ls_wR_factor_gt          0.1141
_refine_ls_wR_factor_ref         0.1170
_reflns_Friedel_coverage         0.000
_reflns_number_gt                2565
_reflns_number_total             2763
_reflns_threshold_expression     'I > 2\s(I)'
_cod_data_source_file            c9dt02330e2.cif
_cod_data_source_block           1_CCDC2
_cod_depositor_comments
'Adding full bibliography for 7700568--7700573.cif.'
_cod_database_code               7700571
_shelx_shelxl_version_number     2016/6
_shelx_space_group_comment
;
The symmetry employed for this shelxl refinement is uniquely defined
by the following loop, which should always be used as a source of
symmetry information in preference to the above space-group names.
They are only intended as comments.
;
_shelx_res_file
;
TITL 1 in P-1
    1.res
    created by SHELXL-2016/6 at 12:13:30 on 26-Sep-2018
CELL 0.71073   7.2633   9.1510  12.0875  92.424  95.554  95.322
ZERR   2   0.0004   0.0005   0.0007   0.002   0.002   0.002
LATT 1
SFAC C  H  N  O  Al
UNIT 32  38  4  4  2
OMIT -3 50.1
L.S. 40
ACTA
BOND
FMAP 2
PLAN 20
TEMP -73.160
WGHT    0.056700    0.396300
FVAR       0.64989
MOLE 1
AL1   5    0.275869    0.301344    0.230876    11.00000    0.03812    0.02562 =
         0.02557    0.00434    0.00359    0.00784
C8    1    0.260463    0.357476   -0.100895    11.00000    0.02338    0.02463 =
         0.02832    0.00248    0.00459    0.00316
C12   1    0.271482    0.160426   -0.240366    11.00000    0.03571    0.02627 =
         0.03163   -0.00088    0.00403    0.00715
AFIX  43
H12   2    0.287758    0.060606   -0.258057    11.00000   -1.20000
AFIX   0
C6    1    0.246030    0.545685    0.052533    11.00000    0.02941    0.02467 =
         0.02749    0.00287    0.00188    0.00398
AFIX  43
H6    2    0.222216    0.612312   -0.004116    11.00000   -1.20000
AFIX   0
C4    1    0.252890    0.603115    0.164758    11.00000    0.01976    0.02506 =
         0.03280   -0.00084    0.00253    0.00167
C7    1    0.269946    0.405705    0.017967    11.00000    0.02606    0.02590 =
         0.02803    0.00404    0.00402    0.00370
C3    1    0.239619    0.756913    0.188702    11.00000    0.02952    0.02554 =
         0.03999   -0.00282    0.00407    0.00187
C13   1    0.281520    0.211746   -0.130215    11.00000    0.03359    0.02729 =
         0.02789    0.00427    0.00303    0.00617
AFIX  43
H13   2    0.303420    0.145479   -0.073052    11.00000   -1.20000
AFIX   0
C11   1    0.237608    0.255442   -0.324452    11.00000    0.02867    0.03507 =
         0.02573    0.00036    0.00437    0.00458
C9    1    0.227991    0.451333   -0.187455    11.00000    0.04610    0.02514 =
         0.03172    0.00288    0.00667    0.00854
AFIX  43
H9    2    0.213359    0.551578   -0.170202    11.00000   -1.20000
AFIX   0
C10   1    0.216787    0.401528   -0.297107    11.00000    0.05115    0.03300 =
         0.02788    0.00837    0.00544    0.01140
AFIX  43
H10   2    0.194673    0.467454   -0.354480    11.00000   -1.20000
AFIX   0
C1    1    0.276421    0.575405    0.355938    11.00000    0.04227    0.03983 =
         0.02931   -0.00243    0.00208    0.00916
AFIX  43
H1    2    0.290586    0.514523    0.417331    11.00000   -1.20000
AFIX   0
C16   1    0.491977    0.238118    0.317243    11.00000    0.03921    0.04722 =
         0.05307    0.01854    0.00594    0.01181
AFIX 137
H16A  2    0.483073    0.130505    0.315244    11.00000   -1.50000
H16B  2    0.496496    0.276482    0.394492    11.00000   -1.50000
H16C  2    0.605137    0.275543    0.285466    11.00000   -1.50000
AFIX   0
C15   1    0.032536    0.210466    0.258790    11.00000    0.03988    0.03420 =
         0.06879    0.00745    0.00132    0.00424
AFIX 137
H15A  2   -0.059276    0.227462    0.196939    11.00000   -1.50000
H15B  2   -0.003472    0.253680    0.328108    11.00000   -1.50000
H15C  2    0.037954    0.104543    0.265365    11.00000   -1.50000
AFIX   0
C5    1    0.220467    0.860530    0.096383    11.00000    0.06288    0.02340 =
         0.04831    0.00112    0.00936    0.00802
AFIX 137
H5A   2    0.217252    0.960568    0.127960    11.00000   -1.50000
H5B   2    0.105075    0.831174    0.048534    11.00000   -1.50000
H5C   2    0.326555    0.857581    0.052309    11.00000   -1.50000
AFIX   0
C2    1    0.261407    0.721403    0.375056    11.00000    0.04610    0.04124 =
         0.03402   -0.01063   -0.00051    0.00740
AFIX  43
H2    2    0.263905    0.759640    0.449547    11.00000   -1.20000
AFIX   0
C14   1    0.248194    0.068033   -0.465586    11.00000    0.05747    0.03767 =
         0.02902   -0.00383    0.00703    0.00670
AFIX 137
H14A  2    0.374252    0.048007   -0.437982    11.00000   -1.50000
H14B  2    0.231095    0.052611   -0.546798    11.00000   -1.50000
H14C  2    0.157534    0.001500   -0.432588    11.00000   -1.50000
AFIX   0
N1    3    0.271599    0.515476    0.251705    11.00000    0.02700    0.02941 =
         0.02662   -0.00096    0.00208    0.00506
N2    3    0.243128    0.812943    0.291238    11.00000    0.04219    0.03205 =
         0.04234   -0.01081    0.00244    0.00337
O1    4    0.306438    0.302852    0.087387    11.00000    0.10108    0.02939 =
         0.02818    0.00621    0.01201    0.02405
O2    4    0.221505    0.216766   -0.435528    11.00000    0.05929    0.03982 =
         0.02408   -0.00097    0.00388    0.01423
HKLF 4




REM  1 in P-1
REM R1 =  0.0430 for    2565 Fo > 4sig(Fo)  and  0.0461 for all    2763 data
REM    194 parameters refined using      0 restraints

END

WGHT      0.0555      0.4002

REM Highest difference peak  0.466,  deepest hole -0.258,  1-sigma level  0.042
Q1    1   0.1832  0.3003  0.0834  11.00000  0.05    0.47
Q2    1   0.1059  0.2955  0.2328  11.00000  0.05    0.25
Q3    1   0.4583  0.2958  0.2407  11.00000  0.05    0.24
Q4    1  -0.0768  0.2975  0.2406  11.00000  0.05    0.21
Q5    1   0.2086  0.1951 -0.2827  11.00000  0.05    0.19
Q6    1   0.2279  0.8024  0.1381  11.00000  0.05    0.19
Q7    1   0.2994  0.4111 -0.0408  11.00000  0.05    0.18
Q8    1   0.2477  0.4325  0.2432  11.00000  0.05    0.17
Q9    1   0.2439  0.6804  0.1807  11.00000  0.05    0.17
Q10   1   0.3024  0.2169 -0.2853  11.00000  0.05    0.17
Q11   1  -0.1923  0.2987  0.2284  11.00000  0.05    0.17
Q12   1   0.3358  0.7871  0.4385  11.00000  0.05    0.17
Q13   1   0.1717  0.2263  0.2806  11.00000  0.05    0.16
Q14   1   0.2904  0.3412 -0.2983  11.00000  0.05    0.16
Q15   1   0.2032  0.3920 -0.1430  11.00000  0.05    0.15
Q16   1   0.2939  0.4128 -0.1450  11.00000  0.05    0.15
Q17   1   0.1817  0.4509  0.0393  11.00000  0.05    0.15
Q18   1   0.3350  0.2199 -0.1821  11.00000  0.05    0.14
Q19   1   0.3314  0.4985  0.0519  11.00000  0.05    0.14
Q20   1   0.3047  0.6024 -0.0163  11.00000  0.05    0.14
;
_shelx_res_checksum              98242
loop_
_space_group_symop_operation_xyz
'x, y, z'
'-x, -y, -z'
loop_
_atom_site_label
_atom_site_type_symbol
_atom_site_fract_x
_atom_site_fract_y
_atom_site_fract_z
_atom_site_U_iso_or_equiv
_atom_site_adp_type
_atom_site_occupancy
_atom_site_site_symmetry_order
_atom_site_calc_flag
_atom_site_refinement_flags_posn
_atom_site_refinement_flags_adp
Al1 Al 0.27587(7) 0.30134(5) 0.23088(4) 0.02936(18) Uani 1 1 d . .
C8 C 0.2605(2) 0.35748(17) -0.10090(13) 0.0252(3) Uani 1 1 d . .
C12 C 0.2715(2) 0.16043(18) -0.24037(14) 0.0310(4) Uani 1 1 d . .
H12 H 0.287758 0.060606 -0.258057 0.037 Uiso 1 1 calc R U
C6 C 0.2460(2) 0.54569(17) 0.05253(13) 0.0271(4) Uani 1 1 d . .
H6 H 0.222216 0.612312 -0.004116 0.033 Uiso 1 1 calc R U
C4 C 0.2529(2) 0.60312(17) 0.16476(13) 0.0260(3) Uani 1 1 d . .
C7 C 0.2699(2) 0.40571(17) 0.01797(13) 0.0264(3) Uani 1 1 d . .
C3 C 0.2396(2) 0.75691(18) 0.18870(15) 0.0318(4) Uani 1 1 d . .
C13 C 0.2815(2) 0.21175(18) -0.13021(13) 0.0293(4) Uani 1 1 d . .
H13 H 0.303420 0.145479 -0.073052 0.035 Uiso 1 1 calc R U
C11 C 0.2376(2) 0.25544(19) -0.32445(13) 0.0297(4) Uani 1 1 d . .
C9 C 0.2280(2) 0.45133(18) -0.18745(14) 0.0338(4) Uani 1 1 d . .
H9 H 0.213359 0.551578 -0.170202 0.041 Uiso 1 1 calc R U
C10 C 0.2168(3) 0.4015(2) -0.29711(14) 0.0366(4) Uani 1 1 d . .
H10 H 0.194673 0.467454 -0.354480 0.044 Uiso 1 1 calc R U
C1 C 0.2764(3) 0.5754(2) 0.35594(15) 0.0370(4) Uani 1 1 d . .
H1 H 0.290586 0.514523 0.417331 0.044 Uiso 1 1 calc R U
C16 C 0.4920(3) 0.2381(2) 0.31724(17) 0.0455(5) Uani 1 1 d . .
H16A H 0.483073 0.130505 0.315244 0.068 Uiso 1 1 calc R U
H16B H 0.496496 0.276482 0.394492 0.068 Uiso 1 1 calc R U
H16C H 0.605137 0.275543 0.285466 0.068 Uiso 1 1 calc R U
C15 C 0.0325(3) 0.2105(2) 0.25879(19) 0.0477(5) Uani 1 1 d . .
H15A H -0.059276 0.227462 0.196939 0.072 Uiso 1 1 calc R U
H15B H -0.003472 0.253680 0.328108 0.072 Uiso 1 1 calc R U
H15C H 0.037954 0.104543 0.265365 0.072 Uiso 1 1 calc R U
C5 C 0.2205(3) 0.86053(19) 0.09638(17) 0.0444(5) Uani 1 1 d . .
H5A H 0.217252 0.960568 0.127960 0.067 Uiso 1 1 calc R U
H5B H 0.105075 0.831174 0.048534 0.067 Uiso 1 1 calc R U
H5C H 0.326555 0.857581 0.052309 0.067 Uiso 1 1 calc R U
C2 C 0.2614(3) 0.7214(2) 0.37506(16) 0.0409(4) Uani 1 1 d . .
H2 H 0.263905 0.759640 0.449547 0.049 Uiso 1 1 calc R U
C14 C 0.2482(3) 0.0680(2) -0.46559(15) 0.0412(4) Uani 1 1 d . .
H14A H 0.374252 0.048007 -0.437982 0.062 Uiso 1 1 calc R U
H14B H 0.231095 0.052611 -0.546798 0.062 Uiso 1 1 calc R U
H14C H 0.157534 0.001500 -0.432588 0.062 Uiso 1 1 calc R U
N1 N 0.27160(18) 0.51548(15) 0.25171(11) 0.0276(3) Uani 1 1 d . .
N2 N 0.2431(2) 0.81294(16) 0.29124(13) 0.0394(4) Uani 1 1 d . .
O1 O 0.3064(2) 0.30285(14) 0.08739(10) 0.0513(4) Uani 1 1 d . .
O2 O 0.22151(19) 0.21677(14) -0.43553(10) 0.0406(3) Uani 1 1 d . .
loop_
_atom_site_aniso_label
_atom_site_aniso_U_11
_atom_site_aniso_U_22
_atom_site_aniso_U_33
_atom_site_aniso_U_23
_atom_site_aniso_U_13
_atom_site_aniso_U_12
Al1 0.0381(3) 0.0256(3) 0.0256(3) 0.00434(19) 0.0036(2) 0.0078(2)
C8 0.0234(7) 0.0246(8) 0.0283(8) 0.0025(6) 0.0046(6) 0.0032(6)
C12 0.0357(9) 0.0263(8) 0.0316(9) -0.0009(7) 0.0040(7) 0.0071(7)
C6 0.0294(8) 0.0247(8) 0.0275(8) 0.0029(6) 0.0019(6) 0.0040(6)
C4 0.0198(7) 0.0251(8) 0.0328(8) -0.0008(6) 0.0025(6) 0.0017(6)
C7 0.0261(8) 0.0259(8) 0.0280(8) 0.0040(6) 0.0040(6) 0.0037(6)
C3 0.0295(8) 0.0255(8) 0.0400(9) -0.0028(7) 0.0041(7) 0.0019(6)
C13 0.0336(9) 0.0273(8) 0.0279(8) 0.0043(6) 0.0030(7) 0.0062(7)
C11 0.0287(8) 0.0351(9) 0.0257(8) 0.0004(7) 0.0044(6) 0.0046(7)
C9 0.0461(10) 0.0251(8) 0.0317(9) 0.0029(7) 0.0067(7) 0.0085(7)
C10 0.0512(11) 0.0330(9) 0.0279(9) 0.0084(7) 0.0054(8) 0.0114(8)
C1 0.0423(10) 0.0398(10) 0.0293(9) -0.0024(7) 0.0021(7) 0.0092(8)
C16 0.0392(10) 0.0472(11) 0.0531(12) 0.0185(9) 0.0059(9) 0.0118(8)
C15 0.0399(10) 0.0342(10) 0.0688(14) 0.0074(9) 0.0013(9) 0.0042(8)
C5 0.0629(12) 0.0234(9) 0.0483(11) 0.0011(8) 0.0094(9) 0.0080(8)
C2 0.0461(11) 0.0412(10) 0.0340(9) -0.0106(8) -0.0005(8) 0.0074(8)
C14 0.0575(12) 0.0377(10) 0.0290(9) -0.0038(7) 0.0070(8) 0.0067(8)
N1 0.0270(7) 0.0294(7) 0.0266(7) -0.0010(5) 0.0021(5) 0.0051(5)
N2 0.0422(9) 0.0321(8) 0.0423(9) -0.0108(7) 0.0024(7) 0.0034(6)
O1 0.1011(12) 0.0294(7) 0.0282(7) 0.0062(5) 0.0120(7) 0.0241(7)
O2 0.0593(8) 0.0398(7) 0.0241(6) -0.0010(5) 0.0039(5) 0.0142(6)
loop_
_atom_type_symbol
_atom_type_description
_atom_type_scat_dispersion_real
_atom_type_scat_dispersion_imag
_atom_type_scat_source
C C 0.0033 0.0016 'International Tables Vol C Tables 4.2.6.8 and 6.1.1.4'
H H 0.0000 0.0000 'International Tables Vol C Tables 4.2.6.8 and 6.1.1.4'
N N 0.0061 0.0033 'International Tables Vol C Tables 4.2.6.8 and 6.1.1.4'
O O 0.0106 0.0060 'International Tables Vol C Tables 4.2.6.8 and 6.1.1.4'
Al Al 0.0645 0.0514 'International Tables Vol C Tables 4.2.6.8 and 6.1.1.4'
loop_
_geom_angle_atom_site_label_1
_geom_angle_atom_site_label_2
_geom_angle_atom_site_label_3
_geom_angle
O1 Al1 C16 111.48(8)
O1 Al1 C15 112.77(9)
C16 Al1 C15 117.34(9)
O1 Al1 N1 95.33(6)
C16 Al1 N1 110.18(8)
C15 Al1 N1 107.39(7)
C13 C8 C9 117.26(15)
C13 C8 C7 119.61(14)
C9 C8 C7 123.12(14)
C11 C12 C13 119.62(15)
C7 C6 C4 127.03(15)
N1 C4 C6 121.43(14)
N1 C4 C3 117.85(14)
C6 C4 C3 120.71(15)
O1 C7 C6 122.90(15)
O1 C7 C8 114.38(14)
C6 C7 C8 122.71(14)
N2 C3 C4 122.18(16)
N2 C3 C5 117.16(15)
C4 C3 C5 120.66(15)
C12 C13 C8 121.93(15)
O2 C11 C12 124.78(15)
O2 C11 C10 115.79(15)
C12 C11 C10 119.43(15)
C10 C9 C8 121.36(15)
C9 C10 C11 120.40(16)
N1 C1 C2 121.40(17)
N2 C2 C1 121.78(17)
C1 N1 C4 118.95(14)
C1 N1 Al1 118.79(12)
C4 N1 Al1 122.14(11)
C3 N2 C2 117.84(15)
C7 O1 Al1 128.00(11)
C11 O2 C14 116.71(14)
loop_
_geom_bond_atom_site_label_1
_geom_bond_atom_site_label_2
_geom_bond_distance
Al1 O1 1.7702(13)
Al1 C16 1.9470(19)
Al1 C15 1.948(2)
Al1 N1 1.9685(14)
C8 C13 1.391(2)
C8 C9 1.398(2)
C8 C7 1.478(2)
C12 C11 1.384(2)
C12 C13 1.386(2)
C6 C7 1.362(2)
C6 C4 1.428(2)
C4 N1 1.353(2)
C4 C3 1.439(2)
C7 O1 1.315(2)
C3 N2 1.318(2)
C3 C5 1.499(3)
C11 O2 1.365(2)
C11 C10 1.389(2)
C9 C10 1.376(2)
C1 N1 1.349(2)
C1 C2 1.362(3)
C2 N2 1.346(3)
C14 O2 1.429(2)
