#------------------------------------------------------------------------------
#$Date: 2019-11-08 00:57:32 +0200 (Fri, 08 Nov 2019) $
#$Revision: 224375 $
#$URL: file:///home/coder/svn-repositories/cod/cif/7/70/04/7700455.cif $
#------------------------------------------------------------------------------
#
# This file is available in the Crystallography Open Database (COD),
# http://www.crystallography.net/
#
# All data on this site have been placed in the public domain by the
# contributors.
#
data_7700455
loop_
_publ_author_name
'Zhang, Jinhao'
'Jin, Bo'
'Peng, Rufang'
'Niu, Chunhuan'
'Xiao, Lipengcheng'
'Guo, Zhicheng'
'Zhang, Qingchun'
_publ_section_title
;
 Novel strategies for synthesizing energetic materials based on BTO with
 improved performances.
;
_journal_issue                   31
_journal_name_full
'Dalton transactions (Cambridge, England : 2003)'
_journal_page_first              11848
_journal_page_last               11854
_journal_paper_doi               10.1039/c9dt02334h
_journal_volume                  48
_journal_year                    2019
_chemical_formula_sum            'C12 H20 N20 O6'
_chemical_formula_weight         540.48
_space_group_crystal_system      triclinic
_space_group_IT_number           2
_space_group_name_Hall           '-P 1'
_space_group_name_H-M_alt        'P -1'
_symmetry_space_group_name_Hall  '-P 1'
_symmetry_space_group_name_H-M   'P -1'
_atom_sites_solution_hydrogens   mixed
_audit_creation_method           SHELXL-2014/7
_audit_update_record
;
2018-05-02 deposited with the CCDC.    2019-07-02 downloaded from the CCDC.
;
_cell_angle_alpha                105.675(10)
_cell_angle_beta                 95.669(9)
_cell_angle_gamma                98.072(8)
_cell_formula_units_Z            1
_cell_length_a                   3.7719(4)
_cell_length_b                   10.4109(10)
_cell_length_c                   14.7027(19)
_cell_measurement_reflns_used    1347
_cell_measurement_temperature    150(2)
_cell_measurement_theta_max      73.2030
_cell_measurement_theta_min      4.7410
_cell_volume                     544.69(11)
_computing_structure_refinement  'SHELXL-2014/7 (Sheldrick, 2014)'
_diffrn_ambient_temperature      150(2)
_diffrn_measured_fraction_theta_full 0.973
_diffrn_measured_fraction_theta_max 0.973
_diffrn_measurement_device_type  bruker-CCD
_diffrn_radiation_type           CuK\a
_diffrn_radiation_wavelength     1.54184
_diffrn_reflns_av_R_equivalents  0.0637
_diffrn_reflns_av_unetI/netI     0.0662
_diffrn_reflns_Laue_measured_fraction_full 0.973
_diffrn_reflns_Laue_measured_fraction_max 0.973
_diffrn_reflns_limit_h_max       4
_diffrn_reflns_limit_h_min       -4
_diffrn_reflns_limit_k_max       12
_diffrn_reflns_limit_k_min       -12
_diffrn_reflns_limit_l_max       17
_diffrn_reflns_limit_l_min       -15
_diffrn_reflns_number            2586
_diffrn_reflns_point_group_measured_fraction_full 0.973
_diffrn_reflns_point_group_measured_fraction_max 0.973
_diffrn_reflns_theta_full        65.986
_diffrn_reflns_theta_max         65.986
_diffrn_reflns_theta_min         4.678
_exptl_absorpt_coefficient_mu    1.171
_exptl_crystal_colour            yellow
_exptl_crystal_density_diffrn    1.648
_exptl_crystal_description       block
_exptl_crystal_F_000             280
_exptl_crystal_size_max          0.190
_exptl_crystal_size_mid          0.180
_exptl_crystal_size_min          0.170
_refine_diff_density_max         0.660
_refine_diff_density_min         -0.769
_refine_diff_density_rms         0.168
_refine_ls_extinction_method     none
_refine_ls_goodness_of_fit_ref   1.055
_refine_ls_hydrogen_treatment    constr
_refine_ls_matrix_type           full
_refine_ls_number_parameters     172
_refine_ls_number_reflns         1862
_refine_ls_number_restraints     114
_refine_ls_restrained_S_all      1.036
_refine_ls_R_factor_all          0.1324
_refine_ls_R_factor_gt           0.1073
_refine_ls_shift/su_max          0.000
_refine_ls_shift/su_mean         0.000
_refine_ls_structure_factor_coef Fsqd
_refine_ls_weighting_details
'w=1/[\s^2^(Fo^2^)+(0.0212P)^2^+7.4320P] where P=(Fo^2^+2Fc^2^)/3'
_refine_ls_weighting_scheme      calc
_refine_ls_wR_factor_gt          0.2296
_refine_ls_wR_factor_ref         0.2572
_reflns_Friedel_coverage         0.000
_reflns_number_gt                1443
_reflns_number_total             1862
_reflns_threshold_expression     'I > 2\s(I)'
_cod_data_source_file            c9dt02334h2.cif
_cod_data_source_block           32
_cod_depositor_comments
'Adding full bibliography for 7700455--7700459.cif.'
_cod_database_code               7700455
_shelx_shelxl_version_number     2014/7
_shelx_space_group_comment
;
The symmetry employed for this shelxl refinement is uniquely defined
by the following loop, which should always be used as a source of
symmetry information in preference to the above space-group names.
They are only intended as comments.
;
_shelx_estimated_absorpt_t_min   0.808
_shelx_estimated_absorpt_t_max   0.826
_shelx_res_file
;

    32.res created by SHELXL-2014/7


TITL exp_26732_a.res in P-1
REM Old TITL exp_26732 in P-1
REM SHELXT solution in P-1
REM R1 0.391, Rweak 0.032, Alpha 0.035, Orientation as input
REM Formula found by SHELXT: C16 N3
CELL 1.54184 3.7719 10.4109 14.7027 105.675 95.669 98.072
ZERR 1 0.0004 0.001 0.0019 0.01 0.009 0.008
LATT 1
SFAC C H N O
UNIT 12 20 20 6

L.S. 100 0 0
PLAN  20
isor 0.01
SIZE 0.19 0.18 0.17
BOND $H
list 4
fmap 2 53
temp -123
acta
OMIT -3 132
REM <olex2.extras>
REM <HklSrc "%.\\32.hkl">
REM </olex2.extras>

WGHT    0.021230    7.432005
FVAR       1.19612
O1W   4   -0.263142    0.080573    0.739579    11.00000    0.03322    0.01932 =
         0.03124    0.00461   -0.01006   -0.00113
AFIX   3
H1WA  2   -0.234132   -0.006907    0.745899    11.00000   -1.50000
H1WB  2   -0.068662    0.147903    0.779449    11.00000   -1.50000
AFIX   0
O1    4    0.058545   -0.025699    0.843293    11.00000    0.03653    0.01546 =
         0.03339    0.00138   -0.01607   -0.00542
O2    4    0.176653    0.208348    0.652225    11.00000    0.03667    0.01751 =
         0.02528    0.00717   -0.01241   -0.00526
AFIX   3
H2WA  2    0.271373    0.143568    0.671185    11.00000   -1.20000
AFIX   0
N1    3   -0.460397    0.469954    0.704345    11.00000    0.03067    0.01551 =
         0.02743    0.00162   -0.00689   -0.00252
AFIX  43
H1    2   -0.570706    0.384955    0.684568    11.00000   -1.20000
AFIX   0
N2    3   -0.127117    0.656959    0.790296    11.00000    0.03027    0.00919 =
         0.02550    0.00157   -0.00819   -0.00707
AFIX  43
H2    2    0.020999    0.717372    0.837222    11.00000   -1.20000
AFIX   0
N3    3    0.263911    0.073761    0.915333    11.00000    0.03021    0.01212 =
         0.02403    0.00406   -0.00976   -0.00246
N4    3    0.272228    0.204231    0.920011    11.00000    0.03505    0.01047 =
         0.03564    0.00401   -0.00911    0.00043
N5    3    0.491843    0.272824    0.999496    11.00000    0.03051    0.01879 =
         0.03180    0.00406   -0.00911   -0.00099
N6    3    0.620146    0.188443    1.043472    11.00000    0.03022    0.01638 =
         0.03192    0.00414   -0.00759   -0.00201
N7    3    0.004217    0.179836    0.563811    11.00000    0.02112    0.01919 =
         0.02459    0.00297   -0.00481   -0.00140
N8    3   -0.141042    0.272304    0.532532    11.00000    0.03204    0.02002 =
         0.02874    0.00450   -0.00242    0.00240
N9    3   -0.294345    0.208402    0.443566    11.00000    0.03050    0.02034 =
         0.02838    0.00656   -0.00481    0.00257
N10   3   -0.248290    0.078573    0.418664    11.00000    0.02583    0.01759 =
         0.02844    0.00951   -0.00349   -0.00194
C1    1   -0.142714    0.461453    0.860762    11.00000    0.03380    0.02434 =
         0.03861    0.00495   -0.01119    0.00007
AFIX  33
H1A   2   -0.262610    0.366421    0.839855    11.00000   -1.50000
H1B   2    0.120063    0.466053    0.870758    11.00000   -1.50000
H1C   2   -0.221566    0.507990    0.920659    11.00000   -1.50000
AFIX   0
C2    1   -0.238918    0.527403    0.787161    11.00000    0.02739    0.01812 =
         0.02944   -0.00181   -0.00917    0.00083
C3    1   -0.279463    0.680580    0.709051    11.00000    0.02873    0.01897 =
         0.03276    0.00968   -0.00529   -0.00049
AFIX  43
H3    2   -0.243706    0.763990    0.693681    11.00000   -1.20000
AFIX   0
C4    1   -0.488852    0.564115    0.655043    11.00000    0.03420    0.02271 =
         0.03051    0.00670   -0.00927    0.00174
AFIX  43
H4    2   -0.628959    0.549684    0.594680    11.00000   -1.20000
AFIX   0
C5    1    0.470971    0.062126    0.990242    11.00000    0.02975    0.01067 =
         0.02590    0.00901   -0.00443   -0.00136
C6    1   -0.058317    0.060713    0.494607    11.00000    0.01697    0.01585 =
         0.02623    0.00272   -0.00038   -0.00306

HKLF 4

REM  exp_26732_a.res in P-1
REM R1 =  0.1073 for    1443 Fo > 4sig(Fo)  and  0.1324 for all    1862 data
REM    172 parameters refined using    114 restraints

END

WGHT      0.2000      0.0000

REM Highest difference peak  0.660,  deepest hole -0.769,  1-sigma level  0.168
Q1    1  -0.0724  0.0256  0.7942  11.00000  0.05    0.66
Q2    1  -0.4871  0.0340  0.7021  11.00000  0.05    0.63
Q3    1  -0.4986  0.2930  0.5635  11.00000  0.05    0.57
Q4    1   0.9748  0.1597  0.9997  11.00000  0.05    0.57
Q5    1   0.2217  0.2363  0.5998  11.00000  0.05    0.56
Q6    1  -0.1956  0.3577  0.5431  11.00000  0.05    0.55
Q7    1  -0.5032  0.5525  0.7196  11.00000  0.05    0.54
Q8    1   0.2495  0.0380  0.9617  11.00000  0.05    0.54
Q9    1  -0.3067  0.6040  0.7992  11.00000  0.05    0.54
Q10   1   0.2415  0.6245  0.7547  11.00000  0.05    0.53
Q11   1  -0.2986  0.0154  0.6767  11.00000  0.05    0.53
Q12   1  -0.5960  0.5449  0.8232  11.00000  0.05    0.52
Q13   1  -0.1002  0.2423  0.9574  11.00000  0.05    0.52
Q14   1  -0.1209  0.2625  0.5813  11.00000  0.05    0.52
Q15   1   0.1256  0.2866  1.0384  11.00000  0.05    0.51
Q16   1  -0.0579  0.3782  0.8336  11.00000  0.05    0.49
Q17   1   0.0238  0.5409  0.9982  11.00000  0.05    0.48
Q18   1   0.5054  0.1630  0.6122  11.00000  0.05    0.48
Q19   1  -0.1462  0.1216  0.7045  11.00000  0.05    0.47
Q20   1   0.7176  0.1939  1.1233  11.00000  0.05    0.47
;
_shelx_res_checksum              28126
loop_
_space_group_symop_operation_xyz
'x, y, z'
'-x, -y, -z'
loop_
_atom_site_label
_atom_site_type_symbol
_atom_site_fract_x
_atom_site_fract_y
_atom_site_fract_z
_atom_site_U_iso_or_equiv
_atom_site_adp_type
_atom_site_occupancy
_atom_site_site_symmetry_order
_atom_site_calc_flag
_atom_site_refinement_flags_posn
_atom_site_refinement_flags_adp
O1W O -0.2631(13) 0.0806(5) 0.7396(3) 0.0301(12) Uani 1 1 d . U
H1WA H -0.2341 -0.0069 0.7459 0.045 Uiso 1 1 d R U
H1WB H -0.0687 0.1479 0.7794 0.045 Uiso 1 1 d R U
O1 O 0.0585(13) -0.0257(4) 0.8433(3) 0.0321(12) Uani 1 1 d . U
O2 O 0.1767(13) 0.2083(4) 0.6522(3) 0.0285(11) Uani 1 1 d . U
H2WA H 0.2714 0.1436 0.6712 0.034 Uiso 1 1 d R U
N1 N -0.4604(15) 0.4700(5) 0.7043(4) 0.0269(13) Uani 1 1 d . U
H1 H -0.5707 0.3850 0.6846 0.032 Uiso 1 1 calc R U
N2 N -0.1271(15) 0.6570(5) 0.7903(4) 0.0243(13) Uani 1 1 d . U
H2 H 0.0210 0.7174 0.8372 0.029 Uiso 1 1 calc R U
N3 N 0.2639(15) 0.0738(5) 0.9153(4) 0.0239(12) Uani 1 1 d . U
N4 N 0.2722(16) 0.2042(5) 0.9200(4) 0.0289(14) Uani 1 1 d . U
N5 N 0.4918(15) 0.2728(5) 0.9995(4) 0.0292(14) Uani 1 1 d . U
N6 N 0.6201(15) 0.1884(5) 1.0435(4) 0.0282(13) Uani 1 1 d . U
N7 N 0.0042(14) 0.1798(5) 0.5638(4) 0.0234(12) Uani 1 1 d . U
N8 N -0.1410(16) 0.2723(5) 0.5325(4) 0.0281(13) Uani 1 1 d . U
N9 N -0.2943(15) 0.2084(5) 0.4436(4) 0.0273(13) Uani 1 1 d . U
N10 N -0.2483(14) 0.0786(5) 0.4187(4) 0.0245(12) Uani 1 1 d . U
C1 C -0.143(2) 0.4615(7) 0.8608(5) 0.0347(18) Uani 1 1 d . U
H1A H -0.2626 0.3664 0.8399 0.052 Uiso 1 1 calc R U
H1B H 0.1201 0.4661 0.8708 0.052 Uiso 1 1 calc R U
H1C H -0.2216 0.5080 0.9207 0.052 Uiso 1 1 calc R U
C2 C -0.2389(18) 0.5274(6) 0.7872(5) 0.0280(15) Uani 1 1 d . U
C3 C -0.2795(18) 0.6806(7) 0.7091(5) 0.0275(15) Uani 1 1 d . U
H3 H -0.2437 0.7640 0.6937 0.033 Uiso 1 1 calc R U
C4 C -0.4889(19) 0.5641(7) 0.6550(5) 0.0306(16) Uani 1 1 d . U
H4 H -0.6290 0.5497 0.5947 0.037 Uiso 1 1 calc R U
C5 C 0.4710(18) 0.0621(6) 0.9902(5) 0.0224(14) Uani 1 1 d . U
C6 C -0.0583(16) 0.0607(6) 0.4946(5) 0.0212(13) Uani 1 1 d . U
loop_
_atom_site_aniso_label
_atom_site_aniso_U_11
_atom_site_aniso_U_22
_atom_site_aniso_U_33
_atom_site_aniso_U_23
_atom_site_aniso_U_13
_atom_site_aniso_U_12
O1W 0.033(3) 0.019(2) 0.031(3) 0.005(2) -0.010(2) -0.0011(19)
O1 0.037(3) 0.015(2) 0.033(3) 0.001(2) -0.016(2) -0.0054(19)
O2 0.037(3) 0.018(2) 0.025(3) 0.0072(19) -0.012(2) -0.0053(19)
N1 0.031(3) 0.016(3) 0.027(3) 0.002(2) -0.007(2) -0.003(2)
N2 0.030(3) 0.009(2) 0.026(3) 0.002(2) -0.008(2) -0.007(2)
N3 0.030(3) 0.012(2) 0.024(3) 0.004(2) -0.010(2) -0.002(2)
N4 0.035(3) 0.010(2) 0.036(3) 0.004(2) -0.009(3) 0.000(2)
N5 0.031(3) 0.019(3) 0.032(3) 0.004(2) -0.009(2) -0.001(2)
N6 0.030(3) 0.016(3) 0.032(3) 0.004(2) -0.008(2) -0.002(2)
N7 0.021(3) 0.019(3) 0.025(3) 0.003(2) -0.005(2) -0.001(2)
N8 0.032(3) 0.020(3) 0.029(3) 0.004(2) -0.002(2) 0.002(2)
N9 0.030(3) 0.020(3) 0.028(3) 0.007(2) -0.005(2) 0.003(2)
N10 0.026(3) 0.018(3) 0.028(3) 0.010(2) -0.003(2) -0.002(2)
C1 0.034(4) 0.024(4) 0.039(4) 0.005(3) -0.011(3) 0.000(3)
C2 0.027(3) 0.018(3) 0.029(4) -0.002(3) -0.009(3) 0.001(3)
C3 0.029(3) 0.019(3) 0.033(4) 0.010(3) -0.005(3) 0.000(3)
C4 0.034(4) 0.023(3) 0.031(4) 0.007(3) -0.009(3) 0.002(3)
C5 0.030(3) 0.011(3) 0.026(3) 0.009(2) -0.004(3) -0.001(2)
C6 0.017(3) 0.016(3) 0.026(3) 0.003(2) 0.000(2) -0.003(2)
loop_
_atom_type_symbol
_atom_type_description
_atom_type_scat_dispersion_real
_atom_type_scat_dispersion_imag
_atom_type_scat_source
C C 0.0181 0.0091 'International Tables Vol C Tables 4.2.6.8 and 6.1.1.4'
H H 0.0000 0.0000 'International Tables Vol C Tables 4.2.6.8 and 6.1.1.4'
N N 0.0311 0.0180 'International Tables Vol C Tables 4.2.6.8 and 6.1.1.4'
O O 0.0492 0.0322 'International Tables Vol C Tables 4.2.6.8 and 6.1.1.4'
loop_
_geom_angle_atom_site_label_1
_geom_angle_atom_site_label_2
_geom_angle_atom_site_label_3
_geom_angle
_geom_angle_site_symmetry_3
H1WA O1W H1WB 109.5 .
N7 O2 H2WA 119.6 .
C2 N1 C4 109.7(6) .
C2 N1 H1 125.1 .
C4 N1 H1 125.1 .
C2 N2 C3 109.5(5) .
C2 N2 H2 125.3 .
C3 N2 H2 125.3 .
C5 N3 N4 110.5(5) .
C5 N3 O1 128.2(5) .
N4 N3 O1 121.3(5) .
N5 N4 N3 105.2(5) .
N4 N5 N6 110.7(5) .
N5 N6 C5 106.6(5) .
O2 N7 N8 121.8(5) .
O2 N7 C6 128.1(5) .
N8 N7 C6 110.0(5) .
N9 N8 N7 105.3(5) .
N8 N9 N10 111.1(5) .
C6 N10 N9 106.3(5) .
C2 C1 H1A 109.5 .
C2 C1 H1B 109.5 .
H1A C1 H1B 109.5 .
C2 C1 H1C 109.5 .
H1A C1 H1C 109.5 .
H1B C1 H1C 109.5 .
N2 C2 N1 106.6(6) .
N2 C2 C1 126.8(6) .
N1 C2 C1 126.6(6) .
C4 C3 N2 107.6(6) .
C4 C3 H3 126.2 .
N2 C3 H3 126.2 .
C3 C4 N1 106.6(6) .
C3 C4 H4 126.7 .
N1 C4 H4 126.7 .
N3 C5 N6 106.9(5) .
N3 C5 C5 126.5(7) 2_657
N6 C5 C5 126.6(7) 2_657
N10 C6 N7 107.3(5) .
N10 C6 C6 128.5(7) 2_556
N7 C6 C6 124.2(7) 2_556
loop_
_geom_bond_atom_site_label_1
_geom_bond_atom_site_label_2
_geom_bond_distance
_geom_bond_site_symmetry_2
O1W H1WA 0.9601 .
O1W H1WB 0.9600 .
O1 N3 1.347(7) .
O2 N7 1.331(7) .
O2 H2WA 0.8999 .
N1 C2 1.343(8) .
N1 C4 1.377(9) .
N1 H1 0.8800 .
N2 C2 1.342(8) .
N2 C3 1.371(9) .
N2 H2 0.8800 .
N3 C5 1.329(8) .
N3 N4 1.337(7) .
N4 N5 1.324(8) .
N5 N6 1.337(8) .
N6 C5 1.344(8) .
N7 N8 1.333(8) .
N7 C6 1.348(8) .
N8 N9 1.327(8) .
N9 N10 1.342(7) .
N10 C6 1.337(8) .
C1 C2 1.472(10) .
C1 H1A 0.9800 .
C1 H1B 0.9800 .
C1 H1C 0.9800 .
C3 C4 1.346(9) .
C3 H3 0.9500 .
C4 H4 0.9500 .
C5 C5 1.439(12) 2_657
C6 C6 1.438(12) 2_556
