#------------------------------------------------------------------------------
#$Date: 2019-11-08 00:55:22 +0200 (Fri, 08 Nov 2019) $
#$Revision: 224368 $
#$URL: file:///home/coder/svn-repositories/cod/cif/7/70/04/7700475.cif $
#------------------------------------------------------------------------------
#
# This file is available in the Crystallography Open Database (COD),
# http://www.crystallography.net/
#
# All data on this site have been placed in the public domain by the
# contributors.
#
data_7700475
loop_
_publ_author_name
'Chang, Chao-Wan'
'Cheng, Ming-Chuan'
'Lee, Gene-Hsiang'
'Peng, Shie-Ming'
_publ_section_title
;
 Facile synthesis of 1,5-disubstituted tetrazoles by reacting a ruthenium
 acetylide complex with trimethylsilyl azide.
;
_journal_issue                   31
_journal_name_full
'Dalton transactions (Cambridge, England : 2003)'
_journal_page_first              11732
_journal_page_last               11742
_journal_paper_doi               10.1039/c9dt02363a
_journal_volume                  48
_journal_year                    2019
_chemical_absolute_configuration ad
_chemical_formula_sum            'C15 H9 F5 N4'
_chemical_formula_weight         340.26
_space_group_crystal_system      monoclinic
_space_group_IT_number           4
_space_group_name_Hall           'P 2yb'
_space_group_name_H-M_alt        'P 1 21 1'
_symmetry_space_group_name_Hall  'P 2yb'
_symmetry_space_group_name_H-M   'P 1 21 1'
_atom_sites_solution_hydrogens   geom
_audit_creation_method           SHELXL-2014/7
_audit_update_record
;
2019-05-31 deposited with the CCDC.    2019-07-08 downloaded from the CCDC.
;
_cell_angle_alpha                90
_cell_angle_beta                 93.2052(8)
_cell_angle_gamma                90
_cell_formula_units_Z            2
_cell_length_a                   7.6879(2)
_cell_length_b                   5.99050(10)
_cell_length_c                   15.1858(4)
_cell_measurement_reflns_used    9969
_cell_measurement_temperature    200(2)
_cell_measurement_theta_max      74.96
_cell_measurement_theta_min      2.91
_cell_volume                     698.28(3)
_computing_cell_refinement       'Bruker SAINT'
_computing_data_collection       'Bruker APEX3'
_computing_data_reduction        'Bruker SAINT'
_computing_molecular_graphics    'Bruker SHELXTL'
_computing_publication_material  'Bruker SHELXTL'
_computing_structure_refinement  'SHELXL-2014/7 (Sheldrick, 2014)'
_computing_structure_solution    'SHELXS-97 (Sheldrick 2008)'
_diffrn_ambient_temperature      200(2)
_diffrn_measured_fraction_theta_full 0.998
_diffrn_measured_fraction_theta_max 0.997
_diffrn_measurement_device_type  'Bruker D8 VENTURE'
_diffrn_measurement_method       '\f and \w scans'
_diffrn_radiation_type           CuK\a
_diffrn_radiation_wavelength     1.54178
_diffrn_reflns_av_R_equivalents  0.0153
_diffrn_reflns_av_unetI/netI     0.0250
_diffrn_reflns_Laue_measured_fraction_full 0.998
_diffrn_reflns_Laue_measured_fraction_max 0.997
_diffrn_reflns_limit_h_max       9
_diffrn_reflns_limit_h_min       -9
_diffrn_reflns_limit_k_max       7
_diffrn_reflns_limit_k_min       -6
_diffrn_reflns_limit_l_max       18
_diffrn_reflns_limit_l_min       -18
_diffrn_reflns_number            5325
_diffrn_reflns_point_group_measured_fraction_full 0.986
_diffrn_reflns_point_group_measured_fraction_max 0.975
_diffrn_reflns_theta_full        67.679
_diffrn_reflns_theta_max         74.953
_diffrn_reflns_theta_min         2.914
_exptl_absorpt_coefficient_mu    1.299
_exptl_absorpt_correction_T_max  0.7539
_exptl_absorpt_correction_T_min  0.6475
_exptl_absorpt_correction_type   multi-scan
_exptl_absorpt_process_details   'SADABS (Bruker, 2016)'
_exptl_crystal_colour            colourless
_exptl_crystal_density_diffrn    1.618
_exptl_crystal_description       needle
_exptl_crystal_F_000             344
_exptl_crystal_size_max          0.403
_exptl_crystal_size_mid          0.106
_exptl_crystal_size_min          0.043
_refine_diff_density_max         0.134
_refine_diff_density_min         -0.167
_refine_diff_density_rms         0.030
_refine_ls_abs_structure_details
; 
 Flack x determined using 1196 quotients [(I+)-(I-)]/[(I+)+(I-)] 
 (Parsons, Flack and Wagner, Acta Cryst. B69 (2013) 249-259). 
;
_refine_ls_abs_structure_Flack   0.03(4)
_refine_ls_extinction_method     none
_refine_ls_goodness_of_fit_ref   1.053
_refine_ls_hydrogen_treatment    constr
_refine_ls_matrix_type           full
_refine_ls_number_parameters     217
_refine_ls_number_reflns         2818
_refine_ls_number_restraints     1
_refine_ls_restrained_S_all      1.053
_refine_ls_R_factor_all          0.0253
_refine_ls_R_factor_gt           0.0248
_refine_ls_shift/su_max          0.001
_refine_ls_shift/su_mean         0.000
_refine_ls_structure_factor_coef Fsqd
_refine_ls_weighting_details
'w=1/[\s^2^(Fo^2^)+(0.0321P)^2^+0.0981P] where P=(Fo^2^+2Fc^2^)/3'
_refine_ls_weighting_scheme      calc
_refine_ls_wR_factor_gt          0.0641
_refine_ls_wR_factor_ref         0.0648
_reflns_Friedel_coverage         0.780
_reflns_Friedel_fraction_full    0.972
_reflns_Friedel_fraction_max     0.948
_reflns_number_gt                2768
_reflns_number_total             2818
_reflns_threshold_expression     'I > 2\s(I)'
_cod_data_source_file            c9dt02363a2.cif
_cod_data_source_block           ic19458
_cod_depositor_comments
'Adding full bibliography for 7700474--7700478.cif.'
_cod_database_code               7700475
_shelx_shelxl_version_number     2014/7
_shelx_space_group_comment
; 
The symmetry employed for this shelxl refinement is uniquely defined 
by the following loop, which should always be used as a source of 
symmetry information in preference to the above space-group names. 
They are only intended as comments. 
;
_shelx_estimated_absorpt_t_min   0.623
_shelx_estimated_absorpt_t_max   0.946
_shelx_res_file
; 
  
    ic19458.res created by SHELXL-2014/7 
  
  
TITL ic19458 in P2(1) 
CELL 1.54178   7.68790   5.99050  15.18580  90.0000  93.2052  90.0000 
ZERR    2.00   0.00020   0.00010   0.00040   0.0000   0.0008   0.0000 
LATT -1 
SYMM -X, 0.5+Y, -Z 
SFAC C  H  N  F 
UNIT 30  18  8  10 
OMIT -3 150 
L.S. 10 
ACTA 
BOND 
FMAP 2 
PLAN 20 
SIZE 0.043 0.106 0.403 
TEMP -73.150 
WGHT    0.032100    0.098100 
FVAR       0.36902 
N1    3    0.082009    0.122770    0.617231    11.00000    0.03312    0.02306 = 
         0.02311   -0.00156   -0.00639    0.00092 
N2    3   -0.008791   -0.066310    0.599861    11.00000    0.04794    0.02836 = 
         0.03054    0.00048   -0.01262   -0.00683 
N3    3    0.087567   -0.188676    0.552170    11.00000    0.06752    0.02821 = 
         0.02813   -0.00487   -0.01115   -0.00199 
N4    3    0.239862   -0.083731    0.537106    11.00000    0.05752    0.03425 = 
         0.02654   -0.00633   -0.00267    0.00819 
C1    1    0.233406    0.111169    0.577179    11.00000    0.03775    0.03082 = 
         0.01897   -0.00108   -0.00476    0.00695 
C2    1    0.368449    0.288762    0.576836    11.00000    0.03956    0.03647 = 
         0.02880    0.00278    0.00214    0.00018 
AFIX  23 
H2A   2    0.310913    0.431897    0.560508    11.00000   -1.20000 
H2B   2    0.450049    0.253098    0.530660    11.00000   -1.20000 
AFIX   0 
C3    1    0.472919    0.319960    0.664020    11.00000    0.02569    0.03025 = 
         0.03520   -0.00369    0.00439    0.00400 
C4    1    0.485895    0.152930    0.727432    11.00000    0.03128    0.03216 = 
         0.03699   -0.00149   -0.00230    0.00348 
AFIX  43 
H4    2    0.431511    0.012750    0.715892    11.00000   -1.20000 
AFIX   0 
C5    1    0.577800    0.188916    0.807724    11.00000    0.03471    0.05193 = 
         0.04070   -0.00331   -0.00685    0.01317 
AFIX  43 
H5    2    0.584877    0.074516    0.851101    11.00000   -1.20000 
AFIX   0 
C6    1    0.658716    0.391839    0.824060    11.00000    0.03167    0.06436 = 
         0.04964   -0.02462   -0.01043    0.01157 
AFIX  43 
H6    2    0.720031    0.417850    0.879160    11.00000   -1.20000 
AFIX   0 
C7    1    0.650688    0.557066    0.760454    11.00000    0.03386    0.04205 = 
         0.07152   -0.02581    0.00003   -0.00265 
AFIX  43 
H7    2    0.708716    0.695149    0.771377    11.00000   -1.20000 
AFIX   0 
C8    1    0.558006    0.521534    0.680683    11.00000    0.03449    0.03114 = 
         0.05459   -0.00582    0.00739   -0.00025 
AFIX  43 
H8    2    0.552658    0.635661    0.637179    11.00000   -1.20000 
AFIX   0 
C9    1    0.004112    0.303847    0.666243    11.00000    0.03388    0.02931 = 
         0.02764   -0.00165   -0.00424    0.00772 
AFIX  23 
H9A   2   -0.122948    0.278058    0.667312    11.00000   -1.20000 
H9B   2    0.021881    0.446449    0.635046    11.00000   -1.20000 
AFIX   0 
C10   1    0.079796    0.324114    0.759998    11.00000    0.02434    0.02846 = 
         0.02662   -0.00305    0.00125    0.00555 
C11   1    0.054875    0.159670    0.822311    11.00000    0.02570    0.03247 = 
         0.03080   -0.00160    0.00361    0.00267 
C12   1    0.122646    0.177791    0.908437    11.00000    0.03597    0.05020 = 
         0.02637    0.00571    0.00747    0.00908 
C13   1    0.218081    0.363142    0.933698    11.00000    0.03874    0.06068 = 
         0.02477   -0.01145   -0.00271    0.01045 
C14   1    0.244057    0.530618    0.874232    11.00000    0.03168    0.04110 = 
         0.04153   -0.01703   -0.00119    0.00355 
C15   1    0.174268    0.509456    0.788542    11.00000    0.03087    0.02836 = 
         0.03292   -0.00471    0.00282    0.00635 
F1    4   -0.038524   -0.021441    0.800281    11.00000    0.03895    0.03420 = 
         0.04598    0.00216    0.00507   -0.00486 
F2    4    0.093457    0.016756    0.967096    11.00000    0.06216    0.07160 = 
         0.03638    0.02074    0.01097    0.00642 
F3    4    0.285530    0.378784    1.016393    11.00000    0.06869    0.09755 = 
         0.02938   -0.01475   -0.01350    0.00906 
F4    4    0.336986    0.710930    0.898402    11.00000    0.05201    0.05014 = 
         0.06654   -0.03104   -0.00750   -0.00545 
F5    4    0.202573    0.676316    0.732544    11.00000    0.04543    0.02586 = 
         0.04976    0.00114    0.00393    0.00117 
HKLF 4 
  
REM  ic19458 in P2(1) 
REM R1 =  0.0248 for    2768 Fo > 4sig(Fo)  and  0.0253 for all    2818 data 
REM    217 parameters refined using      1 restraints 
  
END 
  
WGHT      0.0317      0.0980 
  
REM Highest difference peak  0.134,  deepest hole -0.167,  1-sigma level  0.030 
Q1    1   0.1534  0.1621  0.5848  11.00000  0.05    0.13 
Q2    1   0.0552  0.3138  0.7172  11.00000  0.05    0.13 
Q3    1   0.6053  0.5083  0.7238  11.00000  0.05    0.12 
Q4    1   0.2408  0.4868  0.8253  11.00000  0.05    0.12 
Q5    1   0.5704  0.5292  0.7321  11.00000  0.05    0.12 
Q6    1   0.4035  0.3074  0.6216  11.00000  0.05    0.11 
Q7    1   0.1818  0.4707  0.9103  11.00000  0.05    0.11 
Q8    1   0.3040  0.1953  0.5917  11.00000  0.05    0.11 
Q9    1   0.1186  0.1609  0.8621  11.00000  0.05    0.11 
Q10   1   0.0773  0.4258  0.7815  11.00000  0.05    0.11 
Q11   1   0.2220  0.2392  0.9072  11.00000  0.05    0.11 
Q12   1   0.1795  0.5275  0.8367  11.00000  0.05    0.10 
Q13   1   0.2720  0.0225  0.9166  11.00000  0.05    0.10 
Q14   1   0.2801  0.4109  0.8991  11.00000  0.05    0.10 
Q15   1   0.1502  0.3950  0.7640  11.00000  0.05    0.10 
Q16   1   0.1137 -0.1186  0.9167  11.00000  0.05    0.10 
Q17   1   0.6611  0.2801  0.8043  11.00000  0.05    0.09 
Q18   1   0.3358  0.6153  0.5207  11.00000  0.05    0.09 
Q19   1   0.1128  0.2278  0.7811  11.00000  0.05    0.09 
Q20   1   0.3020 -0.0346  0.5797  11.00000  0.05    0.09 
;
_shelx_res_checksum              66938
loop_
_space_group_symop_operation_xyz
'x, y, z'
'-x, y+1/2, -z'
loop_
_atom_site_label
_atom_site_type_symbol
_atom_site_fract_x
_atom_site_fract_y
_atom_site_fract_z
_atom_site_U_iso_or_equiv
_atom_site_adp_type
_atom_site_occupancy
_atom_site_site_symmetry_order
_atom_site_calc_flag
_atom_site_refinement_flags_posn
_atom_site_refinement_flags_adp
N1 N 0.08201(18) 0.1228(2) 0.61723(9) 0.0267(3) Uani 1 1 d . .
N2 N -0.0088(2) -0.0663(3) 0.59986(9) 0.0362(4) Uani 1 1 d . .
N3 N 0.0876(2) -0.1887(3) 0.55217(10) 0.0418(4) Uani 1 1 d . .
N4 N 0.2399(2) -0.0837(3) 0.53711(10) 0.0396(4) Uani 1 1 d . .
C1 C 0.2334(2) 0.1112(3) 0.57718(10) 0.0294(3) Uani 1 1 d . .
C2 C 0.3684(2) 0.2888(3) 0.57684(11) 0.0349(4) Uani 1 1 d . .
H2A H 0.3109 0.4319 0.5605 0.042 Uiso 1 1 calc R U
H2B H 0.4500 0.2531 0.5307 0.042 Uiso 1 1 calc R U
C3 C 0.4729(2) 0.3200(3) 0.66402(12) 0.0303(3) Uani 1 1 d . .
C4 C 0.4859(2) 0.1529(3) 0.72743(12) 0.0336(4) Uani 1 1 d . .
H4 H 0.4315 0.0127 0.7159 0.040 Uiso 1 1 calc R U
C5 C 0.5778(2) 0.1889(4) 0.80772(13) 0.0428(5) Uani 1 1 d . .
H5 H 0.5849 0.0745 0.8511 0.051 Uiso 1 1 calc R U
C6 C 0.6587(3) 0.3918(4) 0.82406(15) 0.0490(6) Uani 1 1 d . .
H6 H 0.7200 0.4179 0.8792 0.059 Uiso 1 1 calc R U
C7 C 0.6507(3) 0.5571(4) 0.76045(17) 0.0493(6) Uani 1 1 d . .
H7 H 0.7087 0.6951 0.7714 0.059 Uiso 1 1 calc R U
C8 C 0.5580(2) 0.5215(3) 0.68068(15) 0.0399(4) Uani 1 1 d . .
H8 H 0.5527 0.6357 0.6372 0.048 Uiso 1 1 calc R U
C9 C 0.0041(2) 0.3038(3) 0.66624(11) 0.0305(3) Uani 1 1 d . .
H9A H -0.1229 0.2781 0.6673 0.037 Uiso 1 1 calc R U
H9B H 0.0219 0.4464 0.6350 0.037 Uiso 1 1 calc R U
C10 C 0.0798(2) 0.3241(3) 0.76000(10) 0.0265(3) Uani 1 1 d . .
C11 C 0.0549(2) 0.1597(3) 0.82231(11) 0.0296(3) Uani 1 1 d . .
C12 C 0.1226(2) 0.1778(4) 0.90844(12) 0.0373(4) Uani 1 1 d . .
C13 C 0.2181(3) 0.3631(4) 0.93370(12) 0.0416(5) Uani 1 1 d . .
C14 C 0.2441(2) 0.5306(4) 0.87423(14) 0.0382(4) Uani 1 1 d . .
C15 C 0.1743(2) 0.5095(3) 0.78854(12) 0.0307(4) Uani 1 1 d . .
F1 F -0.03852(14) -0.0214(2) 0.80028(7) 0.0396(3) Uani 1 1 d . .
F2 F 0.09346(18) 0.0168(3) 0.96710(8) 0.0564(4) Uani 1 1 d . .
F3 F 0.2855(2) 0.3788(3) 1.01639(8) 0.0658(5) Uani 1 1 d . .
F4 F 0.33699(17) 0.7109(2) 0.89840(9) 0.0566(4) Uani 1 1 d . .
F5 F 0.20257(14) 0.67632(18) 0.73254(8) 0.0403(3) Uani 1 1 d . .
loop_
_atom_site_aniso_label
_atom_site_aniso_U_11
_atom_site_aniso_U_22
_atom_site_aniso_U_33
_atom_site_aniso_U_23
_atom_site_aniso_U_13
_atom_site_aniso_U_12
N1 0.0331(7) 0.0231(7) 0.0231(6) -0.0016(5) -0.0064(5) 0.0009(5)
N2 0.0479(9) 0.0284(8) 0.0305(7) 0.0005(6) -0.0126(6) -0.0068(7)
N3 0.0675(11) 0.0282(8) 0.0281(7) -0.0049(7) -0.0111(7) -0.0020(8)
N4 0.0575(10) 0.0342(9) 0.0265(7) -0.0063(6) -0.0027(6) 0.0082(8)
C1 0.0378(8) 0.0308(9) 0.0190(7) -0.0011(7) -0.0048(6) 0.0070(7)
C2 0.0396(9) 0.0365(10) 0.0288(8) 0.0028(7) 0.0021(7) 0.0002(8)
C3 0.0257(7) 0.0302(9) 0.0352(8) -0.0037(7) 0.0044(6) 0.0040(7)
C4 0.0313(8) 0.0322(10) 0.0370(9) -0.0015(8) -0.0023(7) 0.0035(7)
C5 0.0347(9) 0.0519(13) 0.0407(10) -0.0033(9) -0.0069(8) 0.0132(9)
C6 0.0317(9) 0.0644(15) 0.0496(12) -0.0246(11) -0.0104(8) 0.0116(9)
C7 0.0339(9) 0.0420(13) 0.0715(15) -0.0258(11) 0.0000(9) -0.0026(8)
C8 0.0345(9) 0.0311(10) 0.0546(12) -0.0058(9) 0.0074(8) -0.0003(7)
C9 0.0339(8) 0.0293(9) 0.0276(8) -0.0016(7) -0.0042(6) 0.0077(7)
C10 0.0243(7) 0.0285(8) 0.0266(8) -0.0031(7) 0.0012(6) 0.0056(6)
C11 0.0257(7) 0.0325(9) 0.0308(8) -0.0016(7) 0.0036(6) 0.0027(7)
C12 0.0360(9) 0.0502(12) 0.0264(8) 0.0057(8) 0.0075(7) 0.0091(8)
C13 0.0387(10) 0.0607(14) 0.0248(8) -0.0115(8) -0.0027(7) 0.0105(9)
C14 0.0317(8) 0.0411(11) 0.0415(10) -0.0170(8) -0.0012(7) 0.0035(7)
C15 0.0309(8) 0.0284(9) 0.0329(9) -0.0047(7) 0.0028(7) 0.0064(7)
F1 0.0389(5) 0.0342(6) 0.0460(6) 0.0022(5) 0.0051(4) -0.0049(5)
F2 0.0622(8) 0.0716(10) 0.0364(6) 0.0207(6) 0.0110(5) 0.0064(7)
F3 0.0687(9) 0.0975(13) 0.0294(6) -0.0147(7) -0.0135(6) 0.0091(8)
F4 0.0520(7) 0.0501(8) 0.0665(8) -0.0310(7) -0.0075(6) -0.0054(6)
F5 0.0454(6) 0.0259(6) 0.0498(6) 0.0011(5) 0.0039(5) 0.0012(4)
loop_
_atom_type_symbol
_atom_type_description
_atom_type_scat_dispersion_real
_atom_type_scat_dispersion_imag
_atom_type_scat_source
C C 0.0181 0.0091 'International Tables Vol C Tables 4.2.6.8 and 6.1.1.4'
H H 0.0000 0.0000 'International Tables Vol C Tables 4.2.6.8 and 6.1.1.4'
N N 0.0311 0.0180 'International Tables Vol C Tables 4.2.6.8 and 6.1.1.4'
F F 0.0727 0.0534 'International Tables Vol C Tables 4.2.6.8 and 6.1.1.4'
loop_
_geom_angle_atom_site_label_1
_geom_angle_atom_site_label_2
_geom_angle_atom_site_label_3
_geom_angle
C1 N1 N2 108.64(14)
C1 N1 C9 131.13(15)
N2 N1 C9 120.01(14)
N3 N2 N1 106.22(15)
N2 N3 N4 110.98(15)
C1 N4 N3 106.07(16)
N4 C1 N1 108.08(17)
N4 C1 C2 125.99(17)
N1 C1 C2 125.93(16)
C1 C2 C3 114.82(15)
C4 C3 C8 119.02(17)
C4 C3 C2 121.94(17)
C8 C3 C2 119.04(18)
C3 C4 C5 120.62(19)
C6 C5 C4 119.7(2)
C5 C6 C7 120.17(19)
C6 C7 C8 120.1(2)
C7 C8 C3 120.4(2)
N1 C9 C10 113.06(14)
C15 C10 C11 116.52(15)
C15 C10 C9 121.81(16)
C11 C10 C9 121.65(16)
F1 C11 C12 118.01(17)
F1 C11 C10 119.99(15)
C12 C11 C10 121.99(17)
F2 C12 C13 120.19(17)
F2 C12 C11 120.21(19)
C13 C12 C11 119.60(18)
F3 C13 C14 120.3(2)
F3 C13 C12 119.5(2)
C14 C13 C12 120.16(16)
F4 C14 C13 120.40(17)
F4 C14 C15 120.4(2)
C13 C14 C15 119.23(18)
F5 C15 C10 120.11(15)
F5 C15 C14 117.41(17)
C10 C15 C14 122.47(17)
loop_
_geom_bond_atom_site_label_1
_geom_bond_atom_site_label_2
_geom_bond_distance
N1 C1 1.345(2)
N1 N2 1.349(2)
N1 C9 1.463(2)
N2 N3 1.293(2)
N3 N4 1.360(3)
N4 C1 1.319(2)
C1 C2 1.487(3)
C2 C3 1.521(2)
C3 C4 1.388(3)
C3 C8 1.390(3)
C4 C5 1.391(3)
C5 C6 1.382(3)
C6 C7 1.382(4)
C7 C8 1.387(3)
C9 C10 1.513(2)
C10 C15 1.383(3)
C10 C11 1.387(2)
C11 F1 1.333(2)
C11 C12 1.385(2)
C12 F2 1.340(2)
C12 C13 1.374(3)
C13 F3 1.335(2)
C13 C14 1.372(3)
C14 F4 1.335(2)
C14 C15 1.385(3)
C15 F5 1.338(2)
