#------------------------------------------------------------------------------
#$Date: 2019-11-07 23:17:55 +0200 (Thu, 07 Nov 2019) $
#$Revision: 223982 $
#$URL: file:///home/coder/svn-repositories/cod/cif/7/70/06/7700620.cif $
#------------------------------------------------------------------------------
#
# This file is available in the Crystallography Open Database (COD),
# http://www.crystallography.net/
#
# All data on this site have been placed in the public domain by the
# contributors.
#
data_7700620
loop_
_publ_author_name
'Gayfulin, Yakov M.'
'Brylev, Konstantin A.'
'Ryzhikov, Maxim R.'
'Samsonenko, Denis G.'
'Kitamura, Noboru'
'Mironov, Yuri V.'
_publ_section_title
;
 Luminescent twelve-nuclear rhenium clusters.
;
_journal_issue                   33
_journal_name_full
'Dalton transactions (Cambridge, England : 2003)'
_journal_page_first              12522
_journal_page_last               12530
_journal_paper_doi               10.1039/c9dt02352f
_journal_volume                  48
_journal_year                    2019
_chemical_absolute_configuration unk
_chemical_formula_sum            'C41 H100 Br9 N5 Re12 S14'
_chemical_formula_weight         4065.68
_space_group_crystal_system      hexagonal
_space_group_IT_number           189
_space_group_name_Hall           'P -6 -2'
_space_group_name_H-M_alt        'P -6 2 m'
_symmetry_space_group_name_Hall  'P -6 -2'
_symmetry_space_group_name_H-M   'P -6 2 m'
_atom_sites_solution_primary     dual
_atom_sites_solution_secondary   difmap
_audit_creation_method           SHELXL-2018/3
_audit_update_record
;
2019-05-27 deposited with the CCDC.    2019-07-22 downloaded from the CCDC.
;
_cell_angle_alpha                90
_cell_angle_beta                 90
_cell_angle_gamma                120
_cell_formula_units_Z            1
_cell_length_a                   11.9994(7)
_cell_length_b                   11.9994(7)
_cell_length_c                   17.3402(15)
_cell_measurement_reflns_used    1075
_cell_measurement_temperature    130(2)
_cell_measurement_theta_max      26.02
_cell_measurement_theta_min      3.90
_cell_volume                     2162.2(3)
_computing_cell_refinement       'CrysAlisPro 1.171.38.46 (Rigaku OD, 2015)'
_computing_data_collection       'CrysAlisPro 1.171.38.46 (Rigaku OD, 2015)'
_computing_data_reduction        'CrysAlisPro 1.171.38.46 (Rigaku OD, 2015)'
_computing_molecular_graphics    'ShelXle (H\"ubschle, 2011)'
_computing_publication_material  'CIFTAB (Sheldrick, 2015)'
_computing_structure_refinement  'SHELXL-2018 (Sheldrick, 2015)'
_computing_structure_solution    'SHELXT-2018 (Sheldrick, 2015)'
_diffrn_ambient_temperature      130(2)
_diffrn_detector                 'CCD plate'
_diffrn_detector_area_resol_mean 10.6168
_diffrn_detector_type            AtlasS2
_diffrn_measured_fraction_theta_full 0.992
_diffrn_measured_fraction_theta_max 0.992
_diffrn_measurement_device       'four-circle diffractometer'
_diffrn_measurement_device_type  'New Xcalibur, AtlasS2'
_diffrn_measurement_method       '\w scans'
_diffrn_radiation_monochromator  graphite
_diffrn_radiation_probe          x-ray
_diffrn_radiation_source         'fine-focus sealed tube'
_diffrn_radiation_type           MoK\a
_diffrn_radiation_wavelength     0.71073
_diffrn_reflns_av_R_equivalents  0.0276
_diffrn_reflns_av_unetI/netI     0.0309
_diffrn_reflns_Laue_measured_fraction_full 0.992
_diffrn_reflns_Laue_measured_fraction_max 0.992
_diffrn_reflns_limit_h_max       14
_diffrn_reflns_limit_h_min       -5
_diffrn_reflns_limit_k_max       9
_diffrn_reflns_limit_k_min       -13
_diffrn_reflns_limit_l_max       20
_diffrn_reflns_limit_l_min       -12
_diffrn_reflns_number            4210
_diffrn_reflns_point_group_measured_fraction_full 0.974
_diffrn_reflns_point_group_measured_fraction_max 0.972
_diffrn_reflns_theta_full        25.242
_diffrn_reflns_theta_max         25.349
_diffrn_reflns_theta_min         3.396
_diffrn_source                   'sealed X-ray tube'
_exptl_absorpt_coefficient_mu    21.241
_exptl_absorpt_correction_T_max  1.00000
_exptl_absorpt_correction_T_min  0.32690
_exptl_absorpt_correction_type   multi-scan
_exptl_absorpt_process_details
;
CrysAlisPro 1.171.38.46 (Rigaku Oxford Diffraction, 2015)
Empirical absorption correction using spherical harmonics,
implemented in SCALE3 ABSPACK scaling algorithm.
;
_exptl_crystal_colour            orange
_exptl_crystal_density_diffrn    3.122
_exptl_crystal_description       rod
_exptl_crystal_F_000             1820
_exptl_crystal_preparation       Luminescent
_exptl_crystal_recrystallization_method 'Re-crystallisation from solvent: DMF'
_exptl_crystal_size_max          0.22
_exptl_crystal_size_mid          0.05
_exptl_crystal_size_min          0.05
_refine_diff_density_max         0.746
_refine_diff_density_min         -0.492
_refine_diff_density_rms         0.082
_refine_ls_abs_structure_details
;
 Refined as an inversion twin.
;
_refine_ls_abs_structure_Flack   0.25(3)
_refine_ls_extinction_method     none
_refine_ls_goodness_of_fit_ref   0.869
_refine_ls_hydrogen_treatment    undef
_refine_ls_matrix_type           full
_refine_ls_number_parameters     41
_refine_ls_number_reflns         1463
_refine_ls_number_restraints     0
_refine_ls_restrained_S_all      0.869
_refine_ls_R_factor_all          0.0493
_refine_ls_R_factor_gt           0.0281
_refine_ls_shift/su_max          0.001
_refine_ls_shift/su_mean         0.000
_refine_ls_structure_factor_coef Fsqd
_refine_ls_weighting_details
'w=1/[\s^2^(Fo^2^)+(0.0350P)^2^] where P=(Fo^2^+2Fc^2^)/3'
_refine_ls_weighting_scheme      calc
_refine_ls_wR_factor_gt          0.0605
_refine_ls_wR_factor_ref         0.0655
_reflns_Friedel_coverage         0.709
_reflns_Friedel_fraction_full    0.949
_reflns_Friedel_fraction_max     0.945
_reflns_number_gt                992
_reflns_number_total             1463
_reflns_threshold_expression     'I > 2\s(I)'
_cod_data_source_file            c9dt02352f2.cif
_cod_data_source_block           gy1129-1_sq
_cod_depositor_comments
'Adding full bibliography for 7700619--7700620.cif.'
_cod_database_code               7700620
_shelx_shelxl_version_number     2018/3
_shelx_space_group_comment
;
The symmetry employed for this shelxl refinement is uniquely defined
by the following loop, which should always be used as a source of
symmetry information in preference to the above space-group names.
They are only intended as comments.
;
_shelx_estimated_absorpt_t_min   0.089
_shelx_estimated_absorpt_t_max   0.416
_shelx_res_file
;
TITL gy1129-1 in P-62m; 130K; Xcalibur
    gy1129-1_sq.res
    created by SHELXL-2018/3 at 13:13:44 on 13-Sep-2018
CELL  0.71073  11.9994  11.9994  17.3402   90.000   90.000  120.000
ZERR    1.000   0.0007   0.0007   0.0015    0.000    0.000    0.000
LATT -1
SYMM -Y, X-Y, Z
SYMM -X+Y, -X, Z
SYMM X, Y, -Z
SYMM -Y, X-Y, -Z
SYMM -X+Y, -X, -Z
SYMM Y, X, -Z
SYMM X-Y, -Y, -Z
SYMM -X, -X+Y, -Z
SYMM Y, X, Z
SYMM X-Y, -Y, Z
SYMM -X, -X+Y, Z
SFAC C  H   N S  BR RE
UNIT 41 100 5 14 9  12
 
LIST 4 ! automatically inserted. Change 6 to 4 for CHECKCIF!!
TEMP -143
 
L.S. 6 0   30
BOND $H
FMAP 2
PLAN 5
 
TWIN
 
OMIT  0
OMIT  0   3   1
OMIT  0   0   3
 
ABIN
ACTA
 
SIZE 0.22 0.05 0.05
 
WGHT    0.035000
BASF   0.24620
FVAR       0.55256
RE1   6    0.875961    0.875961    0.785854    10.50000    0.08260    0.08260 =
         0.07853   -0.00522   -0.00522    0.03163
RE2   6    0.877637    1.000000    0.908207    10.50000    0.07154    0.08818 =
         0.07959    0.00000   -0.00074    0.04409
S1    4    1.000000    1.000000    0.677829    10.16667    0.09885    0.09885 =
         0.07213    0.00000    0.00000    0.04943
S2    4    0.771419    1.000000    0.791140    10.50000    0.10150    0.16920 =
         0.08337    0.00000   -0.01601    0.08460
S3    4    0.770341    0.770341    0.903113    10.50000    0.08594    0.08594 =
         0.08639   -0.00572   -0.00572    0.00535
BR1   5    0.706009    1.000000    1.000000    10.25000    0.11312    0.24274 =
         0.10579    0.00000    0.00000    0.12137
BR2   5    0.700757    0.700757    0.701285    10.50000    0.14153    0.14153 =
         0.10635   -0.01877   -0.01877    0.01502
C1    1    1.000000    1.000000    1.000000    10.08333    0.05804    0.05804 =
         0.10535    0.00000    0.00000    0.02902
HKLF 4
 
 
 
 
REM  gy1129-1 in P-62m; 130K; Xcalibur
REM wR2 = 0.0655, GooF = S = 0.869, Restrained GooF = 0.869 for all data
REM R1 = 0.0281 for 992 Fo > 4sig(Fo) and 0.0493 for all 1463 data
REM 41 parameters refined using 0 restraints
 
END
 
WGHT      0.0350      0.0000
 
REM Highest difference peak  0.746,  deepest hole -0.492,  1-sigma level  0.082
Q1    1   0.8617  1.0000  1.0000  10.25000  0.05    0.75
Q2    1   1.0000  1.0000  0.9065  10.16667  0.05    0.65
Q3    1   0.8590  0.8590  0.8687  10.50000  0.05    0.59
Q4    1   0.8745  1.0000  0.8289  10.50000  0.05    0.59
Q5    1   1.0000  1.0000  0.7846  10.16667  0.05    0.57
;
_shelx_res_checksum              91707
_shelx_fab_file
;
    0    0    4     28.69     -0.01
    0    0    5    -31.36     -0.38
    0    0    6     52.52      0.58
    0    0    7    -16.76     -0.49
    0    0    8     24.35      0.04
    0    0    9    -22.09      0.25
    0    0   10      5.30     -0.52
    0    0   11    -10.93      0.40
    0    0   12      6.84      0.03
    0    0   13     -4.07     -0.39
    0    0   14      0.66      0.28
    0    0   15     -4.96     -0.52
    0    0   16      5.13      0.12
    0    0   17     -1.70      0.19
    0    0   18      4.69     -0.20
    0    0   19     -3.82      0.17
    0    0   20      1.66     -0.40
    0    1    3     26.36     -0.07
    0    1    4     -3.54      0.03
    0    1    5      3.88      0.04
    0    1    6    -13.92      0.14
    0    1    7     -0.63     -0.16
    0    1    8     -3.25     -0.12
    0    1    9      5.04      0.09
    0    1   10      0.55     -0.15
    0    1   11      2.56      0.07
    0    1   12     -0.65      0.06
    0    1   13     -0.73      0.15
    0    1   14      1.33      0.33
    0    1   15      0.60     -0.06
    0    1   16     -0.43     -0.01
    0    1   17     -1.13     -0.10
    0    1   18      1.46     -0.28
    0    1   19     -2.48      0.55
    0    1   20      1.94      1.00
   -1    2    0    102.87     25.91
   -1    2    1     11.53    -20.04
   -1    2    2    -17.79      9.42
   -1    2    3    -42.08     -1.07
   -1    2    4     25.44     -4.28
   -1    2    5     -6.90      0.65
   -1    2    6     21.75      1.72
   -1    2    7     -3.06     -4.34
   -1    2    8      4.53      3.02
   -1    2    9    -11.49     -0.68
   -1    2   10      3.35     -1.25
   -1    2   11     -6.34      2.32
   -1    2   12      2.21     -0.62
   -1    2   13     -2.14     -0.80
   -1    2   14      1.35      1.23
   -1    2   15     -1.33     -2.31
   -1    2   16      1.42      2.05
   -1    2   17      0.41     -1.18
   -1    2   18     -3.67      1.33
   -1    2   19      5.20     -3.08
   -1    2   20     -3.47      0.37
    0    2    0    -29.69     -0.73
    0    2    1     16.46      0.08
    0    2    2     -3.18      0.21
    0    2    3     24.05      0.24
    0    2    4    -25.24     -0.01
    0    2    5      7.46     -0.14
    0    2    6    -13.82     -0.23
    0    2    7      7.10     -0.07
    0    2    8     -3.10      0.22
    0    2    9      7.17      0.27
    0    2   10     -2.32     -0.03
    0    2   11      3.41     -0.05
    0    2   12     -0.37     -0.22
    0    2   13      2.77     -0.14
    0    2   14     -0.57     -0.02
    0    2   15     -2.68     -0.13
    0    2   16     -0.39     -0.14
    0    2   17      0.50     -0.25
    0    2   18      0.03     -0.24
    0    2   19      1.02      0.29
    0    2   20     -1.60      2.81
   -1    3    0    -43.35     -3.84
   -1    3    1     10.59      0.71
   -1    3    2     -4.09      1.68
   -1    3    3     19.31     -1.36
   -1    3    4    -10.98      3.27
   -1    3    5      2.92     -2.51
   -1    3    6     -8.32      0.75
   -1    3    7      4.62      0.20
   -1    3    8     -4.08      0.30
   -1    3    9      5.27      0.86
   -1    3   10     -3.70      0.22
   -1    3   11      0.73     -1.03
   -1    3   12     -1.30      1.11
   -1    3   13      0.96     -1.38
   -1    3   14     -2.77      2.16
   -1    3   15      5.15     -1.54
   -1    3   16     -2.53      1.77
   -1    3   17      2.75     -2.53
   -1    3   18     -1.06      3.30
   -1    3   19     -0.71     -2.57
   -1    3   20     -1.88      1.92
    0    3    0     45.84      0.84
    0    3    2      9.71     -0.12
    0    3    3    -28.05     -0.14
    0    3    4     22.25      0.03
    0    3    5     -1.90      0.14
    0    3    6     12.85      0.07
    0    3    7    -11.54     -0.12
    0    3    8      3.68      0.07
    0    3    9     -7.37     -0.12
    0    3   10      3.05      0.25
    0    3   11      4.19      0.14
    0    3   12     -3.37      0.02
    0    3   13      1.72     -0.20
    0    3   14     -0.52     -0.11
    0    3   15     -1.27     -0.15
    0    3   16     -0.20     -0.26
    0    3   17     -0.48      0.20
    0    3   18      0.01      0.16
    0    3   19      0.26     -0.14
    0    3   20      4.62     -1.60
   -2    4    0     28.11     -4.96
   -2    4    1    -22.08     11.10
   -2    4    2      3.13    -10.98
   -2    4    3    -14.38      0.31
   -2    4    4     13.90     -1.76
   -2    4    5      1.85      5.42
   -2    4    6      6.80      0.21
   -2    4    7     -6.41      0.32
   -2    4    8      0.16     -5.06
   -2    4    9     -1.33     -1.64
   -2    4   10      3.21     -1.31
   -2    4   11      3.79      1.73
   -2    4   12     -2.08      1.23
   -2    4   13     -0.78     -0.92
   -2    4   14     -1.24     -1.49
   -2    4   15     -0.36     -0.66
   -2    4   16     -2.33     -1.19
   -2    4   17      1.15      0.75
   -2    4   18     -1.28     -0.13
   -2    4   19      1.46      0.88
   -2    4   20     -1.33     -3.50
   -1    4    0      2.79      5.11
   -1    4    1     16.49     -6.31
   -1    4    2     -0.35      3.33
   -1    4    3     -0.58      2.24
   -1    4    4     -5.69     -3.96
   -1    4    5     -4.52      2.94
   -1    4    6     -1.47     -2.32
   -1    4    7      6.29      0.65
   -1    4    8     -1.20      2.70
   -1    4    9      3.95     -0.70
   -1    4   10     -1.50     -0.08
   -1    4   11     -1.84      0.60
   -1    4   12      1.66     -2.82
   -1    4   13      0.10      3.00
   -1    4   14      1.46      0.31
   -1    4   15     -0.31      0.81
   -1    4   16      0.59      2.37
   -1    4   17     -1.51     -1.20
   -1    4   18      1.08     -1.19
   -1    4   19      0.78      0.28
   -1    4   20      1.55      2.61
    0    4    0    -24.99     -0.04
    0    4    1      1.08     -0.03
    0    4    2      0.63      0.28
    0    4    3     15.16     -0.10
    0    4    4     -0.58     -0.17
    0    4    5      2.52      0.06
    0    4    6     -5.56     -0.14
    0    4    7      3.57      0.06
    0    4    8     -2.15      0.00
    0    4    9      1.59     -0.05
    0    4   10     -2.87      0.02
    0    4   11     -3.08     -0.07
    0    4   12      1.44     -0.05
    0    4   13     -2.13      0.17
    0    4   14     -0.87     -0.01
    0    4   15      0.11      0.19
    0    4   16      0.48     -0.08
    0    4   17     -0.27      0.00
    0    4   18      0.60      0.02
    0    4   19     -2.72     -0.02
   -2    5    0     -9.00     -3.61
   -2    5    1      0.85      1.20
   -2    5    2      0.40      1.49
   -2    5    3      7.33      5.43
   -2    5    4     -5.59     -2.42
   -2    5    5      2.31     -2.44
   -2    5    6     -5.60     -1.09
   -2    5    7      2.59     -0.50
   -2    5    8     -0.39      0.96
   -2    5    9      0.64      1.99
   -2    5   10     -3.03     -0.91
   -2    5   11      0.20      0.98
   -2    5   12     -1.07     -1.79
   -2    5   13      3.50      1.03
   -2    5   14     -0.89     -0.07
   -2    5   15     -0.35     -0.69
   -2    5   16      0.10      0.97
   -2    5   17     -0.06      0.13
   -2    5   18     -0.74      1.13
   -2    5   19      0.87     -1.26
   -1    5    0     12.25      3.19
   -1    5    1     -9.58     -0.31
   -1    5    2      1.01     -2.78
   -1    5    3    -11.47     -4.84
   -1    5    4      6.18      2.13
   -1    5    5     -0.11      1.09
   -1    5    6      5.15      1.29
   -1    5    7     -5.35     -0.25
   -1    5    8      0.53      0.57
   -1    5    9     -3.89     -1.22
   -1    5   10      2.17      1.85
   -1    5   11      1.56     -0.30
   -1    5   12      0.63      0.86
   -1    5   13     -1.52     -1.79
   -1    5   14      1.92     -0.55
   -1    5   15     -1.30     -0.75
   -1    5   16      1.71     -1.16
   -1    5   17      1.13     -2.79
   -1    5   18      0.32      3.27
   -1    5   19     -3.50     -1.90
    0    5    0      4.87     -0.27
    0    5    1      6.49     -0.02
    0    5    2     -3.68      0.01
    0    5    3      3.43      0.32
    0    5    4     -8.58     -0.12
    0    5    5      0.69     -0.22
    0    5    6     -1.98      0.02
    0    5    7      0.36      0.16
    0    5    8      3.85      0.06
    0    5    9      0.89      0.32
    0    5   10      3.51      0.06
    0    5   11      1.75     -0.00
    0    5   12     -3.24      0.17
    0    5   13      2.90     -0.20
    0    5   14     -1.06     -0.26
    0    5   15      1.15      0.11
    0    5   16      0.23     -0.19
    0    5   17     -5.48     -0.05
    0    5   18      2.06      0.09
    0    5   19      4.39     -0.55
   -3    6    0     16.04      1.66
   -3    6    1     -5.31      3.38
   -3    6    2      6.44     -8.52
   -3    6    3    -12.86     -6.04
   -3    6    4     10.17      2.34
   -3    6    5     -4.98     -1.25
   -3    6    6      9.95      5.19
   -3    6    7     -4.32     -1.23
   -3    6    8      1.19      1.18
   -3    6    9     -1.47      0.48
   -3    6   10      5.44     -0.99
   -3    6   11     -1.08      2.69
   -3    6   12      0.42     -0.82
   -3    6   13    -11.62     -2.92
   -3    6   14      1.76     -3.41
   -3    6   15     -0.22      0.36
   -3    6   16      1.59     -2.19
   -3    6   17      0.51     -0.64
   -3    6   18      1.18     -1.12
   -3    6   19     -2.82      3.15
   -2    6    0     -6.45     -6.48
   -2    6    1      5.95      1.31
   -2    6    2     -3.88      1.51
   -2    6    3      3.21      1.52
   -2    6    4     -0.05      2.81
   -2    6    5     -1.34     -1.28
   -2    6    6      0.95      1.34
   -2    6    7     -0.29     -1.84
   -2    6    8     -0.09     -0.84
   -2    6    9      0.12     -1.17
   -2    6   10     -0.64     -0.54
   -2    6   11     -0.79     -1.65
   -2    6   12      1.55      2.52
   -2    6   13      1.81      1.49
   -2    6   14     -0.01      2.80
   -2    6   15      0.75      0.58
   -2    6   16      0.15      0.23
   -2    6   17     -1.71      0.89
   -2    6   18      0.76     -1.59
   -1    6    0    -12.55     -0.16
   -1    6    1      3.63      1.05
   -1    6    2     -0.55      2.62
   -1    6    3      7.61      0.01
   -1    6    4     -2.60     -0.17
   -1    6    5      0.78     -0.17
   -1    6    6      0.05      0.04
   -1    6    7      0.05     -0.31
   -1    6    8      1.19      0.53
   -1    6    9      1.18     -3.35
   -1    6   10     -2.03      1.62
   -1    6   11     -0.21     -1.75
   -1    6   12     -0.49     -0.23
   -1    6   13     -1.58      0.03
   -1    6   14     -0.78     -0.21
   -1    6   15     -1.26     -0.34
   -1    6   16     -1.13      3.53
   -1    6   17      2.69      1.01
   -1    6   18      0.10      0.95
    0    6    0     11.47      0.34
    0    6    1     -4.53      0.12
    0    6    2      0.06     -0.02
    0    6    3     -6.16     -0.61
    0    6    4      6.08     -0.05
    0    6    5     -2.20     -0.13
    0    6    6      1.99     -0.09
    0    6    7     -1.53      0.02
    0    6    8     -1.33     -0.05
    0    6    9     -4.58     -0.07
    0    6   10     -0.66      0.17
    0    6   11     -3.29      0.11
    0    6   12      2.03     -0.16
    0    6   13      0.93      0.18
    0    6   14      1.85     -0.21
    0    6   15     -2.64      0.13
    0    6   16      2.78      0.04
    0    6   17     -1.15      0.18
    0    6   18     -0.51      0.06
   -3    7    0     -6.95      3.53
   -3    7    1     -1.38     -3.04
   -3    7    2      0.15      5.93
   -3    7    3      2.09     -1.36
   -3    7    4     -0.06      1.41
   -3    7    5     -2.94     -1.37
   -3    7    6     -1.31     -0.20
   -3    7    7     -0.75      1.21
   -3    7    8      4.42     -1.63
   -3    7    9     -1.57      1.48
   -3    7   10     -0.39     -1.58
   -3    7   11     -2.20      1.07
   -3    7   12      1.79     -1.73
   -3    7   13      4.31      2.82
   -3    7   14      1.85      0.83
   -3    7   15     -1.55      0.29
   -3    7   16     -1.45      1.61
   -3    7   17      1.08      0.32
   -3    7   18     -0.99      0.98
   -2    7    0     13.14      3.15
   -2    7    1     -0.99      1.72
   -2    7    2      0.65     -4.33
   -2    7    3     -5.89     -1.00
   -2    7    4      0.71     -2.68
   -2    7    5      0.69     -1.10
   -2    7    6     -0.01     -0.93
   -2    7    7     -0.41     -0.05
   -2    7    8     -3.10      3.13
   -2    7    9      1.42      2.13
   -2    7   10      1.95      0.99
   -2    7   11      1.96      0.59
   -2    7   12     -2.72     -0.54
   -2    7   13     -1.63     -5.51
   -2    7   14     -0.27      0.26
   -2    7   15     -0.49     -4.03
   -2    7   16      1.70      1.24
   -2    7   17     -2.43     -6.79
   -2    7   18     -0.29      5.14
   -1    7    0     -4.95     -1.70
   -1    7    1     -1.84     -3.58
   -1    7    2      1.55      0.28
   -1    7    3      1.17      1.40
   -1    7    4     -0.15      2.51
   -1    7    5      1.16      0.67
   -1    7    6     -1.27      0.76
   -1    7    7     -0.09     -0.23
   -1    7    8      1.10     -2.08
   -1    7    9      0.53      0.89
   -1    7   10     -0.17     -1.24
   -1    7   11      2.16      1.59
   -1    7   12      2.18     -0.64
   -1    7   13      0.39      3.35
   -1    7   14      1.12      0.59
   -1    7   15      2.50     -1.09
   -1    7   16     -2.04     -0.05
   -1    7   17      0.55     -0.96
    0    7    0      0.32     -0.39
    0    7    1      1.67     -0.12
    0    7    2      1.19     -0.01
    0    7    3      0.25      0.37
    0    7    4     -2.89      0.10
    0    7    5     -2.18     -0.19
    0    7    6      2.42      0.08
    0    7    7     -0.27      0.15
    0    7    8      1.55      0.08
    0    7    9      2.62      0.12
    0    7   10     -0.04     -0.22
    0    7   11      0.30     -0.13
    0    7   12     -4.64      0.34
    0    7   13     -1.61      0.15
    0    7   14     -1.93     -0.10
    0    7   15      2.24     -0.27
    0    7   16      1.41     -0.08
    0    7   17      2.03      0.10
   -4    8    0      7.16     -4.74
   -4    8    1      2.93      3.60
   -4    8    2      0.63     -3.23
   -4    8    3     -3.24     -2.06
   -4    8    4      0.83      0.80
   -4    8    5      2.44     -0.53
   -4    8    6      2.76     -1.44
   -4    8    7     -2.80     -2.29
   -4    8    8     -5.75     -0.31
   -4    8    9      1.00     -3.83
   -4    8   10      1.24      3.03
   -4    8   11      3.53     -2.28
   -4    8   12     -2.52      3.57
   -4    8   13     -2.74     -6.47
   -4    8   14     -1.33     -2.24
   -4    8   15     -0.68     -2.29
   -4    8   16     -0.24     -1.11
   -4    8   17     -4.23      0.33
   -3    8    0     -4.16     -3.70
   -3    8    1      1.18     -1.54
   -3    8    2     -1.96     -1.06
   -3    8    3      2.54      2.94
   -3    8    4     -1.82      1.57
   -3    8    5      3.27      2.28
   -3    8    6     -1.01      0.50
   -3    8    7      3.03      2.07
   -3    8    8     -1.65     -2.37
   -3    8    9     -0.08      1.67
   -3    8   10     -1.79     -0.79
   -3    8   11     -0.06     -0.78
   -3    8   12      1.04     -0.39
   -3    8   13     -2.44      3.61
   -3    8   14     -2.43      0.35
   -3    8   15      1.80      2.20
   -3    8   16      4.51      0.44
   -3    8   17      0.52     -0.09
   -2    8    0     -6.35     -0.17
   -2    8    1      1.81      1.26
   -2    8    2     -1.05      2.15
   -2    8    3      4.82     -1.61
   -2    8    4     -2.33     -1.28
   -2    8    5     -1.29      0.31
   -2    8    6     -1.87     -0.36
   -2    8    7      3.05     -0.08
   -2    8    8      1.42      0.02
   -2    8    9      0.26     -0.78
   -2    8   10     -1.44     -1.31
   -2    8   11     -2.44      1.99
   -2    8   12     -0.64     -0.32
   -2    8   13      2.00      1.86
   -2    8   14      2.20      0.06
   -2    8   15     -2.29      0.03
   -2    8   16      0.09      1.77
   -2    8   17     -1.50      2.20
   -1    8    0      7.48      4.58
   -1    8    1     -0.49      1.38
   -1    8    2     -1.63      0.37
   -1    8    3     -4.07     -0.33
   -1    8    4      2.52     -1.06
   -1    8    5      1.65     -2.68
   -1    8    6      0.35      1.19
   -1    8    7     -0.77     -1.71
   -1    8    8     -2.30      2.91
   -1    8    9     -1.54     -0.98
   -1    8   10      1.39      0.82
   -1    8   11     -0.23     -2.44
   -1    8   12      2.66      2.69
   -1    8   13     -1.89     -3.39
   -1    8   14     -0.61     -0.18
   -1    8   15     -6.45      3.70
   -1    8   16      0.84     -2.76
    0    8    0     -3.47     -0.34
    0    8    1     -2.98     -0.11
    0    8    2      3.46     -0.14
    0    8    3     -0.06      0.01
    0    8    4      1.44      0.10
    0    8    5     -2.49      0.25
    0    8    6      0.18     -0.02
    0    8    7     -0.24      0.08
    0    8    8      0.86     -0.03
    0    8    9     -0.80     -0.18
    0    8   10      0.21      0.04
    0    8   11     -1.93     -0.01
    0    8   12     -1.13     -0.27
    0    8   13      3.69      0.10
    0    8   14      4.05      0.02
    0    8   15      4.34     -0.06
    0    8   16     -0.31     -0.09
   -4    9    0     -3.48      3.39
   -4    9    1     -1.01      0.12
   -4    9    2      0.40      0.19
   -4    9    3      2.02      0.21
   -4    9    4      0.15     -2.60
   -4    9    5     -3.62     -0.44
   -4    9    6     -0.61      0.35
   -4    9    7      1.14      1.66
   -4    9    8      3.80      3.47
   -4    9    9      0.44      1.65
   -4    9   10     -0.79      0.06
   -4    9   11     -0.58      0.40
   -4    9   12     -0.67      0.42
   -4    9   13      2.32      1.06
   -4    9   14      2.24      1.68
   -4    9   15     -1.37      0.60
   -4    9   16      0.58     -1.02
   -3    9    0      2.48     -0.55
   -3    9    1      3.52      1.95
   -3    9    2     -3.71      0.54
   -3    9    3     -1.67      0.14
   -3    9    4     -0.88      0.55
   -3    9    5      5.00     -0.58
   -3    9    6     -2.42     -2.53
   -3    9    7     -0.35     -1.50
   -3    9    8     -4.28     -2.13
   -3    9    9      1.23     -2.80
   -3    9   10      2.39     -0.96
   -3    9   11     -1.01     -0.24
   -3    9   12      2.39      0.55
   -3    9   13     -0.13     -4.64
   -3    9   14      0.07      0.95
   -3    9   15      0.15     -2.94
   -3    9   16     -5.78      1.62
   -2    9    0     -1.22     -0.31
   -2    9    1     -2.19     -1.68
   -2    9    2      2.64     -3.05
   -2    9    3      1.27     -0.18
   -2    9    4     -1.14     -0.42
   -2    9    5      0.81      2.56
   -2    9    6     -0.97      1.81
   -2    9    7      0.29      0.29
   -2    9    8      0.52      1.18
   -2    9    9     -0.76      1.52
   -2    9   10      0.47      3.40
   -2    9   11     -1.43     -0.84
   -2    9   12     -0.14     -3.61
   -2    9   13     -1.77      0.34
   -2    9   14     -0.41     -0.34
   -2    9   15      5.47     -1.63
   -1    9    0     -2.35     -1.17
   -1    9    1      0.57     -3.84
   -1    9    2      0.29      2.45
   -1    9    3      1.17      1.93
   -1    9    4     -0.39      1.95
   -1    9    5     -0.26     -1.29
   -1    9    6     -0.61      1.91
   -1    9    7      0.73     -2.56
   -1    9    8      0.04     -1.24
   -1    9    9      0.80     -2.21
   -1    9   10     -0.57     -1.19
   -1    9   11      3.21      0.62
   -1    9   12     -0.26      0.37
   -1    9   13     -1.25      3.51
   -1    9   14     -0.34     -2.68
   -1    9   15     -0.01      0.62
    0    9    0      5.19      0.91
    0    9    1      1.47      0.27
    0    9    2     -2.10     -0.30
    0    9    3     -0.68     -0.15
    0    9    4      0.18      0.17
    0    9    5      2.17      0.34
    0    9    6     -0.31     -0.03
    0    9    7      0.81     -0.04
    0    9    8      0.59      0.03
    0    9    9      2.40     -0.35
    0    9   10     -2.78     -0.04
    0    9   11     -3.24     -0.12
    0    9   12      6.14      0.18
    0    9   13     -2.04      0.02
    0    9   14     -3.09      0.04
   -5   10    0      2.63     -5.59
   -5   10    1     -0.11      0.86
   -5   10    2     -1.49      0.01
   -5   10    3     -2.51      1.83
   -5   10    4      2.69      3.18
   -5   10    5      3.73     -1.15
   -5   10    6     -0.51      2.87
   -5   10    7     -2.05     -7.46
   -5   10    8     -4.07     -0.96
   -5   10    9     -1.33     -4.54
   -5   10   10     -1.83     -1.56
   -5   10   11      2.42     -0.82
   -5   10   12     -1.26     -1.09
   -5   10   13      0.67     -1.78
   -5   10   14     -1.49     -1.53
   -5   10   15     -0.37     -3.04
   -4   10    0      0.06      0.99
   -4   10    1      0.58     -0.45
   -4   10    2      0.56     -1.86
   -4   10    3      1.25      0.24
   -4   10    4     -2.74     -1.12
   -4   10    5      0.78      1.17
   -4   10    6      0.61     -0.21
   -4   10    7     -0.04      1.44
   -4   10    8      3.13     -2.44
   -4   10    9      0.30      1.95
   -4   10   10      1.06      2.72
   -4   10   11     -0.06      0.41
   -4   10   12     -0.76     -1.10
   -4   10   13     -1.26      0.81
   -4   10   14     -1.70     -1.39
   -3   10    0     -0.62     -0.10
   -3   10    1     -2.52     -1.89
   -3   10    2      1.77      1.65
   -3   10    3      0.71      1.31
   -3   10    4      0.00     -0.28
   -3   10    5     -2.60      0.49
   -3   10    6      1.06      1.08
   -3   10    7      0.00      2.04
   -3   10    8     -1.26      0.45
   -3   10    9     -3.06      0.92
   -3   10   10      0.36     -4.28
   -3   10   11      1.71     -0.02
   -3   10   12     -0.48      2.82
   -3   10   13      1.08      6.17
   -3   10   14     -0.73     -0.40
   -2   10    0      4.13      1.24
   -2   10    1      1.33      3.66
   -2   10    2     -0.76      0.49
   -2   10    3     -4.44     -0.63
   -2   10    4      2.87     -1.43
   -2   10    5     -0.99     -0.25
   -2   10    6      0.49     -5.38
   -2   10    7      0.28      0.55
   -2   10    8      4.59      2.06
   -2   10    9      1.71     -1.51
   -2   10   10      0.27      0.99
   -2   10   11     -1.55      2.97
   -2   10   12      0.54      1.68
   -2   10   13      3.15     -6.24
   -2   10   14     -0.00      5.03
   -1   10    0     -0.78      0.12
   -1   10    1     -2.17      1.29
   -1   10    2      1.98     -1.23
   -1   10    3      2.82     -3.33
   -1   10    4     -2.27     -0.41
   -1   10    5     -1.07     -0.36
   -1   10    6     -0.60      1.77
   -1   10    7     -0.34      1.27
   -1   10    8     -5.34      1.62
   -1   10    9     -0.74      3.76
   -1   10   10      2.89      0.36
   -1   10   11     -3.24     -3.05
   -1   10   12     -5.44     -2.34
   -1   10   13     -1.70      0.91
    0   10    0     -2.52     -1.16
    0   10    1     -1.60     -0.35
    0   10    2     -2.13      0.31
    0   10    3     -3.87      0.26
    0   10    4     -0.08      0.06
    0   10    5      1.83     -0.03
    0   10    6      0.42     -0.09
    0   10    7      1.14     -0.10
    0   10    8     -0.61     -0.06
    0   10    9     -1.54     -0.01
    0   10   10      0.60     -0.03
    0   10   11      8.98     -0.14
    0   10   12      4.90     -0.06
   -5   11    0     -0.41      1.36
   -5   11    1     -0.56      1.01
   -5   11    2      1.42     -0.59
   -5   11    3      1.72     -1.40
   -5   11    4     -2.17     -1.67
   -5   11    5     -1.28      0.37
   -5   11    6      0.50     -0.07
   -5   11    7      0.55      2.99
   -5   11    8     -1.75      1.25
   -5   11    9     -0.19      1.76
   -5   11   10      0.61     -1.69
   -5   11   11     -0.29      0.74
   -5   11   12     -0.20      0.56
   -5   11   13      1.17      3.15
   -4   11    0      2.37     -3.64
   -4   11    1     -0.54      1.62
   -4   11    2     -1.80     -0.62
   -4   11    3     -1.53      2.48
   -4   11    4      3.23      0.16
   -4   11    5     -1.40     -0.66
   -4   11    6      0.13     -1.39
   -4   11    7     -1.68     -2.41
   -4   11    8      4.38      4.57
   -4   11    9      0.63     -1.71
   -4   11   10     -1.47      2.45
   -4   11   11     -0.87     -0.61
   -4   11   12      1.16     -0.07
   -4   11   13     -1.80     -7.59
   -3   11    0     -0.69      1.80
   -3   11    1      0.15     -0.35
   -3   11    2      1.89     -2.80
   -3   11    3      0.46     -1.62
   -3   11    4      1.80     -0.17
   -3   11    5      0.28      1.53
   -3   11    6      1.90      0.58
   -3   11    7     -1.23     -0.27
   -3   11    8     -3.80     -5.34
   -3   11    9      1.98      3.75
   -3   11   10     -0.42     -1.56
   -3   11   11     -1.16      0.62
   -3   11   12     -0.60     -5.00
   -2   11    0     -3.02     -1.08
   -2   11    1     -1.26     -3.95
   -2   11    2     -1.58      2.30
   -2   11    3     -2.63      5.89
   -2   11    4     -1.12     -1.14
   -2   11    5      0.94      1.57
   -2   11    6      0.88      2.07
   -2   11    7      1.13      0.62
   -2   11    8     -2.19     -5.11
   -2   11    9     -3.08     -2.17
   -2   11   10     -1.80     -1.79
   -2   11   11      4.66     -0.95
   -2   11   12      4.70      3.88
   -1   11    0      4.60      0.08
   -1   11    1      2.30      1.34
   -1   11    2      2.48     -0.36
   -1   11    3      3.24     -2.44
   -1   11    4      2.05      2.43
   -1   11    5      2.21     -0.25
   -1   11    6     -3.23     -3.48
   -1   11    7      0.17      0.92
   -1   11    8     10.62     -0.06
   -1   11    9      1.13      0.41
   -1   11   10     -0.69     -1.20
   -1   11   11     -8.70      5.27
    0   11    0      0.68     -0.31
    0   11    1     -2.31     -0.06
    0   11    2      0.02     -0.01
    0   11    3     -1.96     -0.30
    0   11    4     -1.84     -0.11
    0   11    5     -2.44      0.07
    0   11    6      1.71     -0.09
    0   11    7      0.60     -0.13
    0   11    8    -11.18      0.04
    0   11    9     -1.69      0.02
   -6   12    0      0.05     -4.21
   -6   12    1      2.27     -0.43
   -6   12    2     -5.77      0.74
   -6   12    3      2.83      0.56
   -6   12    4      2.22      3.99
   -6   12    5      4.35      1.41
   -6   12    6     -0.63     -1.78
   -6   12    7     -0.16      3.36
   -6   12    8      6.62     -1.00
   -6   12    9     -3.74      0.16
   -6   12   10      0.94      0.99
   -6   12   11     -1.12      0.34
   -5   12    0     -2.34      2.40
   -5   12    1      1.55     -0.93
   -5   12    2     -0.41      0.01
   -5   12    3     -1.13     -0.30
   -5   12    4     -2.06      0.90
   -5   12    5      0.18      0.11
   -5   12    6      0.50     -1.15
   -5   12    7     -0.86     -2.04
   -5   12    8     -2.15     -6.15
   -5   12    9      3.12     -1.23
   -5   12   10     -2.18     -0.49
   -5   12   11      2.73      0.03
   -4   12    0      1.86      0.45
   -4   12    1     -2.70     -0.47
   -4   12    2      3.45      4.73
   -4   12    3     -0.45     -1.70
   -4   12    4     -1.01     -1.97
   -4   12    5     -1.64     -0.88
   -4   12    6      0.97      1.41
   -4   12    7      0.79      2.76
   -4   12    8     -3.61     -0.28
   -4   12    9     -0.09     -0.48
   -4   12   10     -0.73      0.13
   -4   12   11      1.84     -2.04
   -3   12    0      0.42      0.13
   -3   12    1      1.19      2.52
   -3   12    2     -0.75     -3.91
   -3   12    3      0.10      0.04
   -3   12    4      1.48     -0.24
   -3   12    5     -1.08      0.79
   -3   12    6     -2.45     -3.50
   -3   12    7      0.20      1.44
   -3   12    8      7.91      6.29
   -3   12    9     -1.30      0.46
   -3   12   10      2.61      1.50
   -2   12    0      2.54      2.24
   -2   12    1     -2.50      0.34
   -2   12    2      1.91      0.85
   -2   12    3      2.05     -3.40
   -2   12    4     -1.50     -0.98
   -2   12    5     -0.20     -1.39
   -2   12    6      0.64      1.40
   -2   12    7     -3.18     -0.58
   -2   12    8     -6.61      0.21
   -2   12    9      1.32      3.64
   -1   12    0     -1.77     -1.75
   -1   12    1     -2.43     -0.62
   -1   12    2     -2.60     -0.01
   -1   12    3     -2.60      3.71
   -1   12    4     -2.74      0.97
   -1   12    5     -0.67     -0.62
   -1   12    6      2.39      2.31
   -1   12    7     -0.69     -0.46
   -1   12    8      3.05     -1.94
    0   12    0      0.45      0.46
    0   12    1      4.54      0.16
    0   12    2      4.42      0.20
    0   12    3      4.49     -0.25
    0   12    4      5.41      0.65
    0   12    5      2.43     -0.38
   -6   13    0     -1.69      2.22
   -6   13    1      0.44     -1.44
   -6   13    2      1.92      2.38
   -6   13    3      0.76     -0.01
   -6   13    4     -3.04     -5.13
   -6   13    5     -1.53      0.74
   -6   13    6     -1.55     -2.73
   -6   13    7      1.27      1.81
   -6   13    8     -4.08     -0.26
   -6   13    9      1.81      2.91
   -5   13    0      0.80      2.97
   -5   13    1     -0.47     -1.63
   -5   13    2     -1.08     -1.31
   -5   13    3     -1.20     -4.55
   -5   13    4      7.24      6.96
   -5   13    5      1.30     -3.32
   -5   13    6     -1.00      6.77
   -5   13    7      3.49     -2.52
   -5   13    8     -0.15      9.40
   -4   13    0     -2.31     -2.24
   -4   13    1      2.03     -1.37
   -4   13    2     -2.03      1.10
   -4   13    3      0.25      1.60
   -4   13    4     -3.90      2.09
   -4   13    5      2.61      0.05
   -4   13    6     -2.52     -2.73
   -4   13    7      2.04     -2.22
   -4   13    8     -3.93     -5.43
   -3   13    0      0.37     -2.62
   -3   13    1     -0.29     -1.00
   -3   13    2      0.13      1.89
   -3   13    3     -2.04      2.01
   -3   13    4      0.47     -0.14
   -3   13    5      0.12      1.50
   -3   13    6      2.52      0.48
   -3   13    7      1.52      1.79
   -2   13    0      6.06     -1.83
   -2   13    1     -2.89      3.26
   -2   13    2      3.18     -3.77
   -2   13    3     -0.44      0.86
   -2   13    4      2.96     -2.16
   -2   13    5     -1.15      1.91
   -7   14    0      2.72      1.38
   -7   14    1     -2.35      3.55
   -7   14    2      2.34    -10.31
   -7   14    3     -1.88      5.86
   -7   14    4     11.41     -2.80
   -7   14    5     -0.54      6.59
   -6   14    0      4.46     -1.54
   -6   14    1     -2.88     -2.36
   -6   14    2      0.46      5.06
   -6   14    3     -3.78      0.35
   -6   14    4     -5.12      1.95
   -5   14    0     -2.99     -1.73
   -5   14    1      2.79      1.58
   -5   14    2      0.94     -1.28
   -5   14    3      3.93      1.61
   -5   14    4     -1.53     -3.84
   -4   14    0     -1.84      1.43
   -4   14    1      0.81      5.18
    0    1    0   -102.30      0.17
   -1   13    0     -1.98     -2.43
    0   13    0     -2.68     -0.47
   -3   14    0     -2.21      0.86
   -2   14    0     -0.84      1.52
   -1   14    0      0.97     -0.77
   -7   15    0      0.27     -2.39
   -6   15    0      0.74      2.81
   -5   15    0     -0.29     -2.74
   -4   15    0      0.41      1.27
    0    0    1    -59.79      0.14
    0    1    1    -15.49      0.29
    0    3    1    -34.41      0.03
   -1   13    1      0.68      2.46
    0   13    1     -0.50     -0.08
   -3   14    1      0.77     -2.74
   -2   14    1     -0.29     -0.27
   -1   14    1      1.53     -0.37
   -7   15    1     -1.92      0.64
   -6   15    1      0.16      1.86
   -5   15    1     -0.23     -2.25
   -4   15    1      1.30     -1.57
    0    0    2     47.07     -0.63
    0    1    2     13.07     -0.04
   -1   13    2     -2.68     -1.25
    0   13    2     -1.77      0.13
   -4   14    2     -1.91     -4.00
   -3   14    2      0.80      2.48
   -2   14    2      0.92     -0.38
   -1   14    2      0.92      0.68
   -7   15    2      2.44      0.78
   -6   15    2     -1.00     -2.99
   -5   15    2     -1.38      2.87
   -4   15    2     -1.01      0.21
    0    0    3   -111.62      0.41
   -1   13    3     -0.69     -1.19
    0   13    3     -1.18      0.11
   -4   14    3      1.24     -2.15
   -3   14    3     -0.39      0.13
   -2   14    3     -0.81      0.95
   -7   15    3     -1.31     -0.33
   -6   15    3      2.09     -0.70
   -5   15    3     -2.18      0.82
   -4   15    3      2.27     -0.51
   -1   13    4     -1.94     -0.62
    0   13    4     -1.04     -0.03
   -4   14    4      0.90     -2.50
   -3   14    4     -0.53      2.29
   -2   14    4      1.76     -0.32
   -7   15    4      0.33     -0.91
   -6   15    4      1.93     -0.56
   -5   15    4     -0.94      3.80
   -1   13    5      0.33     -0.40
    0   13    5     -2.12      0.14
   -6   14    5     -0.93     -1.12
   -5   14    5     -0.16     -0.80
   -4   14    5      0.37      1.47
   -3   14    5     -0.22     -3.06
   -2   14    5     -0.47      1.17
   -7   15    5     -1.83     -0.70
   -6   15    5      0.64      0.88
   -5   15    5     -0.20     -0.98
    0   12    6     -4.42      0.19
   -2   13    6     -0.09     -2.28
   -1   13    6      1.05     -0.89
    0   13    6      0.72     -0.08
   -7   14    6      3.45      1.17
   -6   14    6      1.17     -1.67
   -5   14    6     -1.09      1.44
   -4   14    6     -0.53     -0.28
   -3   14    6     -1.62      1.79
   -7   15    6      0.93     -0.68
   -6   15    6      0.01      0.13
    0   12    7      0.10      0.18
   -2   13    7     -0.05     -0.14
   -1   13    7      1.28      0.98
   -7   14    7     -3.84      0.07
   -6   14    7     -0.68     -1.89
   -5   14    7     -1.25     -0.29
   -4   14    7     -0.65      1.05
   -3   14    7      0.19     -2.13
    0   12    8      3.64      0.26
   -3   13    8      0.02     -2.87
   -2   13    8      1.68      1.62
   -1   13    8     -4.14     -0.09
   -7   14    8      4.45      1.85
   -6   14    8      2.27     -3.57
   -5   14    8     -1.09     -0.09
   -4   14    8      0.92      4.27
   -1   12    9     -1.72     -0.36
    0   12    9      3.08      0.07
   -5   13    9      0.32     -2.75
   -4   13    9      3.09     -1.48
   -3   13    9     -1.45     -2.00
   -2   13    9      1.84     -1.00
   -7   14    9     -5.71     -3.57
   -6   14    9      0.82     -0.43
   -5   14    9     -0.08      0.86
    0   11   10      3.05     -0.09
   -2   12   10      2.39     -0.87
   -1   12   10     -1.14     -0.42
    0   12   10     -1.35     -0.05
   -6   13   10      0.51     -0.54
   -5   13   10     -1.83      2.23
   -4   13   10     -0.54      1.86
   -3   13   10     -2.19      0.23
   -2   13   10     -1.79      0.10
   -7   14   10      0.43      1.21
   -6   14   10      1.19     -1.23
    0   11   11      1.14      0.11
   -3   12   11     -3.55      0.87
   -2   12   11      3.50     -1.23
   -1   12   11      2.18     -1.02
   -6   13   11     -0.93     -0.26
   -5   13   11      0.91     -0.70
   -4   13   11      0.79     -2.04
   -3   13   11     -0.84     -0.12
   -1   11   12     -0.39     -1.16
    0   11   12     -0.80      0.12
   -6   12   12      2.94     -3.43
   -5   12   12     -2.96      1.41
   -4   12   12      0.39      3.45
   -3   12   12     -1.86      0.80
   -2   12   12     -0.89     -2.72
   -6   13   12      0.22      0.34
   -5   13   12     -0.41     -0.12
    0   10   13      3.04     -0.04
   -3   11   13     -1.54      1.79
   -2   11   13     -0.57      0.47
   -1   11   13     -1.44      0.76
    0   11   13     -0.83      0.05
   -6   12   13     -3.37     -2.01
   -5   12   13      1.69      2.42
   -4   12   13      1.11      1.46
   -3   12   13      0.16     -1.89
   -1   10   14      1.77     -0.69
    0   10   14     -0.31      0.07
   -5   11   14     -0.03     -0.20
   -4   11   14      3.30      1.66
   -3   11   14     -1.41     -0.82
   -2   11   14      0.55     -1.36
   -1   11   14      1.09      0.31
   -6   12   14      1.60     -0.93
   -5   12   14     -1.10     -0.71
   -4   12   14     -0.35      0.34
    0    9   15     -1.81      0.32
   -4   10   15      2.22      3.12
   -3   10   15     -2.23     -0.50
   -2   10   15     -1.98     -1.02
   -1   10   15      2.22      0.18
    0   10   15     -1.21      0.04
   -5   11   15     -0.32      1.39
   -4   11   15     -1.56     -1.10
   -3   11   15      3.13     -0.19
   -2   11   15     -2.34     -0.83
   -2    9   16      3.22     -0.48
   -1    9   16     -2.22     -0.26
    0    9   16     -0.64     -0.12
   -5   10   16     -2.43      0.91
   -4   10   16      3.35     -0.14
   -3   10   16     -1.21     -0.08
   -2   10   16     -0.29      2.39
   -1   10   16      1.39     -0.82
   -5   11   16      0.08     -1.50
   -1    8   17     -0.92      0.46
    0    8   17     -2.52     -0.05
   -4    9   17      0.30      0.59
   -3    9   17     -0.15     -2.19
   -2    9   17      1.28      1.02
   -1    9   17      2.53      0.63
   -5   10   17     -0.88     -0.22
   -4   10   17      0.86      1.01
   -3   10   17     -0.12     -2.06
   -1    7   18     -0.83     -0.83
    0    7   18     -0.48     -0.06
   -4    8   18      2.04      1.37
   -3    8   18      2.36     -1.22
   -2    8   18      1.38     -0.68
   -1    8   18      1.42      0.89
    0    8   18     -2.08      0.04
   -4    9   18     -0.80     -1.10
   -3    9   18     -0.40      2.87
   -2    9   18     -1.34     -2.22
   -2    6   19      2.80     -0.54
   -1    6   19     -1.34     -1.22
    0    6   19     -3.58      0.28
   -3    7   19     -0.12     -1.70
   -2    7   19     -0.95     -0.58
   -1    7   19      3.65     -1.21
    0    7   19     -0.56     -0.09
   -4    8   19      0.42      1.18
   -3    8   19     -1.11     -1.38
   -2    8   19     -2.37     -0.11
    0    4   20     -2.90      0.47
   -2    5   20     -0.16      0.80
   -1    5   20     -0.48      0.43
    0    5   20      4.36     -0.27
   -3    6   20     -1.66     -2.47
   -2    6   20      1.64      1.38
   -1    6   20     -1.62      0.78
    0    6   20      0.42      0.13
   -3    7   20      0.04      0.07
   -2    7   20      0.20      1.41
    0    0   21     -2.10     -0.10
    0    1   21     -1.14      0.36
   -1    2   21      1.32     -2.94
    0    2   21      1.25      0.21
   -1    3   21      0.90     -0.56
    0    3   21     -1.77     -0.24
   -2    4   21      1.16     -0.53
   -1    4   21     -1.20     -0.69
    0    4   21      1.19      0.04
   -2    5   21      0.46      0.65
   -1    5   21     -0.14     -1.52
    0    5   21     -1.53     -0.44
    0    0    0      0.00      0.00
# SQUEEZE RESULTS (Version =  80818)
# Note: Data are Listed for all Voids in the P1 Unit Cell
# i.e. Centre of Gravity, Solvent Accessible Volume,
# Recovered number of Electrons in the Void and
# Details about the Squeezed Material
loop_
  _platon_squeeze_void_nr
  _platon_squeeze_void_average_x
  _platon_squeeze_void_average_y
  _platon_squeeze_void_average_z
  _platon_squeeze_void_volume
  _platon_squeeze_void_count_electrons
  _platon_squeeze_void_content
   1 -0.060 -0.050  0.494      1414       324 ' '
# Missing Reflections Below sin(th)/lambda = 0.25
loop_
  _platon_missing_refln_index_h
  _platon_missing_refln_index_k
  _platon_missing_refln_index_l
  _platon_missing_refln_theta
    0    1    0     1.960
    0    0    1     1.174
    0    1    1     2.285
    0    3    1     6.005
    0    0    2     2.349
    0    1    2     3.060
    0    0    3     3.525
_platon_squeeze_void_probe_radius                  1.20
_platon_squeeze_details
)
TITL gy1129-1 in P-62m; 130K; Xcalibur
CELL   11.9994   11.9994   17.3402     90.00     90.00    120.00
SPGR P-62m
# Solvent Accessible Volume =      1417
# Electrons Found in S.A.V. =       311
# Note: Atoms in Void are Labelled as Cxxx and Qxxx for all Others
C101 0.338 0.672 0.500 !       7.46 eA-3
C102 0.717 1.000 0.501 !       3.48 eA-3
C103 0.672 0.341 0.209 !       3.39 eA-3
C104 0.406 0.859 0.126 !       2.39 eA-3
C105 0.392 0.390 0.454 !       2.27 eA-3
C106 0.391 0.587 0.845 !       1.86 eA-3
C107 0.589 0.234 0.003 !       1.81 eA-3
C108 0.203 0.634 0.844 !       1.81 eA-3
C109 0.766 0.953 0.500 !       1.73 eA-3
C110 0.677 0.047 0.500 !       1.67 eA-3
C111 0.184 0.575 0.903 !       1.67 eA-3
C112 0.338 0.674 0.969 !       1.67 eA-3
C113 0.581 0.376 0.204 !       1.63 eA-3
C114 0.593 0.255 0.136 !       1.58 eA-3
C115 0.687 0.439 0.760 !       1.52 eA-3
C116 0.968 0.582 0.369 !       1.48 eA-3
C117 0.568 0.219 0.500 !       1.46 eA-3
C118 0.500 0.358 0.865 !       1.43 eA-3
C119 0.283 0.670 0.736 !       1.42 eA-3
C120 0.389 0.772 0.736 !       1.42 eA-3
C121 0.723 0.341 0.311 !       1.40 eA-3
C122 0.453 0.898 0.176 !       1.29 eA-3
C123 0.784 0.875 0.495 !       1.29 eA-3
C124 0.867 0.140 0.493 !       1.28 eA-3
C125 0.112 0.531 0.502 !       1.22 eA-3
C126 0.638 0.455 0.938 !       1.21 eA-3
C127 0.218 0.323 0.538 !       1.19 eA-3
C128 0.627 0.191 0.685 !       1.18 eA-3
C129 0.158 0.641 0.495 !       1.16 eA-3
C130 0.751 1.005 0.547 !       1.16 eA-3
C131 0.658 0.218 0.893 !       1.15 eA-3
Q132 0.431 0.843 0.974 !       1.14 eA-3
C133 0.655 1.005 0.594 !       1.12 eA-3
C134 1.001 0.471 0.435 !       1.11 eA-3
C135 0.051 0.716 0.543 !       1.09 eA-3
C136 0.205 0.672 0.752 !       1.05 eA-3
Q137 0.585 0.437 0.996 !       1.04 eA-3
C138 0.667 0.262 0.127 !       1.04 eA-3
C139 0.590 0.347 0.956 !       0.99 eA-3
C140 0.222 0.271 0.436 !       0.99 eA-3
C141 0.827 0.203 0.502 !       0.97 eA-3
Q142 0.682 0.160 0.942 !       0.97 eA-3
Q143 0.811 0.347 0.691 !       0.95 eA-3
Q144 0.113 0.314 0.438 !       0.95 eA-3
C145 0.074 0.362 0.473 !       0.94 eA-3
C146 0.998 0.344 0.505 !       0.93 eA-3
Q147 0.126 0.122 0.173 !       0.93 eA-3
Q148 1.000 0.527 0.326 !       0.90 eA-3
C149 0.549 0.192 0.434 !       0.90 eA-3
Q150 0.808 0.534 0.878 !       0.88 eA-3
Q151 1.000 1.005 0.422 !       0.87 eA-3
C152 0.643 0.374 0.938 !       0.86 eA-3
Q153 1.000 1.005 0.125 !       0.85 eA-3
C154 0.248 0.596 0.393 !       0.85 eA-3
C155 0.389 0.334 0.360 !       0.85 eA-3
C156 0.754 0.472 0.669 !       0.84 eA-3
C157 0.315 0.605 0.640 !       0.84 eA-3
Q158 0.873 0.656 0.653 !       0.84 eA-3
C159 1.000 0.875 0.501 !       0.82 eA-3
Q160 0.013 0.288 0.470 !       0.82 eA-3
Q161 0.889 0.485 0.922 !       0.82 eA-3
C162 0.486 0.761 0.533 !       0.82 eA-3
Q163 0.903 0.900 0.591 !       0.81 eA-3
C164 0.095 0.671 0.448 !       0.81 eA-3
Q165 0.891 0.900 0.860 !       0.80 eA-3
Q166 0.817 1.009 0.357 !       0.78 eA-3
C167 0.962 0.250 0.495 !       0.77 eA-3
C168 0.811 0.355 0.830 !       0.77 eA-3
C169 0.526 0.264 0.047 !       0.77 eA-3
Q170 1.000 0.996 0.781 !       0.76 eA-3
C171 0.828 0.827 0.500 !       0.76 eA-3
Q172 0.502 0.872 0.235 !       0.75 eA-3
Q173 0.690 0.526 0.868 !       0.73 eA-3
C174 0.860 0.544 0.675 !       0.71 eA-3
Q175 1.000 1.000 0.031 !       0.71 eA-3
Q176 0.084 0.594-0.003 !       0.71 eA-3
C177 0.205 0.453 0.503 !       0.70 eA-3
Q178 0.170 0.510 0.744 !       0.70 eA-3
C179 0.499 0.731 0.419 !       0.70 eA-3
Q180 0.441 0.389 0.107 !       0.70 eA-3
Q181 0.508 1.003 0.371 !       0.68 eA-3
Q182 0.391 0.898 0.921 !       0.66 eA-3
C183 0.844 0.517 0.575 !       0.66 eA-3
Q184 0.201 0.210 0.607 !       0.65 eA-3
C185 0.388 0.936 0.530 !       0.65 eA-3
Q186 0.263 0.786 0.272 !       0.64 eA-3
Q187 0.185 0.672-0.003 !       0.64 eA-3
C188 0.519 0.913 0.529 !       0.64 eA-3
C189 0.452 0.896 0.579 !       0.63 eA-3
Q190 0.079 1.002 0.469 !       0.62 eA-3
Q191 0.419 0.114 0.173 !       0.61 eA-3
Q192 1.001 0.392 0.808 !       0.59 eA-3
Q193 0.892 0.316 0.169 !       0.59 eA-3
Q194 0.997 0.594 0.006 !       0.59 eA-3
Q195 0.535 0.099 0.653 !       0.59 eA-3
Q196 0.873 0.868 0.701 !       0.59 eA-3
Q197 1.000 0.995 0.313 !       0.57 eA-3
Q198 0.801 0.244 0.656 !       0.56 eA-3
Q199 0.795 0.723 0.387 !       0.55 eA-3
)
;
_shelx_fab_checksum              27837
loop_
_space_group_symop_operation_xyz
'x, y, z'
'-y, x-y, z'
'-x+y, -x, z'
'x, y, -z'
'-y, x-y, -z'
'-x+y, -x, -z'
'y, x, -z'
'x-y, -y, -z'
'-x, -x+y, -z'
'y, x, z'
'x-y, -y, z'
'-x, -x+y, z'
loop_
_atom_site_label
_atom_site_type_symbol
_atom_site_fract_x
_atom_site_fract_y
_atom_site_fract_z
_atom_site_U_iso_or_equiv
_atom_site_adp_type
_atom_site_occupancy
_atom_site_site_symmetry_order
_atom_site_calc_flag
_atom_site_refinement_flags_posn
_atom_site_refinement_flags_adp
_atom_site_refinement_flags_occupancy
Re1 Re 0.87596(6) 0.87596(6) 0.78585(4) 0.0855(3) Uani 1 2 d S T P
Re2 Re 0.87764(6) 1.000000 0.90821(4) 0.0779(3) Uani 1 2 d S T P
S1 S 1.000000 1.000000 0.6778(4) 0.090(3) Uani 1 6 d S T P
S2 S 0.7714(5) 1.000000 0.7911(2) 0.111(2) Uani 1 2 d S T P
S3 S 0.7703(4) 0.7703(4) 0.9031(2) 0.1028(17) Uani 1 2 d S T P
Br1 Br 0.7060(2) 1.000000 1.000000 0.1395(15) Uani 1 4 d S T P
Br2 Br 0.7008(2) 0.7008(2) 0.70129(13) 0.1546(12) Uani 1 2 d S T P
C1 C 1.000000 1.000000 1.000000 0.074(12) Uani 1 12 d S T P
loop_
_atom_site_aniso_label
_atom_site_aniso_U_11
_atom_site_aniso_U_22
_atom_site_aniso_U_33
_atom_site_aniso_U_23
_atom_site_aniso_U_13
_atom_site_aniso_U_12
Re1 0.0826(4) 0.0826(4) 0.0785(5) -0.0052(4) -0.0052(4) 0.0316(5)
Re2 0.0715(4) 0.0882(6) 0.0796(5) 0.000 -0.0007(3) 0.0441(3)
S1 0.099(4) 0.099(4) 0.072(5) 0.000 0.000 0.0494(19)
S2 0.101(3) 0.169(7) 0.083(3) 0.000 -0.016(2) 0.085(3)
S3 0.086(2) 0.086(2) 0.086(3) -0.006(2) -0.006(2) 0.005(4)
Br1 0.1131(16) 0.243(5) 0.106(2) 0.000 0.000 0.121(3)
Br2 0.1415(14) 0.1415(14) 0.1063(17) -0.0188(12) -0.0188(12) 0.015(2)
C1 0.058(15) 0.058(15) 0.11(3) 0.000 0.000 0.029(7)
loop_
_atom_type_symbol
_atom_type_description
_atom_type_scat_dispersion_real
_atom_type_scat_dispersion_imag
_atom_type_scat_source
C C 0.0033 0.0016 'International Tables Vol C Tables 4.2.6.8 and 6.1.1.4'
H H 0.0000 0.0000 'International Tables Vol C Tables 4.2.6.8 and 6.1.1.4'
N N 0.0061 0.0033 'International Tables Vol C Tables 4.2.6.8 and 6.1.1.4'
S S 0.1246 0.1234 'International Tables Vol C Tables 4.2.6.8 and 6.1.1.4'
Br Br -0.2901 2.4595 'International Tables Vol C Tables 4.2.6.8 and 6.1.1.4'
Re Re -1.0185 7.2310 'International Tables Vol C Tables 4.2.6.8 and 6.1.1.4'
loop_
_geom_angle_atom_site_label_1
_geom_angle_atom_site_label_2
_geom_angle_atom_site_label_3
_geom_angle
_geom_angle_site_symmetry_1
_geom_angle_site_symmetry_3
Re1 Re1 Re1 60.0 3_675 2_765
Re1 Re1 Re2 60.102(17) 2_765 2_765
Re1 Re1 Re2 60.103(17) 3_675 .
Re1 Re1 Re2 89.61(2) 3_675 2_765
Re1 Re1 Re2 89.62(2) 2_765 .
Re2 Re1 Re2 58.91(3) 2_765 .
S1 Re1 Re1 57.40(9) . 2_765
S1 Re1 Re1 57.40(9) . 3_675
S1 Re1 Re2 117.44(10) . 2_765
S1 Re1 Re2 117.45(10) . .
S1 Re1 S3 173.47(15) . .
S1 Re1 Br2 93.57(12) . .
S2 Re1 Re1 57.21(7) . 3_675
S2 Re1 Re1 57.21(7) 2_765 2_765
S2 Re1 Re1 117.16(7) . 2_765
S2 Re1 Re1 117.16(7) 2_765 3_675
S2 Re1 Re2 57.54(9) . .
S2 Re1 Re2 57.54(9) 2_765 2_765
S2 Re1 Re2 116.41(9) . 2_765
S2 Re1 Re2 116.41(9) 2_765 .
S2 Re1 S1 89.98(9) . .
S2 Re1 S1 89.98(9) 2_765 .
S2 Re1 S2 172.84(16) . 2_765
S2 Re1 S3 89.62(10) . .
S2 Re1 S3 89.62(10) 2_765 .
S2 Re1 Br2 93.57(8) . .
S2 Re1 Br2 93.57(8) 2_765 .
S3 Re1 Re1 117.27(9) . 2_765
S3 Re1 Re1 117.27(9) . 3_675
S3 Re1 Re2 57.18(9) . .
S3 Re1 Re2 57.18(9) . 2_765
S3 Re1 Br2 92.96(12) . .
Br2 Re1 Re1 135.26(4) . 2_765
Br2 Re1 Re1 135.26(4) . 3_675
Br2 Re1 Re2 135.12(5) . .
Br2 Re1 Re2 135.12(5) . 2_765
Re1 Re2 Re1 59.80(3) . 3_675
Re1 Re2 Re2 145.129(15) . 4_557
Re1 Re2 Re2 145.130(15) 3_675 4_557
Re1 Re2 Br1 136.33(4) . .
Re1 Re2 Br1 136.33(4) 3_675 .
Re2 Re2 Re1 60.545(17) 2_765 .
Re2 Re2 Re1 60.545(17) 3_675 3_675
Re2 Re2 Re1 90.38(2) 2_765 3_675
Re2 Re2 Re1 90.38(2) 3_675 .
Re2 Re2 Re2 60.0 3_675 2_765
Re2 Re2 Re2 90.0 2_765 4_557
Re2 Re2 Re2 90.0 3_675 4_557
Re2 Re2 Br1 133.25(3) 2_765 .
Re2 Re2 Br1 133.25(3) 3_675 .
S2 Re2 Re1 56.91(10) . .
S2 Re2 Re1 56.91(11) . 3_675
S2 Re2 Re2 117.42(11) . 2_765
S2 Re2 Re2 117.42(11) . 3_675
S2 Re2 Re2 147.88(13) . 4_557
S2 Re2 Br1 95.58(14) . .
S3 Re2 Re1 57.41(10) . .
S3 Re2 Re1 57.41(10) 3_675 3_675
S3 Re2 Re1 117.18(10) . 3_675
S3 Re2 Re1 117.18(10) 3_675 .
S3 Re2 Re2 57.86(6) . 2_765
S3 Re2 Re2 57.86(6) 3_675 3_675
S3 Re2 Re2 92.12(10) . 4_557
S3 Re2 Re2 92.12(10) 3_675 4_557
S3 Re2 Re2 117.81(6) . 3_675
S3 Re2 Re2 117.81(6) 3_675 2_765
S3 Re2 S2 89.36(9) . .
S3 Re2 S2 89.36(9) 3_675 .
S3 Re2 S3 173.94(18) . 3_675
S3 Re2 Br1 93.01(8) . .
S3 Re2 Br1 93.01(8) 3_675 .
Br1 Re2 Re2 52.30(4) . 4_557
C1 Re2 Re1 114.41(3) . .
C1 Re2 Re1 114.41(3) . 3_675
C1 Re2 Re2 42.690(18) . 4_557
C1 Re2 Re2 54.043(14) . 2_765
C1 Re2 Re2 54.043(14) . 3_675
C1 Re2 S2 169.43(13) . .
C1 Re2 S3 90.09(8) . .
C1 Re2 S3 90.09(8) . 3_675
C1 Re2 Br1 94.99(5) . .
Re1 S1 Re1 65.20(18) 2_765 .
Re1 S1 Re1 65.20(18) 3_675 .
Re1 S1 Re1 65.20(18) 3_675 2_765
Re1 S2 Re1 65.58(15) . 3_675
Re1 S2 Re2 65.55(12) . .
Re1 S2 Re2 65.55(12) 3_675 .
Re2 S3 Re1 65.41(12) . .
Re2 S3 Re1 65.41(12) 2_765 .
Re2 S3 Re2 64.29(13) 2_765 .
Re2 Br1 Re2 75.40(9) . 4_557
Re2 C1 Re2 71.91(3) . 2_765
Re2 C1 Re2 71.91(3) 2_765 3_675
Re2 C1 Re2 71.91(3) 4_557 5_767
Re2 C1 Re2 71.91(3) 6_677 4_557
Re2 C1 Re2 71.91(3) 6_677 5_767
Re2 C1 Re2 71.92(3) . 3_675
Re2 C1 Re2 94.62(4) . 4_557
Re2 C1 Re2 94.62(4) 2_765 5_767
Re2 C1 Re2 94.62(4) 6_677 3_675
Re2 C1 Re2 140.367(14) . 6_677
Re2 C1 Re2 140.367(14) 3_675 4_557
Re2 C1 Re2 140.367(14) 3_675 5_767
Re2 C1 Re2 140.367(14) 6_677 2_765
Re2 C1 Re2 140.367(15) . 5_767
Re2 C1 Re2 140.367(15) 2_765 4_557
loop_
_geom_bond_atom_site_label_1
_geom_bond_atom_site_label_2
_geom_bond_distance
_geom_bond_site_symmetry_2
_geom_bond_publ_flag
Re1 Re1 2.5780(12) 2_765 yes
Re1 Re1 2.5780(12) 3_675 ?
Re1 Re2 2.5859(8) . yes
Re1 Re2 2.5859(8) 2_765 ?
Re1 S1 2.393(6) . yes
Re1 S2 2.380(5) . yes
Re1 S2 2.380(5) 2_765 ?
Re1 S3 2.396(5) . yes
Re1 Br2 2.563(2) . yes
Re2 Re2 2.5431(12) 2_765 yes
Re2 Re2 2.5431(12) 3_675 ?
Re2 Re2 3.1835(14) 4_557 yes
Re2 S2 2.397(4) . yes
Re2 S3 2.390(4) . yes
Re2 S3 2.390(4) 3_675 ?
Re2 Br1 2.603(2) . yes
Re2 C1 2.1655(7) . yes
