#------------------------------------------------------------------------------
#$Date: 2019-11-08 00:48:28 +0200 (Fri, 08 Nov 2019) $
#$Revision: 224334 $
#$URL: file:///home/coder/svn-repositories/cod/cif/7/70/03/7700345.cif $
#------------------------------------------------------------------------------
#
# This file is available in the Crystallography Open Database (COD),
# http://www.crystallography.net/
#
# All data on this site have been placed in the public domain by the
# contributors.
#
data_7700345
loop_
_publ_author_name
'Liu, Xiangyu'
'Ma, Xiufang'
'Yang, Jinhui'
'Luo, Shuchang'
'Wang, Zheng'
'Ferrando-Soria, Jes\'us'
'Ma, Yulong'
'Shi, Quan'
'Pardo, Emilio'
_publ_section_title
;
 Solvent-induced single-crystal-to-single-crystal transformation and
 tunable magnetic properties of 1D azido-Cu(ii) chains with a carboxylate
 bridge.
;
_journal_issue                   30
_journal_name_full
'Dalton transactions (Cambridge, England : 2003)'
_journal_page_first              11268
_journal_page_last               11277
_journal_paper_doi               10.1039/c9dt02031d
_journal_volume                  48
_journal_year                    2019
_chemical_formula_sum            'C7 H4 Cu N6 O2'
_chemical_formula_weight         267.70
_space_group_crystal_system      triclinic
_space_group_IT_number           2
_space_group_name_Hall           '-P 1'
_space_group_name_H-M_alt        'P -1'
_symmetry_space_group_name_Hall  '-P 1'
_symmetry_space_group_name_H-M   'P -1'
_atom_sites_solution_hydrogens   geom
_audit_creation_method           SHELXL-2018/1
_audit_update_record
;
2019-02-26 deposited with the CCDC.    2019-06-24 downloaded from the CCDC.
;
_cell_angle_alpha                100.558(7)
_cell_angle_beta                 97.836(9)
_cell_angle_gamma                101.571(9)
_cell_formula_units_Z            2
_cell_length_a                   6.905(4)
_cell_length_b                   7.141(4)
_cell_length_c                   9.596(5)
_cell_measurement_reflns_used    763
_cell_measurement_temperature    296(2)
_cell_measurement_theta_max      24.93
_cell_measurement_theta_min      2.98
_cell_volume                     448.3(4)
_computing_cell_refinement       'Bruker SAINT'
_computing_data_collection       'Bruker APEX2'
_computing_data_reduction        'Bruker SAINT'
_computing_molecular_graphics    'Bruker SHELXTL'
_computing_publication_material  'Bruker SHELXTL'
_computing_structure_refinement  'SHELXL-2018/1 (Sheldrick, 2018)'
_computing_structure_solution    'SHELXS-97 (Sheldrick, 2008)'
_diffrn_ambient_temperature      296(2)
_diffrn_measured_fraction_theta_full 0.976
_diffrn_measured_fraction_theta_max 0.976
_diffrn_measurement_device_type  'Bruker APEX-II CCD'
_diffrn_measurement_method       '\f and \w scans'
_diffrn_radiation_type           MoK\a
_diffrn_radiation_wavelength     0.71073
_diffrn_reflns_av_R_equivalents  0.0207
_diffrn_reflns_av_unetI/netI     0.0505
_diffrn_reflns_Laue_measured_fraction_full 0.976
_diffrn_reflns_Laue_measured_fraction_max 0.976
_diffrn_reflns_limit_h_max       8
_diffrn_reflns_limit_h_min       -5
_diffrn_reflns_limit_k_max       8
_diffrn_reflns_limit_k_min       -8
_diffrn_reflns_limit_l_max       10
_diffrn_reflns_limit_l_min       -11
_diffrn_reflns_number            2295
_diffrn_reflns_point_group_measured_fraction_full 0.976
_diffrn_reflns_point_group_measured_fraction_max 0.976
_diffrn_reflns_theta_full        25.242
_diffrn_reflns_theta_max         25.345
_diffrn_reflns_theta_min         2.195
_exptl_absorpt_coefficient_mu    2.429
_exptl_absorpt_correction_type   multi-scan
_exptl_absorpt_process_details   sadabs
_exptl_crystal_colour            green
_exptl_crystal_density_diffrn    1.983
_exptl_crystal_description       bulk
_exptl_crystal_F_000             266
_exptl_crystal_size_max          0.380
_exptl_crystal_size_mid          0.320
_exptl_crystal_size_min          0.200
_exptl_transmission_factor_max   0.7455
_exptl_transmission_factor_min   0.6376
_refine_diff_density_max         1.350
_refine_diff_density_min         -1.240
_refine_diff_density_rms         0.273
_refine_ls_extinction_method     none
_refine_ls_goodness_of_fit_ref   1.119
_refine_ls_hydrogen_treatment    constr
_refine_ls_matrix_type           full
_refine_ls_number_parameters     148
_refine_ls_number_reflns         1611
_refine_ls_number_restraints     0
_refine_ls_restrained_S_all      1.119
_refine_ls_R_factor_all          0.0846
_refine_ls_R_factor_gt           0.0610
_refine_ls_shift/su_max          0.000
_refine_ls_shift/su_mean         0.000
_refine_ls_structure_factor_coef Fsqd
_refine_ls_weighting_details
'w=1/[\s^2^(Fo^2^)+(0.1465P)^2^] where P=(Fo^2^+2Fc^2^)/3'
_refine_ls_weighting_scheme      calc
_refine_ls_wR_factor_gt          0.1955
_refine_ls_wR_factor_ref         0.2210
_reflns_Friedel_coverage         0.000
_reflns_number_gt                1167
_reflns_number_total             1611
_reflns_threshold_expression     'I > 2\s(I)'
_cod_data_source_file            c9dt02031d2.cif
_cod_data_source_block           xb8008_0m
_cod_depositor_comments
'Adding full bibliography for 7700345--7700347.cif.'
_cod_database_code               7700345
_shelx_shelxl_version_number     2018/1
_shelx_space_group_comment
; 
The symmetry employed for this shelxl refinement is uniquely defined 
by the following loop, which should always be used as a source of 
symmetry information in preference to the above space-group names. 
They are only intended as comments. 
;
_shelx_estimated_absorpt_t_min   0.459
_shelx_estimated_absorpt_t_max   0.642
_shelx_res_file
; 
TITL xb8008_0m in P-1 
    xb8008_0m.res 
    created by SHELXL-2018/1 at 16:41:41 on 10-Mar-2018 
CELL 0.71073   6.9052   7.1414   9.5958 100.558  97.836 101.571 
ZERR    2.00   0.0036   0.0036   0.0048   0.007   0.009   0.009 
LATT 1 
SFAC C  H  N  O  Cu 
UNIT 14  8  12  4  2 
LIST 4 ! automatically inserted. Change 6 to 4 for CHECKCIF!! 
shel 999 0.83 
L.S. 10 
ACTA 
BOND $H 
FMAP 2 
PLAN 20 
htab 
size 0.20 0.32 0.38 
conf 
TEMP 23.000 
WGHT    0.146500 
FVAR       0.24718 
CU1   5    0.500000    1.000000    0.500000    10.50000    0.03690    0.01340 = 
         0.01787    0.00289   -0.00252    0.00533 
CU2   5    0.500000    0.500000    0.500000    10.50000    0.04468    0.01401 = 
         0.01729    0.00143   -0.00116    0.00726 
O1    4    0.360877    1.037951    0.318040    11.00000    0.04793    0.02071 = 
         0.02045    0.00693   -0.00288    0.00607 
O2    4    0.456859    1.352529    0.302772    11.00000    0.06837    0.01774 = 
         0.02155    0.00402    0.00001    0.00710 
N1    3    0.399298    0.713378    0.425655    11.00000    0.04687    0.01604 = 
         0.02215    0.00330   -0.00580    0.00589 
N2    3    0.261072    0.652699    0.321798    11.00000    0.04715    0.01686 = 
         0.02888    0.00622    0.00455    0.00555 
N3    3    0.129624    0.595531    0.225894    11.00000    0.05200    0.03238 = 
         0.04450    0.00302   -0.01279    0.00024 
N4    3    0.142082    0.976322   -0.362734    11.00000    0.05699    0.02944 = 
         0.02083    0.00558   -0.01030   -0.00293 
N5    3    0.023012    0.814890   -0.419526    11.00000    0.04425    0.03546 = 
         0.03164    0.01534    0.00112    0.00701 
N6    3   -0.084860    0.676731   -0.485635    11.00000    0.04834    0.03587 = 
         0.04150    0.00703   -0.00541   -0.00414 
C3    1    0.314382    1.119362    0.089878    11.00000    0.03020    0.01688 = 
         0.02325    0.00315    0.00088    0.00425 
C6    1    0.384978    1.173960    0.248341    11.00000    0.03208    0.01701 = 
         0.02241    0.00252    0.00137    0.00924 
C8    1    0.199932    1.017820   -0.209196    11.00000    0.03296    0.03130 = 
         0.01510    0.00360    0.00213    0.00753 
C10   1    0.282658    1.211817   -0.142127    11.00000    0.04210    0.02505 = 
         0.02706    0.00910    0.00152    0.00270 
AFIX  43 
H10   2    0.302373    1.307228   -0.196299    11.00000   -1.20000 
AFIX   0 
C11   1    0.176479    0.871542   -0.130465    11.00000    0.03478    0.02685 = 
         0.02487    0.00052   -0.00055   -0.00159 
AFIX  43 
H11   2    0.123634    0.741296   -0.176998    11.00000   -1.20000 
AFIX   0 
C12   1    0.233277    0.923251    0.018710    11.00000    0.04104    0.02303 = 
         0.03161    0.01096   -0.00036    0.00389 
AFIX  43 
H12   2    0.217323    0.826615    0.072065    11.00000   -1.20000 
AFIX   0 
C13   1    0.336098    1.262476    0.007704    11.00000    0.04346    0.02062 = 
         0.02896    0.00325    0.00080    0.00146 
AFIX  43 
H13   2    0.386877    1.393256    0.053585    11.00000   -1.20000 
AFIX   0 
HKLF 4 
  
  
  
  
REM  xb8008_0m in P-1 
REM R1 =  0.0610 for    1167 Fo > 4sig(Fo)  and  0.0846 for all    1611 data 
REM    148 parameters refined using      0 restraints 
  
END 
  
WGHT      0.1533      0.0000 
  
REM Instructions for potential hydrogen bonds 
EQIV $5 -x, -y+1, -z 
HTAB C11 N3_$5 
  
REM Highest difference peak  1.350,  deepest hole -1.240,  1-sigma level  0.273 
Q1    1   0.0873  0.7836 -0.0416  11.00000  0.05    1.35 
Q2    1   0.0671  1.2688 -0.0470  11.00000  0.05    1.33 
Q3    1   0.3884  1.4421 -0.1365  11.00000  0.05    1.29 
Q4    1   0.3607  0.9393  0.2317  11.00000  0.05    1.28 
Q5    1   0.1961  0.8637 -0.0442  11.00000  0.05    1.27 
Q6    1   0.1985  1.3605 -0.0399  11.00000  0.05    1.26 
Q7    1   0.3372  1.4193  0.2267  11.00000  0.05    1.25 
Q8    1  -0.0656  0.7150 -0.3196  11.00000  0.05    1.21 
Q9    1   0.3660  0.9265 -0.1384  11.00000  0.05    1.15 
Q10   1   0.2261  0.8599 -0.4067  11.00000  0.05    1.01 
Q11   1   0.0628  0.7792  0.3195  11.00000  0.05    1.00 
Q12   1   0.3324  1.0761  0.0615  11.00000  0.05    0.94 
Q13   1   0.2355  0.8561  0.2221  11.00000  0.05    0.90 
Q14   1  -0.2242  0.6393 -0.5950  11.00000  0.05    0.85 
Q15   1   0.3869  1.2843  0.0291  11.00000  0.05    0.83 
Q16   1   0.2970  1.2251 -0.0820  11.00000  0.05    0.75 
Q17   1   0.3683  0.7795  0.0291  11.00000  0.05    0.74 
Q18   1   0.3285  1.1971  0.0380  11.00000  0.05    0.67 
Q19   1  -0.0463  0.7219  0.3097  11.00000  0.05    0.64 
Q20   1   0.3908  1.1553  0.1622  11.00000  0.05    0.60 
;
_shelx_res_checksum              69236
loop_
_space_group_symop_operation_xyz
'x, y, z'
'-x, -y, -z'
loop_
_atom_site_label
_atom_site_type_symbol
_atom_site_fract_x
_atom_site_fract_y
_atom_site_fract_z
_atom_site_U_iso_or_equiv
_atom_site_adp_type
_atom_site_occupancy
_atom_site_site_symmetry_order
_atom_site_calc_flag
_atom_site_refinement_flags_posn
_atom_site_refinement_flags_adp
_atom_site_refinement_flags_occupancy
Cu1 Cu 0.500000 1.000000 0.500000 0.0236(4) Uani 1 2 d S . P
Cu2 Cu 0.500000 0.500000 0.500000 0.0262(5) Uani 1 2 d S . P
O1 O 0.3609(8) 1.0380(7) 0.3180(5) 0.0305(13) Uani 1 1 d . . .
O2 O 0.4569(10) 1.3525(7) 0.3028(5) 0.0371(14) Uani 1 1 d . . .
N1 N 0.3993(10) 0.7134(9) 0.4257(6) 0.0298(15) Uani 1 1 d . . .
N2 N 0.2611(11) 0.6527(9) 0.3218(7) 0.0313(15) Uani 1 1 d . . .
N3 N 0.1296(12) 0.5955(10) 0.2259(8) 0.047(2) Uani 1 1 d . . .
N4 N 0.1421(12) 0.9763(9) -0.3627(7) 0.0393(18) Uani 1 1 d . . .
N5 N 0.0230(11) 0.8149(10) -0.4195(7) 0.0369(17) Uani 1 1 d . . .
N6 N -0.0849(12) 0.6767(11) -0.4856(8) 0.045(2) Uani 1 1 d . . .
C3 C 0.3144(11) 1.1194(10) 0.0899(7) 0.0242(15) Uani 1 1 d . . .
C6 C 0.3850(11) 1.1740(10) 0.2483(7) 0.0239(16) Uani 1 1 d . . .
C8 C 0.1999(11) 1.0178(11) -0.2092(7) 0.0268(16) Uani 1 1 d . . .
C10 C 0.2827(12) 1.2118(11) -0.1421(8) 0.0321(18) Uani 1 1 d . . .
H10 H 0.302373 1.307228 -0.196299 0.039 Uiso 1 1 calc R U .
C11 C 0.1765(12) 0.8715(11) -0.1305(8) 0.0314(18) Uani 1 1 d . . .
H11 H 0.123634 0.741296 -0.176998 0.038 Uiso 1 1 calc R U .
C12 C 0.2333(12) 0.9233(11) 0.0187(8) 0.0324(18) Uani 1 1 d . . .
H12 H 0.217323 0.826615 0.072065 0.039 Uiso 1 1 calc R U .
C13 C 0.3361(12) 1.2625(11) 0.0077(8) 0.0327(19) Uani 1 1 d . . .
H13 H 0.386877 1.393256 0.053585 0.039 Uiso 1 1 calc R U .
loop_
_atom_site_aniso_label
_atom_site_aniso_U_11
_atom_site_aniso_U_22
_atom_site_aniso_U_33
_atom_site_aniso_U_23
_atom_site_aniso_U_13
_atom_site_aniso_U_12
Cu1 0.0369(8) 0.0134(6) 0.0179(7) 0.0029(5) -0.0025(5) 0.0053(5)
Cu2 0.0447(9) 0.0140(7) 0.0173(7) 0.0014(5) -0.0012(6) 0.0073(6)
O1 0.048(3) 0.021(3) 0.020(3) 0.007(2) -0.003(2) 0.006(2)
O2 0.068(4) 0.018(3) 0.022(3) 0.004(2) 0.000(3) 0.007(3)
N1 0.047(4) 0.016(3) 0.022(3) 0.003(2) -0.006(3) 0.006(3)
N2 0.047(4) 0.017(3) 0.029(4) 0.006(3) 0.005(3) 0.006(3)
N3 0.052(5) 0.032(4) 0.045(4) 0.003(3) -0.013(4) 0.000(4)
N4 0.057(5) 0.029(4) 0.021(3) 0.006(3) -0.010(3) -0.003(3)
N5 0.044(4) 0.035(4) 0.032(4) 0.015(3) 0.001(3) 0.007(3)
N6 0.048(5) 0.036(4) 0.041(4) 0.007(3) -0.005(4) -0.004(4)
C3 0.030(4) 0.017(3) 0.023(4) 0.003(3) 0.001(3) 0.004(3)
C6 0.032(4) 0.017(3) 0.022(4) 0.003(3) 0.001(3) 0.009(3)
C8 0.033(4) 0.031(4) 0.015(3) 0.004(3) 0.002(3) 0.008(3)
C10 0.042(4) 0.025(4) 0.027(4) 0.009(3) 0.002(3) 0.003(3)
C11 0.035(4) 0.027(4) 0.025(4) 0.001(3) -0.001(3) -0.002(3)
C12 0.041(5) 0.023(4) 0.032(4) 0.011(3) 0.000(4) 0.004(3)
C13 0.043(5) 0.021(4) 0.029(4) 0.003(3) 0.001(4) 0.001(3)
loop_
_atom_type_symbol
_atom_type_description
_atom_type_scat_dispersion_real
_atom_type_scat_dispersion_imag
_atom_type_scat_source
C C 0.0033 0.0016 'International Tables Vol C Tables 4.2.6.8 and 6.1.1.4'
H H 0.0000 0.0000 'International Tables Vol C Tables 4.2.6.8 and 6.1.1.4'
N N 0.0061 0.0033 'International Tables Vol C Tables 4.2.6.8 and 6.1.1.4'
O O 0.0106 0.0060 'International Tables Vol C Tables 4.2.6.8 and 6.1.1.4'
Cu Cu 0.3201 1.2651 'International Tables Vol C Tables 4.2.6.8 and 6.1.1.4'
loop_
_geom_angle_atom_site_label_1
_geom_angle_atom_site_label_2
_geom_angle_atom_site_label_3
_geom_angle
_geom_angle_site_symmetry_1
_geom_angle_site_symmetry_3
O1 Cu1 O1 180.0(3) 2_676 .
O1 Cu1 N1 88.2(2) 2_676 2_676
O1 Cu1 N1 91.8(2) . 2_676
O1 Cu1 N1 91.8(2) 2_676 .
O1 Cu1 N1 88.2(2) . .
N1 Cu1 N1 180.0 2_676 .
O2 Cu2 O2 180.0 2_676 1_545
O2 Cu2 N1 91.2(2) 2_676 .
O2 Cu2 N1 88.8(2) 1_545 .
O2 Cu2 N1 88.8(2) 2_676 2_666
O2 Cu2 N1 91.2(2) 1_545 2_666
N1 Cu2 N1 180.0 . 2_666
C6 O1 Cu1 134.2(5) . .
C6 O2 Cu2 131.2(5) . 1_565
N2 N1 Cu1 119.3(5) . .
N2 N1 Cu2 113.5(5) . .
Cu1 N1 Cu2 127.2(3) . .
N3 N2 N1 179.0(9) . .
N5 N4 C8 116.3(7) . .
N6 N5 N4 171.8(7) . .
C13 C3 C12 118.6(7) . .
C13 C3 C6 120.2(6) . .
C12 C3 C6 121.1(6) . .
O2 C6 O1 125.5(7) . .
O2 C6 C3 116.8(6) . .
O1 C6 C3 117.7(6) . .
C10 C8 C11 121.3(6) . .
C10 C8 N4 116.5(7) . .
C11 C8 N4 122.2(6) . .
C8 C10 C13 119.2(7) . .
C8 C10 H10 120.4 . .
C13 C10 H10 120.4 . .
C12 C11 C8 119.0(7) . .
C12 C11 H11 120.5 . .
C8 C11 H11 120.5 . .
C11 C12 C3 120.9(7) . .
C11 C12 H12 119.5 . .
C3 C12 H12 119.5 . .
C10 C13 C3 120.9(7) . .
C10 C13 H13 119.5 . .
C3 C13 H13 119.5 . .
loop_
_geom_bond_atom_site_label_1
_geom_bond_atom_site_label_2
_geom_bond_distance
_geom_bond_site_symmetry_2
Cu1 O1 1.966(5) 2_676
Cu1 O1 1.966(5) .
Cu1 N1 1.985(6) 2_676
Cu1 N1 1.985(6) .
Cu2 O2 1.942(5) 2_676
Cu2 O2 1.942(5) 1_545
Cu2 N1 2.001(6) .
Cu2 N1 2.001(6) 2_666
O1 C6 1.274(9) .
O2 C6 1.256(9) .
N1 N2 1.228(9) .
N2 N3 1.150(9) .
N4 N5 1.253(9) .
N4 C8 1.432(9) .
N5 N6 1.130(9) .
C3 C13 1.398(10) .
C3 C12 1.404(10) .
C3 C6 1.485(9) .
C8 C10 1.384(10) .
C8 C11 1.394(10) .
C10 C13 1.395(10) .
C10 H10 0.9300 .
C11 C12 1.391(10) .
C11 H11 0.9300 .
C12 H12 0.9300 .
C13 H13 0.9300 .
loop_
_geom_torsion_atom_site_label_1
_geom_torsion_atom_site_label_2
_geom_torsion_atom_site_label_3
_geom_torsion_atom_site_label_4
_geom_torsion
_geom_torsion_site_symmetry_1
Cu2 O2 C6 O1 -15.8(13) 1_565
Cu2 O2 C6 C3 161.4(5) 1_565
Cu1 O1 C6 O2 -29.3(13) .
Cu1 O1 C6 C3 153.5(5) .
C13 C3 C6 O2 2.3(11) .
C12 C3 C6 O2 179.4(7) .
C13 C3 C6 O1 179.8(7) .
C12 C3 C6 O1 -3.1(11) .
N5 N4 C8 C10 -162.3(8) .
N5 N4 C8 C11 18.2(12) .
C11 C8 C10 C13 -2.6(12) .
N4 C8 C10 C13 178.0(8) .
C10 C8 C11 C12 1.5(13) .
N4 C8 C11 C12 -179.0(8) .
C8 C11 C12 C3 -0.4(13) .
C13 C3 C12 C11 0.3(12) .
C6 C3 C12 C11 -176.8(7) .
C8 C10 C13 C3 2.5(13) .
C12 C3 C13 C10 -1.4(12) .
C6 C3 C13 C10 175.8(7) .
