#------------------------------------------------------------------------------
#$Date: 2019-11-07 23:17:55 +0200 (Thu, 07 Nov 2019) $
#$Revision: 223982 $
#$URL: file:///home/coder/svn-repositories/cod/cif/7/70/06/7700619.cif $
#------------------------------------------------------------------------------
#
# This file is available in the Crystallography Open Database (COD),
# http://www.crystallography.net/
#
# All data on this site have been placed in the public domain by the
# contributors.
#
data_7700619
loop_
_publ_author_name
'Gayfulin, Yakov M.'
'Brylev, Konstantin A.'
'Ryzhikov, Maxim R.'
'Samsonenko, Denis G.'
'Kitamura, Noboru'
'Mironov, Yuri V.'
_publ_section_title
;
 Luminescent twelve-nuclear rhenium clusters.
;
_journal_issue                   33
_journal_name_full
'Dalton transactions (Cambridge, England : 2003)'
_journal_page_first              12522
_journal_page_last               12530
_journal_paper_doi               10.1039/c9dt02352f
_journal_volume                  48
_journal_year                    2019
_chemical_absolute_configuration unk
_chemical_formula_sum            'C41 H100 Br3 Cl6 N5 Re12 S14'
_chemical_formula_weight         3798.92
_space_group_crystal_system      hexagonal
_space_group_IT_number           190
_space_group_name_Hall           'P -6c -2c'
_space_group_name_H-M_alt        'P -6 2 c'
_symmetry_space_group_name_Hall  'P -6c -2c'
_symmetry_space_group_name_H-M   'P -6 2 c'
_atom_sites_solution_primary     dual
_atom_sites_solution_secondary   difmap
_audit_creation_method           SHELXL-2018/3
_audit_update_record
;
2019-05-27 deposited with the CCDC.    2019-07-22 downloaded from the CCDC.
;
_cell_angle_alpha                90
_cell_angle_beta                 90
_cell_angle_gamma                120
_cell_formula_units_Z            2
_cell_length_a                   11.5764(6)
_cell_length_b                   11.5764(6)
_cell_length_c                   32.670(3)
_cell_measurement_reflns_used    1797
_cell_measurement_temperature    130(2)
_cell_measurement_theta_max      26.73
_cell_measurement_theta_min      4.23
_cell_volume                     3791.6(4)
_computing_cell_refinement       'CrysAlisPro 1.171.38.46 (Rigaku OD, 2015)'
_computing_data_collection       'CrysAlisPro 1.171.38.46 (Rigaku OD, 2015)'
_computing_data_reduction        'CrysAlisPro 1.171.38.46 (Rigaku OD, 2015)'
_computing_molecular_graphics    'ShelXle (H\"ubschle, 2011)'
_computing_publication_material  'CIFTAB (Sheldrick, 2015)'
_computing_structure_refinement  'SHELXL-2018 (Sheldrick, 2015)'
_computing_structure_solution    'SHELXT-2018 (Sheldrick, 2015)'
_diffrn_ambient_temperature      130(2)
_diffrn_detector                 'CCD plate'
_diffrn_detector_area_resol_mean 10.6168
_diffrn_detector_type            AtlasS2
_diffrn_measured_fraction_theta_full 0.988
_diffrn_measured_fraction_theta_max 0.988
_diffrn_measurement_device       'four-circle diffractometer'
_diffrn_measurement_device_type  'New Xcalibur, AtlasS2'
_diffrn_measurement_method       '\w scans'
_diffrn_radiation_monochromator  graphite
_diffrn_radiation_probe          x-ray
_diffrn_radiation_source         'fine-focus sealed tube'
_diffrn_radiation_type           MoK\a
_diffrn_radiation_wavelength     0.71073
_diffrn_reflns_av_R_equivalents  0.0631
_diffrn_reflns_av_unetI/netI     0.0612
_diffrn_reflns_Laue_measured_fraction_full 0.988
_diffrn_reflns_Laue_measured_fraction_max 0.988
_diffrn_reflns_limit_h_max       10
_diffrn_reflns_limit_h_min       -13
_diffrn_reflns_limit_k_max       13
_diffrn_reflns_limit_k_min       -4
_diffrn_reflns_limit_l_max       33
_diffrn_reflns_limit_l_min       -39
_diffrn_reflns_number            8321
_diffrn_reflns_point_group_measured_fraction_full 0.952
_diffrn_reflns_point_group_measured_fraction_max 0.953
_diffrn_reflns_theta_full        25.242
_diffrn_reflns_theta_max         25.346
_diffrn_reflns_theta_min         3.520
_diffrn_source                   'sealed X-ray tube'
_exptl_absorpt_coefficient_mu    21.275
_exptl_absorpt_correction_T_max  0.967
_exptl_absorpt_correction_T_min  0.948
_exptl_absorpt_correction_type   analytical
_exptl_absorpt_process_details
;
CrysAlisPro 1.171.38.41 (Rigaku Oxford Diffraction, 2015)
Analytical numeric absorption correction using a multifaceted crystal
model based on expressions derived by R.C. Clark & J.S. Reid.
(Clark, R. C. & Reid, J. S. (1995). Acta Cryst. A51, 887-897)
;
_exptl_crystal_colour            orange
_exptl_crystal_density_diffrn    3.327
_exptl_crystal_description       prism
_exptl_crystal_F_000             3424
_exptl_crystal_preparation       Luminescent
_exptl_crystal_recrystallization_method 'Re-crystallisation from solvent: DMF'
_exptl_crystal_size_max          0.35
_exptl_crystal_size_mid          0.28
_exptl_crystal_size_min          0.17
_refine_diff_density_max         2.507
_refine_diff_density_min         -1.326
_refine_diff_density_rms         0.197
_refine_ls_abs_structure_details
;
 Refined as an inversion twin.
;
_refine_ls_abs_structure_Flack   0.19(5)
_refine_ls_extinction_method     none
_refine_ls_goodness_of_fit_ref   1.051
_refine_ls_hydrogen_treatment    undef
_refine_ls_matrix_type           full
_refine_ls_number_parameters     58
_refine_ls_number_reflns         2256
_refine_ls_number_restraints     18
_refine_ls_restrained_S_all      1.104
_refine_ls_R_factor_all          0.0919
_refine_ls_R_factor_gt           0.0575
_refine_ls_shift/su_max          0.001
_refine_ls_shift/su_mean         0.000
_refine_ls_structure_factor_coef Fsqd
_refine_ls_weighting_details
'w=1/[\s^2^(Fo^2^)+(0.0761P)^2^] where P=(Fo^2^+2Fc^2^)/3'
_refine_ls_weighting_scheme      calc
_refine_ls_wR_factor_gt          0.1456
_refine_ls_wR_factor_ref         0.1560
_reflns_Friedel_coverage         0.661
_reflns_Friedel_fraction_full    0.903
_reflns_Friedel_fraction_max     0.904
_reflns_number_gt                1465
_reflns_number_total             2256
_reflns_threshold_expression     'I > 2\s(I)'
_cod_data_source_file            c9dt02352f2.cif
_cod_data_source_block           gy1099_sq
_cod_depositor_comments
'Adding full bibliography for 7700619--7700620.cif.'
_cod_original_cell_volume        3791.7(5)
_cod_database_code               7700619
_shelx_shelxl_version_number     2018/3
_shelx_space_group_comment
;
The symmetry employed for this shelxl refinement is uniquely defined
by the following loop, which should always be used as a source of
symmetry information in preference to the above space-group names.
They are only intended as comments.
;
_shelx_estimated_absorpt_t_min   0.050
_shelx_estimated_absorpt_t_max   0.123
_shelx_res_file
;
TITL gy1099.res in P-62c; 130K; Xcalibur
    gy1099_sq.res
    created by SHELXL-2018/3 at 12:37:31 on 13-Sep-2018
CELL 0.71073 11.5764 11.5764 32.6705 90.000 90.000 120.000
ZERR 2.0000   0.0006  0.0006  0.0031  0.000  0.000  0.000
LATT -1
SYMM -X+Y, -X, 0.5-Z
SYMM -Y, X-Y, Z
SYMM X, Y, 0.5-Z
SYMM -X+Y, -X, Z
SYMM -Y, X-Y, 0.5-Z
SYMM X-Y, -Y, -Z
SYMM -X, -X+Y, -Z
SYMM Y, X, -Z
SYMM Y, X, 0.5+Z
SYMM X-Y, -Y, 0.5+Z
SYMM -X, -X+Y, 0.5+Z
SFAC C  H   N  S  CL RE BR
UNIT 82 200 10 28 12 24 6
 
LIST 4 ! automatically inserted. Change 6 to 4 for CHECKCIF!!
TEMP -143
 
L.S. 6 0  103
FMAP 2
PLAN 5
BOND
 
SIMU 0.01 0.01 3.0 Re2 C1
ISOR 0.01 0.01 Br1
ISOR 0.005 0.007 S3
 
OMIT  0
OMIT  6   6   4
OMIT  0   0  10
OMIT  0   4   0
OMIT  0   0  18
OMIT  0   0  12
OMIT -1   3  10
OMIT  0   8   1
OMIT  0   7  20
OMIT  5   5  10
OMIT  0   3   0
OMIT -3   8   4
 
ABIN
ACTA
 
TWIN
 
SIZE 0.35 0.28 0.17
 
WGHT    0.076100
BASF   0.19474
FVAR       0.22139
RE1   6    0.862992    0.880618    0.636636    11.00000    0.04837    0.05299 =
         0.14549   -0.00853   -0.00992    0.02476
RE2   6    0.882700    1.018278    0.701256    11.00000    0.02380    0.03346 =
         0.14680    0.00176   -0.00174    0.01614
S1    4    1.000000    1.000000    0.579369    10.33333    0.05517    0.05517 =
         0.13957    0.00000    0.00000    0.02758
S2    4    0.776096    1.033279    0.639528    11.00000    0.03202    0.05718 =
         0.17292    0.00301   -0.00759    0.02610
S3    4    0.745509    0.782993    0.700133    11.00000    0.04717    0.04314 =
         0.12093   -0.00557   -0.01133    0.04062
BR1   7    0.720704    1.039493    0.750000    10.50000    0.06263    0.08457 =
         0.18109    0.00000    0.00000    0.04398
C1    1    1.000000    1.000000    0.750000    10.16667    0.03122    0.03122 =
         0.15040    0.00000    0.00000    0.01561
CL1   5    0.674623    0.719406    0.593274    11.00000    0.05891    0.07182 =
         0.18274   -0.02646   -0.01250    0.00806
HKLF 4
 
 
 
 
REM  gy1099.res in P-62c; 130K; Xcalibur
REM wR2 = 0.1560, GooF = S = 1.051, Restrained GooF = 1.104 for all data
REM R1 = 0.0575 for 1465 Fo > 4sig(Fo) and 0.0919 for all 2256 data
REM 58 parameters refined using 18 restraints
 
END
 
WGHT      0.0761      0.0000
 
REM Highest difference peak  2.507,  deepest hole -1.326,  1-sigma level  0.197
Q1    1   0.8403  0.9357  0.7012  11.00000  0.05    2.51
Q2    1   0.9035  0.8404  0.6360  11.00000  0.05    2.21
Q3    1   0.8177  0.9515  0.7021  11.00000  0.05    1.62
Q4    1   0.6416  0.9207  0.7500  10.50000  0.05    1.40
Q5    1   0.8613  0.8128  0.6370  11.00000  0.05    1.34
;
_shelx_res_checksum              70897
_shelx_fab_file
;
    0    0    6    267.67     -4.85
    0    0    8     44.09     -2.61
    0    0   10     -6.84     -4.04
    0    0   12    -18.37     -1.48
    0    0   14     15.01      5.24
    0    0   16    -17.92     -2.06
    0    0   18    -42.37     -3.59
    0    0   20     19.80      2.86
    0    0   22     18.18      4.00
    0    0   24     19.41     -1.18
    0    0   26     -0.18     -1.22
    0    0   28     17.55     -8.55
    0    0   30     21.16    -13.16
    0    0   32    -19.93     -1.33
    0    0   34     20.58    -15.01
    0    0   36    -50.04    -56.75
    0    0   38     -2.51    -23.72
    0    1    5     10.36     -1.65
    0    1    6    -28.90      2.27
    0    1    7    -12.44      0.48
    0    1    8     13.80      0.58
    0    1    9     -7.07     -1.50
    0    1   10     23.21      0.89
    0    1   11      1.58      0.43
    0    1   12     15.39     -1.16
    0    1   13     14.16      1.75
    0    1   14      3.90     -2.57
    0    1   15    -11.30     -1.06
    0    1   16     10.13      0.70
    0    1   17     26.60     -1.67
    0    1   18     11.81      2.66
    0    1   19    -28.72      2.86
    0    1   20     -2.88      2.03
    0    1   21      8.52     -1.58
    0    1   22     -2.88      1.67
    0    1   23      9.51     -3.66
    0    1   24     -1.71      0.12
    0    1   25      8.73      9.86
    0    1   26      6.81     -1.03
    0    1   27     12.20      0.07
    0    1   28     -5.54      0.79
    0    1   29    -20.03    -10.56
    0    1   30    -10.47     -0.25
    0    1   31    -22.68     -2.02
    0    1   32     -3.26     -9.57
    0    1   33     18.96      0.94
    0    1   34    -11.81     -1.62
    0    1   35    -14.32    -11.96
    0    1   36     12.81     12.07
    0    1   37     23.45      2.64
    0    1   38      2.74    -12.65
    0    1   39    -14.30     -4.09
   -1    2    0    200.45     73.85
   -1    2    2   -101.11     68.27
   -1    2    4   -119.51     16.92
   -1    2    6     23.83     -7.21
   -1    2    8      7.14    -17.83
   -1    2   10    -21.66      2.01
   -1    2   12    -12.80      4.20
   -1    2   14    -16.93     13.26
   -1    2   16    -22.99      9.61
   -1    2   18     -5.38      1.18
   -1    2   20    -11.04      5.36
   -1    2   22     -2.04      2.32
   -1    2   24      7.02      7.04
   -1    2   26     -5.15      5.98
   -1    2   28      6.43      0.78
   -1    2   30      8.60      3.88
   -1    2   32     15.75     18.50
   -1    2   34      5.95      5.52
   -1    2   36     -3.01    -17.18
   -1    2   38     14.28     17.36
    0    2    0    -28.45     -0.56
    0    2    1      1.40      1.90
    0    2    2    -28.82     -1.66
    0    2    3     10.44     -0.26
    0    2    4     15.58     -0.92
    0    2    5      5.82      1.83
    0    2    6    -11.26     -0.32
    0    2    7     16.23     -0.32
    0    2    8    -12.52      0.46
    0    2    9      2.02     -1.20
    0    2   10    -13.29     -0.58
    0    2   11      9.55     -0.20
    0    2   12     -6.52      1.61
    0    2   13      8.13     -0.86
    0    2   14     -3.21      0.41
    0    2   15     11.66     -0.05
    0    2   16      5.14      2.15
    0    2   17     -5.34     -1.24
    0    2   18     -7.13      2.39
    0    2   19     14.99     -2.58
    0    2   20      2.04     -2.44
    0    2   21      1.95     -0.74
    0    2   22      2.56      0.99
    0    2   23      2.97     -0.35
    0    2   24     -7.01      5.15
    0    2   25     -1.62     -6.07
    0    2   26      1.27      1.37
    0    2   27     -2.33     -1.94
    0    2   28     10.26     10.54
    0    2   29      9.32      2.00
    0    2   30      7.63      9.26
    0    2   31     20.27     -2.43
    0    2   32     -2.84     -4.20
    0    2   33      0.97     -5.56
    0    2   34      9.22      8.43
    0    2   35      9.28      1.94
    0    2   36      7.62     -1.76
    0    2   37      2.01     -4.83
    0    2   38      5.74     -5.05
   -1    3    0    -86.39    -16.20
   -1    3    1      6.19    -33.90
   -1    3    2    -20.32    -14.21
   -1    3    3     -3.07      4.99
   -1    3    4      3.97      3.09
   -1    3    5     16.79      9.52
   -1    3    6    -21.08     -2.63
   -1    3    7      6.47     -1.52
   -1    3    8     -8.83      3.51
   -1    3    9     12.17     -2.66
   -1    3   10     16.77      1.90
   -1    3   11      2.16     -6.90
   -1    3   12      5.33      6.17
   -1    3   13     -1.77      3.17
   -1    3   14     13.56      5.92
   -1    3   15      0.65      2.68
   -1    3   16      8.64      5.61
   -1    3   17      7.64     -2.34
   -1    3   18      3.74      1.43
   -1    3   19      1.20      3.55
   -1    3   20      9.02     -2.95
   -1    3   21      3.42     -4.52
   -1    3   22      0.64     -2.09
   -1    3   23      1.28      5.13
   -1    3   24     -1.83     -3.87
   -1    3   25      4.05      1.57
   -1    3   26     -3.47      0.69
   -1    3   27      2.87     -1.98
   -1    3   28     -9.15     -2.39
   -1    3   29     -3.36     -3.71
   -1    3   30     -4.79     -5.43
   -1    3   31    -12.08      7.22
   -1    3   32     -1.82     -6.04
   -1    3   33      6.04      0.06
   -1    3   34     10.02     -7.73
   -1    3   35      7.74    -13.30
   -1    3   36     -7.02      5.21
   -1    3   37     -1.45     12.34
   -1    3   38     -3.96    -12.69
    0    3    0     74.34      2.87
    0    3    1      4.05      0.49
    0    3    2     69.70     -4.10
    0    3    3     -2.68      0.73
    0    3    4      6.33     -3.00
    0    3    5     -7.89     -0.58
    0    3    6     18.79     -1.61
    0    3    7      3.10      2.32
    0    3    8      8.92     -2.10
    0    3    9      5.70      1.31
    0    3   10     -3.43      0.49
    0    3   11      0.54      0.22
    0    3   12     -2.10     -0.91
    0    3   13     -5.79     -2.34
    0    3   14    -12.31      0.92
    0    3   15      1.15     -3.34
    0    3   16    -10.06     -2.13
    0    3   17      3.13     -0.97
    0    3   18     -1.27     -1.13
    0    3   19      1.30     -0.68
    0    3   20     -3.81      5.43
    0    3   21      0.98     -1.72
    0    3   22      0.73      0.90
    0    3   23     -1.78     -0.86
    0    3   24      0.61      1.04
    0    3   25     -4.54      0.79
    0    3   26      5.68      4.15
    0    3   27      3.17     -0.34
    0    3   28      5.52     -0.42
    0    3   29      6.59      0.33
    0    3   30     11.23     -0.11
    0    3   31     -4.40     -2.06
    0    3   32      9.22      7.32
    0    3   33     -9.61      3.39
    0    3   34    -11.25     -2.75
    0    3   35      6.00     -1.42
    0    3   36     19.87     -0.03
    0    3   37     -0.17      0.45
    0    3   38     -7.96      8.49
   -2    4    0     59.28     -2.27
   -2    4    2     50.65    -18.56
   -2    4    4      7.86     -3.49
   -2    4    6      1.48      9.51
   -2    4    8     11.62      9.18
   -2    4   10    -17.93     -1.80
   -2    4   12     -9.80     -1.29
   -2    4   14    -12.04      4.12
   -2    4   16     -7.60     -3.74
   -2    4   18     -2.40     -4.99
   -2    4   20     -3.30     -0.60
   -2    4   22     -2.24     -5.83
   -2    4   24     -0.11      3.72
   -2    4   26      1.74     -3.17
   -2    4   28      0.43      1.19
   -2    4   30     -1.34     -5.96
   -2    4   32     -8.65    -26.76
   -2    4   34    -16.95      8.58
   -2    4   36     33.22    -17.16
   -1    4    0      7.04      4.57
   -1    4    1    -12.66     16.77
   -1    4    2    -18.84     26.03
   -1    4    3      2.70      4.63
   -1    4    4     -0.62     -2.66
   -1    4    5    -11.02     -3.22
   -1    4    6     22.57      0.76
   -1    4    7    -13.73     -0.63
   -1    4    8      1.32     -4.28
   -1    4    9     -7.21      3.79
   -1    4   10      5.43     -4.20
   -1    4   11      1.99     -0.39
   -1    4   12     18.85     -4.12
   -1    4   13      7.53      1.79
   -1    4   14      9.50     -9.43
   -1    4   15     -1.72     -1.47
   -1    4   16      8.52     -3.92
   -1    4   17     -6.22     -1.13
   -1    4   18      0.61      2.09
   -1    4   19     -0.06      3.48
   -1    4   20     -7.09     -3.04
   -1    4   21     -2.66      1.50
   -1    4   22      0.83      3.68
   -1    4   23      6.49     -4.76
   -1    4   24     -1.35      0.18
   -1    4   25      2.13     -2.93
   -1    4   26     -6.09     -0.19
   -1    4   27     -6.56     -2.23
   -1    4   28      2.95     -1.33
   -1    4   29     -3.61     -2.67
   -1    4   30     -3.43      0.77
   -1    4   31     20.80     -9.48
   -1    4   32      5.21     -0.58
   -1    4   33      9.69     15.84
   -1    4   34     12.85    -22.62
   -1    4   35    -21.25     28.19
   -1    4   36    -12.42     -0.11
   -1    4   37      8.36     -6.84
    0    4    0    -46.12     -0.46
    0    4    1      3.88     -1.02
    0    4    2      6.58     -0.89
    0    4    3     -9.59     -2.68
    0    4    4     17.48      0.81
    0    4    5     -1.00     -1.71
    0    4    6    -27.90      0.14
    0    4    7      4.91     -2.29
    0    4    8     17.18     -0.87
    0    4    9     -5.50     -3.60
    0    4   10     12.23     -1.16
    0    4   11    -13.08     -1.41
    0    4   12      1.40     -0.71
    0    4   13     -4.83     -0.03
    0    4   14      5.99      0.18
    0    4   15     -5.07     -1.50
    0    4   16      0.30      0.63
    0    4   17      2.03     -1.02
    0    4   18      2.03      1.42
    0    4   19     -0.26     -0.69
    0    4   20     -6.65     -0.73
    0    4   21      9.52     -1.04
    0    4   22    -14.06      2.54
    0    4   23     -4.09     -1.12
    0    4   24      3.61      3.21
    0    4   25      3.42     -1.16
    0    4   26      7.02      0.98
    0    4   27     -2.41     -0.32
    0    4   28      1.07      1.54
    0    4   29     -4.56     -1.37
    0    4   30      1.87      1.48
    0    4   31    -22.12      1.32
    0    4   32      0.12     -0.25
    0    4   33     -8.42     -2.14
    0    4   34    -12.66      0.29
    0    4   35     14.00      0.87
    0    4   36     -7.96      1.38
    0    4   37    -11.12      0.15
   -2    5    0    -14.05     -0.48
   -2    5    1      4.40     -9.63
   -2    5    2      0.48     -0.05
   -2    5    3    -13.78    -21.25
   -2    5    4      6.17      2.63
   -2    5    5     -0.69     -3.88
   -2    5    6     -5.06     -2.71
   -2    5    7      8.74     -0.61
   -2    5    8     -3.42      0.58
   -2    5    9    -13.66     -6.30
   -2    5   10      7.50      8.08
   -2    5   11      4.04      2.67
   -2    5   12      1.02      2.30
   -2    5   13     -2.39     -2.25
   -2    5   14      3.41     -0.42
   -2    5   15      5.67     -3.34
   -2    5   16      5.08      1.06
   -2    5   17      8.34      7.00
   -2    5   18      3.65      1.91
   -2    5   19     -4.72     -3.08
   -2    5   20      1.20      2.60
   -2    5   21      3.07      6.08
   -2    5   22     -1.69      3.40
   -2    5   23    -13.18      1.70
   -2    5   24     -1.74     -2.50
   -2    5   25     -0.73      0.08
   -2    5   26     -3.85      0.33
   -2    5   27     13.50    -14.49
   -2    5   28     -6.92     -1.22
   -2    5   29    -10.93     -5.94
   -2    5   30     -7.24      0.58
   -2    5   31    -24.41     23.37
   -2    5   32     -5.73     26.58
   -2    5   33    -20.33    -19.97
   -2    5   34    -12.85     20.07
   -2    5   35     25.27    -39.55
   -2    5   36    -30.20      5.33
   -1    5    0     20.48     -3.78
   -1    5    1      0.71     -4.70
   -1    5    2     -7.53    -17.74
   -1    5    3      3.55     -0.47
   -1    5    4     -7.02      2.72
   -1    5    5      2.80      1.25
   -1    5    6      0.80      0.40
   -1    5    7    -10.26     -6.96
   -1    5    8     -0.35      4.14
   -1    5    9     -2.53      1.79
   -1    5   10     -9.63     -3.63
   -1    5   11     -3.84      3.56
   -1    5   12    -15.58     -8.85
   -1    5   13     -6.60     -4.03
   -1    5   14     -0.88     -3.41
   -1    5   15     -3.72      5.16
   -1    5   16     -5.07     -0.17
   -1    5   17      0.14      0.85
   -1    5   18     -2.60     -3.41
   -1    5   19     -0.92      2.11
   -1    5   20     10.05      6.25
   -1    5   21     -5.63      4.77
   -1    5   22      7.61      0.06
   -1    5   23      8.77      2.12
   -1    5   24      1.14     -0.28
   -1    5   25      1.42     -1.65
   -1    5   26     12.98     -1.57
   -1    5   27     12.03      8.62
   -1    5   28      6.99      4.58
   -1    5   29     15.47      8.44
   -1    5   30      8.69      6.44
   -1    5   31      5.40      1.60
   -1    5   32     -3.73     -7.42
   -1    5   33      8.07      4.33
   -1    5   34      8.22     11.32
   -1    5   35     -6.77     14.97
   -1    5   36     18.83      9.01
    0    5    0     13.05     -1.65
    0    5    1      2.66      2.56
    0    5    2    -17.64     -1.57
    0    5    3     -2.31      2.52
    0    5    4    -29.43     -2.63
    0    5    5     -3.52     -0.85
    0    5    6     11.10     -2.53
    0    5    7     -0.54     -1.71
    0    5    8    -26.62      0.20
    0    5    9      1.28      0.56
    0    5   10    -11.18      0.84
    0    5   11     -1.13     -1.13
    0    5   12      7.92     -0.51
    0    5   13     -6.34     -2.77
    0    5   14     -3.99      3.54
    0    5   15      2.18     -0.63
    0    5   16      2.44      1.08
    0    5   17     -7.70     -0.63
    0    5   18      2.50      1.61
    0    5   19      1.41     -2.14
    0    5   20      4.24      2.29
    0    5   21      6.74     -0.39
    0    5   22     13.53     -0.33
    0    5   23      2.54      0.93
    0    5   24      9.88      1.09
    0    5   25      2.20      1.27
    0    5   26    -10.82      0.24
    0    5   27     -8.60      0.01
    0    5   28     -1.05      0.53
    0    5   29     -9.39      4.95
    0    5   30     -9.09     -1.05
    0    5   31     18.11      1.96
    0    5   32     -7.97     -0.32
    0    5   33     -2.80     -0.39
    0    5   34     -4.89     -0.34
    0    5   35      0.72     -1.06
   -3    6    0     23.11     16.25
   -3    6    2     13.01     -1.16
   -3    6    4      7.41      3.07
   -3    6    6     12.21      2.04
   -3    6    8     16.03     -3.26
   -3    6   10     -1.39     -3.97
   -3    6   12     -0.72     -4.19
   -3    6   14     -6.50      6.36
   -3    6   16     -9.04      4.92
   -3    6   18     -2.35      0.91
   -3    6   20      4.98      0.54
   -3    6   22     -2.79     -8.75
   -3    6   24     -6.67      3.39
   -3    6   26      1.30     -4.77
   -3    6   28      6.33      3.24
   -3    6   30     15.70     25.26
   -3    6   32      2.76    -21.43
   -3    6   34     30.76     -7.39
   -2    6    0     -6.41    -16.80
   -2    6    1      7.22     13.02
   -2    6    2    -18.49      0.52
   -2    6    3      0.77      2.84
   -2    6    4    -13.19     -3.89
   -2    6    5     -9.63    -17.21
   -2    6    6      5.08      2.04
   -2    6    7     -5.58      6.12
   -2    6    8     -3.96      1.41
   -2    6    9      0.33     -7.73
   -2    6   10      1.93      0.94
   -2    6   11     -3.09     -7.46
   -2    6   12      4.42     11.01
   -2    6   13      3.63     -0.35
   -2    6   14      0.45     -0.09
   -2    6   15      5.28     -0.93
   -2    6   16      3.20     -0.94
   -2    6   17     -0.10     -5.08
   -2    6   18      0.44      0.54
   -2    6   19      1.09     -0.86
   -2    6   20     -7.58     -6.19
   -2    6   21     10.25     -7.08
   -2    6   22      0.77     -3.54
   -2    6   23      5.05      5.70
   -2    6   24      1.67     -2.19
   -2    6   25     12.49      9.27
   -2    6   26     -9.70      1.06
   -2    6   27      2.74     13.05
   -2    6   28     -1.68      1.25
   -2    6   29     20.50     -0.35
   -2    6   30     -8.48     -1.92
   -2    6   31     29.61    -13.97
   -2    6   32      2.52     14.88
   -2    6   33     17.02     14.42
   -2    6   34     -2.51     10.37
   -2    6   35     -6.21     15.67
   -1    6    0    -40.05      1.82
   -1    6    1    -11.96     -9.70
   -1    6    2      9.63      0.74
   -1    6    3      2.43     -2.48
   -1    6    4     13.28     -1.85
   -1    6    5      2.37      1.52
   -1    6    6    -22.86      3.15
   -1    6    7      5.90     -2.48
   -1    6    8      1.16     -3.50
   -1    6    9     -0.56     -0.78
   -1    6   10      8.15     -2.85
   -1    6   11     -2.11     -0.60
   -1    6   12      3.64     -3.49
   -1    6   13      4.45      3.48
   -1    6   14     -1.19     -5.29
   -1    6   15     -7.51     -5.35
   -1    6   16      4.87     -7.21
   -1    6   17     -1.25     -0.17
   -1    6   18      5.44     -2.17
   -1    6   19      9.55      1.43
   -1    6   20      5.99     -4.13
   -1    6   21     -4.44      5.08
   -1    6   22     -3.06      0.36
   -1    6   23     -0.60      0.78
   -1    6   24     -1.01     -1.99
   -1    6   25      1.20      1.97
   -1    6   26      4.66     -0.08
   -1    6   27      4.68     -2.13
   -1    6   28      0.02     -6.62
   -1    6   29     -1.33     -0.55
   -1    6   30     -0.06     -6.22
   -1    6   31    -14.07      6.34
   -1    6   32      0.13      0.04
   -1    6   33      2.11     -1.41
   -1    6   34     -8.67     -1.86
    0    6    0     26.13      0.22
    0    6    1     19.75     -2.19
    0    6    2      9.94     -0.64
    0    6    3     -6.58      0.52
    0    6    4      1.55     -1.42
    0    6    5     -1.89      1.30
    0    6    6     12.60      0.92
    0    6    7      1.33      3.09
    0    6    8     18.07     -0.70
    0    6    9      1.92      1.77
    0    6   10     -5.59      0.40
    0    6   11      7.43      0.97
    0    6   12     -3.27      1.82
    0    6   13     -6.79      2.86
    0    6   14     -1.68      0.10
    0    6   15      5.04      2.36
    0    6   16     -3.93      1.63
    0    6   17      2.94     -1.25
    0    6   18      5.99      1.38
    0    6   19    -15.13      1.30
    0    6   20     -2.37      0.71
    0    6   21      2.38     -1.30
    0    6   22      7.03      3.29
    0    6   23     -0.45      0.30
    0    6   24      2.12      1.70
    0    6   25      1.69      1.48
    0    6   26      6.53      1.58
    0    6   27      1.19      1.19
    0    6   28     -6.90      0.05
    0    6   29      6.06      0.30
    0    6   30     -1.04     -0.42
    0    6   31     -0.72     -1.03
    0    6   32     11.02      2.61
    0    6   33      4.85     -0.40
    0    6   34      2.52      0.15
   -3    7    0    -23.84      0.63
   -3    7    1      5.88    -15.60
   -3    7    2     -4.80      5.49
   -3    7    3     -3.69     -6.18
   -3    7    4      2.09     -1.62
   -3    7    5     14.95     10.37
   -3    7    6     -8.86     -5.79
   -3    7    7      3.30     -5.13
   -3    7    8     -1.47      2.14
   -3    7    9      2.33     -0.65
   -3    7   10      2.08     -1.38
   -3    7   11     -0.46      5.52
   -3    7   12     -0.08     -0.54
   -3    7   13      0.57      2.44
   -3    7   14      2.51      1.42
   -3    7   15      2.57     -1.11
   -3    7   16      1.33     -2.49
   -3    7   17      1.21     -3.39
   -3    7   18     -0.98     -2.73
   -3    7   19      0.15     -3.03
   -3    7   20     -0.95     -3.15
   -3    7   21     -4.84      3.00
   -3    7   22     -0.46      1.80
   -3    7   23      3.87     -7.49
   -3    7   24      2.27     -2.84
   -3    7   25      0.21     -5.54
   -3    7   26      6.14      5.60
   -3    7   27      9.86     -1.82
   -3    7   28     -2.08      4.99
   -3    7   29     -6.82     -0.77
   -3    7   30     -4.21     -7.87
   -3    7   31     -7.86     12.85
   -3    7   32      5.77      7.52
   -3    7   33     -8.02    -14.89
   -3    7   34     -5.63      1.91
   -2    7    0     26.05      7.57
   -2    7    1    -10.79     -6.31
   -2    7    2      3.28     -2.36
   -2    7    3      9.83      1.80
   -2    7    4    -14.88      1.72
   -2    7    5      1.01      4.60
   -2    7    6      1.85      0.56
   -2    7    7      1.19    -17.70
   -2    7    8    -10.23     -2.54
   -2    7    9     10.16     -1.80
   -2    7   10    -13.07     -2.10
   -2    7   11      3.37     -7.94
   -2    7   12     -6.23     -8.87
   -2    7   13      0.75     -3.82
   -2    7   14      2.91     -3.53
   -2    7   15      2.35     -1.22
   -2    7   16     -2.66     -1.43
   -2    7   17     -0.60      1.26
   -2    7   18     -0.10     -2.94
   -2    7   19      3.72     -0.97
   -2    7   20      4.47     -3.04
   -2    7   21     -7.42     -3.40
   -2    7   22      1.26     -1.24
   -2    7   23      4.06     -2.21
   -2    7   24     -1.21     -0.25
   -2    7   25      0.95     -3.04
   -2    7   26     -3.13     -3.74
   -2    7   27     -0.17     -9.96
   -2    7   28     -0.74     -2.66
   -2    7   29      5.14     -1.59
   -2    7   30     13.24      3.58
   -2    7   31      0.27     -6.38
   -2    7   32      0.97     -8.80
   -2    7   33      4.37     -8.28
   -1    7    0     -8.03      7.98
   -1    7    1     -1.19      7.32
   -1    7    2    -10.85     10.10
   -1    7    3     -6.27     -8.36
   -1    7    4      2.53     -0.99
   -1    7    5      4.91     -8.75
   -1    7    6      1.67     -8.99
   -1    7    7     -0.41     -2.18
   -1    7    8     -0.89     -1.07
   -1    7    9     -2.21     -8.99
   -1    7   10      1.37     -3.54
   -1    7   11      0.63     -2.98
   -1    7   12     -0.80     -3.87
   -1    7   13     -1.03     -5.85
   -1    7   14      3.65      0.86
   -1    7   15     -3.69      3.44
   -1    7   16      4.59      1.14
   -1    7   17      4.48      1.73
   -1    7   18     -4.32     -1.71
   -1    7   19    -12.05      0.72
   -1    7   20      1.50      6.63
   -1    7   21     12.40     -4.19
   -1    7   22     -2.15     -1.84
   -1    7   23     -2.90     -2.94
   -1    7   24      0.96      0.93
   -1    7   25     -0.51     -7.32
   -1    7   26     -1.95     -8.00
   -1    7   27      1.08     -7.51
   -1    7   28     -4.38     -1.24
   -1    7   29      3.66    -10.66
   -1    7   30     -6.30     -0.41
   -1    7   31     24.88    -11.55
   -1    7   32     -4.36     -8.85
   -1    7   33     -7.98     -8.44
    0    7    0    -11.45     -4.75
    0    7    1    -29.14     -0.94
    0    7    2     -7.38      1.25
    0    7    3      2.48     -3.15
    0    7    4      0.81     -0.61
    0    7    5    -12.28     -1.98
    0    7    6     -0.10      0.48
    0    7    7     -4.99     -4.14
    0    7    8    -10.19      0.04
    0    7    9      3.36     -0.16
    0    7   10      4.99     -0.26
    0    7   11      8.57     -1.17
    0    7   12     -3.61      0.43
    0    7   13     33.42      2.23
    0    7   14      5.82     -0.54
    0    7   15     15.38      6.46
    0    7   16      0.48     -0.10
    0    7   17      0.24      9.13
    0    7   18      6.84     -1.13
    0    7   19     38.92      5.59
    0    7   20      0.54     -0.39
    0    7   21    -12.96      8.39
    0    7   22     -2.67     -4.23
    0    7   23     -1.08      2.31
    0    7   24     -0.85     -2.06
    0    7   25    -14.42     -0.87
    0    7   26     -8.57      0.08
    0    7   27    -15.54      1.31
    0    7   28     17.46      1.44
    0    7   29    -33.73     -1.19
    0    7   30     -6.95     -0.58
    0    7   31    -53.91     -3.40
    0    7   32    -27.51      1.04
   -4    8    0     18.31      1.38
   -4    8    2      9.45     -4.25
   -4    8    4     -3.54      1.12
   -4    8    6     14.68     10.81
   -4    8    8      1.09     -1.87
   -4    8   10     -2.27      3.21
   -4    8   12      0.70     -2.65
   -4    8   14     -6.67     -9.11
   -4    8   16     -3.27      2.18
   -4    8   18      2.73     -1.21
   -4    8   20      7.74      1.66
   -4    8   22      3.24      0.03
   -4    8   24     -1.11      3.09
   -4    8   26     -5.91     -1.32
   -4    8   28      1.81     -0.63
   -4    8   30      3.65      2.70
   -4    8   32     -5.53     -0.45
   -3    8    0     17.96      2.20
   -3    8    1     12.24     10.92
   -3    8    2     12.14      0.50
   -3    8    3      1.56      2.45
   -3    8    4     17.82      2.06
   -3    8    5      1.05     -4.27
   -3    8    6     -0.70     -2.90
   -3    8    7      9.49     10.10
   -3    8    8      0.57     -0.69
   -3    8    9     -0.73      4.85
   -3    8   10     -0.49      0.02
   -3    8   11      7.00      4.37
   -3    8   12     -4.12      4.17
   -3    8   13     -1.96     -1.91
   -3    8   14     -6.74      4.88
   -3    8   15      5.77      6.95
   -3    8   16     -0.39      0.46
   -3    8   17      3.01      2.45
   -3    8   18     -0.77      0.47
   -3    8   19     -0.68     -1.26
   -3    8   20     -3.96      5.60
   -3    8   21     10.22     -4.67
   -3    8   22     -1.82      1.64
   -3    8   23     -3.98      1.43
   -3    8   24     -0.57      6.59
   -3    8   25      4.17     -4.66
   -3    8   26     -0.44      1.54
   -3    8   27     -1.82      1.55
   -3    8   28     -1.12      2.07
   -3    8   29      0.92      0.61
   -3    8   30     -6.95      1.13
   -3    8   31     15.04     -5.35
   -3    8   32     -5.93     -9.43
   -2    8    0    -11.28     -6.55
   -2    8    1     -6.60      4.47
   -2    8    2      1.56     -0.60
   -2    8    3      2.68      0.68
   -2    8    4      1.29      4.08
   -2    8    5      9.69     -7.29
   -2    8    6     -9.69      6.45
   -2    8    7      4.08      3.66
   -2    8    8     -0.81     -1.35
   -2    8    9     -0.41     -4.22
   -2    8   10      4.17      7.78
   -2    8   11     -2.13     -4.88
   -2    8   12      5.42      3.99
   -2    8   13      8.28      1.50
   -2    8   14     -2.40     -3.98
   -2    8   15    -10.01     -5.29
   -2    8   16     -2.12      0.83
   -2    8   17     -6.05     -0.31
   -2    8   18     -0.98      2.94
   -2    8   19      4.50      4.16
   -2    8   20    -13.84      1.24
   -2    8   21     -2.62      3.11
   -2    8   22     -5.14      2.21
   -2    8   23      3.26     -7.54
   -2    8   24     -2.49     -2.93
   -2    8   25     -2.92     -1.84
   -2    8   26      5.46      6.00
   -2    8   27      4.52      0.78
   -2    8   28     11.41     -4.29
   -2    8   29      0.64      1.39
   -2    8   30     -7.87     -5.15
   -2    8   31    -26.99      6.25
   -1    8    0     23.64      6.78
   -1    8    1     53.11     -5.68
   -1    8    2     -1.03      0.98
   -1    8    3      5.02     -2.90
   -1    8    4    -13.02     10.06
   -1    8    5     -7.96     -1.77
   -1    8    6      2.82      6.30
   -1    8    7      4.62     -1.17
   -1    8    8      6.38      5.22
   -1    8    9     -0.75     -2.84
   -1    8   10     -7.28     -5.36
   -1    8   11      4.02      6.18
   -1    8   12      1.68      0.86
   -1    8   13    -29.44     -1.16
   -1    8   14     -4.94     -0.65
   -1    8   15     17.13      1.64
   -1    8   16     -2.87     -4.28
   -1    8   17      4.87      2.05
   -1    8   18      1.05      3.18
   -1    8   19    -19.77     -1.28
   -1    8   20      9.07     -4.66
   -1    8   21     -7.01      6.68
   -1    8   22      8.60      7.34
   -1    8   23     -3.45      2.14
   -1    8   24      2.27      8.22
   -1    8   25      6.04     -3.50
   -1    8   26     -1.26     11.85
   -1    8   27     -4.48     -8.07
   -1    8   28    -10.75     14.13
   -1    8   29     -6.13    -16.09
   -1    8   30     22.01     10.35
    0    8    0    -27.77      0.49
    0    8    1    -67.24     -2.51
    0    8    2      2.45      0.81
    0    8    3    -14.48     -0.57
    0    8    4      3.02      2.20
    0    8    5     12.60     -0.33
    0    8    6     -9.78      2.67
    0    8    7    -14.57      0.59
    0    8    8     -4.03      4.06
    0    8    9      4.71     -0.23
    0    8   10     10.56      1.69
    0    8   11     -8.46     -1.94
    0    8   12      9.90      2.20
    0    8   13     45.96     -3.48
    0    8   14      3.72      1.68
    0    8   15    -15.58    -19.05
    0    8   16      8.91      2.57
    0    8   17     21.36    -10.52
    0    8   18      3.73      1.60
    0    8   19     26.98     -5.81
    0    8   20      0.84      1.13
    0    8   21     23.75    -10.05
    0    8   22     -1.72      3.26
    0    8   23     12.75     -3.95
    0    8   24     -3.36     -0.06
    0    8   25      1.25     -1.72
    0    8   26      8.24     -0.38
    0    8   27      5.42     -9.49
    0    8   28    -14.06     -3.21
    0    8   29     38.01     -6.86
   -4    9    0     -6.96    -10.71
   -4    9    1     -3.08      6.15
   -4    9    2     -1.95     -0.80
   -4    9    3     10.49      6.27
   -4    9    4      3.25     -0.91
   -4    9    5     -4.82     -1.47
   -4    9    6     -1.42      1.05
   -4    9    7     -5.19      0.33
   -4    9    8      3.79      2.58
   -4    9    9      5.86     -3.56
   -4    9   10      4.38      0.30
   -4    9   11     -1.41     -0.09
   -4    9   12     -0.60     -4.16
   -4    9   13      0.57      2.64
   -4    9   14      4.36     -1.45
   -4    9   15      0.34      0.63
   -4    9   16      3.33     -2.36
   -4    9   17      5.41      1.57
   -4    9   18     -0.38      5.52
   -4    9   19     -0.14     -1.51
   -4    9   20      0.01      0.63
   -4    9   21      3.69     14.09
   -4    9   22      0.72      3.17
   -4    9   23      3.14    -17.01
   -4    9   24      4.46     -1.17
   -4    9   25     -0.34      4.40
   -4    9   26      4.09     -2.90
   -4    9   27     10.94     -3.15
   -4    9   28     -4.75     -6.69
   -4    9   29     -1.10      2.52
   -4    9   30      0.41      0.43
   -3    9    0     25.21      5.77
   -3    9    1     -1.35    -10.86
   -3    9    2     15.21     -6.05
   -3    9    3     -4.85     -0.93
   -3    9    4      4.90     -4.71
   -3    9    5     -0.72     11.70
   -3    9    6     24.26     -3.37
   -3    9    7     -0.36     -0.54
   -3    9    8     11.66      2.79
   -3    9    9     -1.24      4.28
   -3    9   10      2.35     -1.96
   -3    9   11     -2.28      3.54
   -3    9   12      6.64      8.04
   -3    9   13     -5.70      1.85
   -3    9   14      4.96      7.20
   -3    9   15      0.74     -1.87
   -3    9   16     -8.33      5.26
   -3    9   17     -0.02      1.48
   -3    9   18     -3.93     -0.08
   -3    9   19      1.01      2.01
   -3    9   20     -1.31      0.46
   -3    9   21      0.28     -3.31
   -3    9   22     -0.51     -2.28
   -3    9   23      2.97     12.82
   -3    9   24     -5.89      0.81
   -3    9   25      0.54     -0.59
   -3    9   26     -4.43     -0.53
   -3    9   27     -0.23     -1.18
   -3    9   28      5.13      0.42
   -3    9   29      1.93     -2.26
   -2    9    0    -25.00    -13.62
   -2    9    1    -23.27     -6.44
   -2    9    2     -3.04     -1.03
   -2    9    3     -0.34     -1.91
   -2    9    4      3.97    -12.88
   -2    9    5      3.19     -1.95
   -2    9    6     -1.58     -1.83
   -2    9    7     -5.11     -7.84
   -2    9    8     -7.69      0.24
   -2    9    9     -0.21     -0.88
   -2    9   10      5.12      3.13
   -2    9   11     -9.86     -2.80
   -2    9   12     -3.93     -4.30
   -2    9   13      7.55      3.63
   -2    9   14      4.81      0.91
   -2    9   15    -17.60      4.22
   -2    9   16      7.82      5.10
   -2    9   17     -6.41      1.28
   -2    9   18     -5.10      0.05
   -2    9   19      9.47      1.77
   -2    9   20      2.93     -0.99
   -2    9   21     -4.01     -4.86
   -2    9   22     -2.84      1.79
   -2    9   23     -4.25     -1.47
   -2    9   24      4.47      5.50
   -2    9   25     -4.82      2.11
   -2    9   26      3.96      3.45
   -2    9   27    -10.97      2.50
   -2    9   28     -4.92     13.30
   -1    9    0     -9.79     14.54
   -1    9    1      4.45      6.74
   -1    9    2    -11.08      2.99
   -1    9    3      3.52     -7.79
   -1    9    4     -0.35      7.35
   -1    9    5     -7.31    -10.44
   -1    9    6     -2.80      2.92
   -1    9    7      4.02     -3.31
   -1    9    8      0.19      1.42
   -1    9    9     -0.87      5.25
   -1    9   10     -2.02     -2.63
   -1    9   11      0.50      2.07
   -1    9   12     -1.46     -1.57
   -1    9   13    -23.73      5.51
   -1    9   14      2.28      5.03
   -1    9   15     14.86     13.57
   -1    9   16     -1.38     -1.56
   -1    9   17     -9.61      4.63
   -1    9   18      4.10     -2.78
   -1    9   19     -9.53     -1.64
   -1    9   20      1.43      8.39
   -1    9   21      8.20     -0.10
   -1    9   22      0.65     -1.37
   -1    9   23      0.58     -2.95
   -1    9   24      0.22     -0.69
   -1    9   25     -0.29     -9.06
   -1    9   26     -3.65      2.45
   -1    9   27     12.93     -9.25
    0    9    0      7.25      5.23
    0    9    1     44.39     -0.00
    0    9    2      1.75     -0.18
    0    9    3     -4.74     -1.68
    0    9    4     -7.47     -0.28
    0    9    5      0.20     -1.62
    0    9    6     10.93      2.96
    0    9    7     11.93     -0.22
    0    9    8      6.15     -2.34
    0    9    9    -10.75      3.76
    0    9   10      0.66      0.59
    0    9   11     24.09      3.45
    0    9   12     -1.43      0.74
    0    9   13     22.13      4.86
    0    9   14      2.79     -1.64
    0    9   15      0.63     20.70
    0    9   16      5.65      0.82
    0    9   17     20.74      4.84
    0    9   18      2.44      1.80
    0    9   19     22.34      0.48
    0    9   20     -3.10     -1.56
    0    9   21     -3.83      2.69
    0    9   22     -1.85      1.78
    0    9   23     10.04     -1.76
    0    9   24      4.72      1.96
    0    9   25     17.65     -0.45
    0    9   26     -6.26      0.72
   -5   10    0     15.86     11.36
   -5   10    2      2.10     -2.93
   -5   10    4      1.44     -0.44
   -5   10    6      1.13     -3.85
   -5   10    8    -16.59     -4.22
   -5   10   10     -1.92     -5.03
   -5   10   12     -2.01     -0.09
   -5   10   14    -11.48     -8.68
   -5   10   16     -4.68      1.54
   -5   10   18     -2.79     -9.73
   -5   10   20      0.72     -0.78
   -5   10   22      1.72     -7.72
   -5   10   24     -6.03     -3.68
   -5   10   26     -6.45      1.08
   -4   10    0    -18.69      0.33
   -4   10    1      1.51      0.21
   -4   10    2     -6.71      0.94
   -4   10    3     -8.87     -3.54
   -4   10    4     -2.93     -1.69
   -4   10    5     -1.88     -0.90
   -4   10    6     -2.94     -1.50
   -4   10    7     -5.42      3.59
   -4   10    8      3.96     -1.36
   -4   10    9     -7.33      0.45
   -4   10   10     -1.38     -2.65
   -4   10   11      2.72     -1.11
   -4   10   12     -3.60     -4.63
   -4   10   13      6.45     -1.35
   -4   10   14      3.20      3.27
   -4   10   15      1.09     -0.07
   -4   10   16      1.80     -3.63
   -4   10   17     -4.66     -1.77
   -4   10   18     -2.52     -3.60
   -4   10   19      1.80      2.16
   -4   10   20     -2.23     -2.54
   -4   10   21      1.17     -8.91
   -4   10   22     -4.83     -3.06
   -4   10   23      3.65     10.85
   -4   10   24     -3.57    -11.68
   -4   10   25     12.41      8.60
   -4   10   26     -2.51     -6.92
   -4   10   27     -1.69      9.47
   -3   10    0     11.44    -10.90
   -3   10    1      5.54      9.98
   -3   10    2      4.24     -7.65
   -3   10    3     -1.44      1.03
   -3   10    4      7.01     -1.76
   -3   10    5     -7.69     -4.72
   -3   10    6     -8.09     -7.88
   -3   10    7     -1.96      0.16
   -3   10    8      9.77     -3.51
   -3   10    9     -0.93     -5.11
   -3   10   10     -1.53     -0.17
   -3   10   11     -1.59     -6.54
   -3   10   12     -0.51      1.54
   -3   10   13     -6.25     -2.11
   -3   10   14    -13.67      2.67
   -3   10   15      4.60     -2.04
   -3   10   16     -5.00     -0.76
   -3   10   17      5.69     -4.00
   -3   10   18      0.68      0.69
   -3   10   19     -5.97     -0.12
   -3   10   20     -2.15     -3.11
   -3   10   21      0.88     11.22
   -3   10   22     -3.17     -0.75
   -3   10   23      2.93     -3.27
   -3   10   24      6.28     -0.80
   -3   10   25     -4.36      4.05
   -3   10   26      7.39     -0.80
   -2   10    0     10.35      0.34
   -2   10    1      9.87     -7.36
   -2   10    2     -9.01     -3.34
   -2   10    3      6.85      2.96
   -2   10    4    -18.68     -7.15
   -2   10    5     11.05      2.63
   -2   10    6     -1.86    -10.59
   -2   10    7      3.83     -9.57
   -2   10    8    -14.27    -15.65
   -2   10    9     -4.00     -1.20
   -2   10   10     -4.27     -0.57
   -2   10   11      4.36      2.35
   -2   10   12     -5.12      0.31
   -2   10   13      9.71     -4.22
   -2   10   14     -2.52    -10.08
   -2   10   15     -9.15     -1.90
   -2   10   16     -2.00     -5.03
   -2   10   17     -2.56      0.12
   -2   10   18      2.38      0.88
   -2   10   19     -5.35     -0.25
   -2   10   20     -2.42      0.97
   -2   10   21     -7.22     -1.40
   -2   10   22      5.71     -1.54
   -2   10   23     -8.47     -0.62
   -2   10   24     -4.05     -0.51
   -2   10   25     -1.52      1.33
   -1   10    0     -9.84     -5.22
   -1   10    1    -24.63     -4.19
   -1   10    2     -5.91      6.40
   -1   10    3     -1.63     -0.65
   -1   10    4      3.64      1.42
   -1   10    5     -3.36      5.90
   -1   10    6    -13.42     -0.24
   -1   10    7    -13.48     12.18
   -1   10    8      7.57      2.70
   -1   10    9     10.94     -5.00
   -1   10   10    -10.26     -1.35
   -1   10   11    -14.12      3.03
   -1   10   12      0.14     -3.24
   -1   10   13     -4.91      4.01
   -1   10   14     -0.17     -1.49
   -1   10   15      1.46    -18.80
   -1   10   16     -3.78      2.47
   -1   10   17     -2.40     -1.30
   -1   10   18     -1.54     -0.94
   -1   10   19     -5.19      3.60
   -1   10   20     -2.41     -1.78
   -1   10   21      1.04     -6.27
   -1   10   22      3.19      0.34
   -1   10   23     -0.88     -0.84
   -1   10   24     -1.49      0.81
    0   10    0     16.36    -13.49
    0   10    1     -5.09      0.69
    0   10    2      9.13     -0.66
    0   10    3     -4.30      2.48
    0   10    4      6.45      0.47
    0   10    5     -0.72      3.69
    0   10    6      6.33     -3.35
    0   10    7      4.49      2.04
    0   10    8    -25.34      5.13
    0   10    9     -2.03     -0.67
    0   10   10     27.38      3.84
    0   10   11      7.80      2.64
    0   10   12     10.83      3.44
    0   10   13     -2.05      3.42
    0   10   14      6.43      3.04
    0   10   15      9.42     -5.20
    0   10   16      4.31      0.70
    0   10   17     -0.60      2.38
    0   10   18     -9.67      1.25
    0   10   19      0.16      3.05
    0   10   20      5.10     -0.37
    0   10   21      5.97     -0.35
    0   10   22    -20.65     -0.36
   -5   11    0     -7.88      3.35
   -5   11    1    -10.19      2.50
   -5   11    2     -5.15      8.30
   -5   11    3      4.11      1.58
   -5   11    4     -9.37      3.25
   -5   11    5     -5.24     -3.45
   -5   11    6     -3.89      2.99
   -5   11    7     -5.15    -11.31
   -5   11    8      6.64     -3.21
   -5   11    9      4.13     -3.09
   -5   11   10     -3.82      1.01
   -5   11   11    -11.65     -0.21
   -5   11   12      5.57     -2.46
   -5   11   13     -4.24     -8.43
   -5   11   14      1.65     -2.44
   -5   11   15     -1.93     -3.36
   -5   11   16      0.18     -0.62
   -5   11   17      7.11     -6.14
   -5   11   18      2.37     -0.47
   -5   11   19      3.94    -10.28
   -5   11   20     -4.95     -3.27
   -5   11   21     -6.35      5.54
   -5   11   22     -5.90     -1.09
   -5   11   23      9.11     -6.23
   -5   11   24     -2.07      4.36
   -4   11    0      7.97     -0.66
   -4   11    1      1.88     -8.49
   -4   11    2      4.39     -0.98
   -4   11    3     -2.86      0.87
   -4   11    4      1.47     -1.24
   -4   11    5     -1.98     -1.81
   -4   11    6     -1.20      2.54
   -4   11    7     -1.53     -7.60
   -4   11    8    -16.52     -2.66
   -4   11    9     -1.47     -0.98
   -4   11   10      2.19      0.60
   -4   11   11     -0.63     -3.80
   -4   11   12     -2.84      2.48
   -4   11   13     -3.62     -3.02
   -4   11   14     -1.85     -4.43
   -4   11   15     -0.68     -4.68
   -4   11   16     -3.71     -1.81
   -4   11   17     -6.17      1.00
   -4   11   18     -4.27      2.92
   -4   11   19     -1.61     -1.92
   -4   11   20     -7.04     -0.82
   -4   11   21      2.90     -1.51
   -4   11   22      3.04      3.83
   -4   11   23     -3.62      0.08
   -3   11    0    -10.13     -0.68
   -3   11    1     -6.11      3.92
   -3   11    2      1.54     -5.59
   -3   11    3      1.91     -4.19
   -3   11    4      5.35     -1.74
   -3   11    5      0.59     -0.08
   -3   11    6      1.58     -2.36
   -3   11    7      1.08     13.85
   -3   11    8    -10.07      0.88
   -3   11    9      3.32     -1.39
   -3   11   10     -5.11     -9.26
   -3   11   11      0.91      4.22
   -3   11   12     -3.83     -2.07
   -3   11   13     -7.25     -5.88
   -3   11   14      3.86      0.52
   -3   11   15     -0.12     -1.08
   -3   11   16      1.82      6.28
   -3   11   17     -3.70      3.30
   -3   11   18     -1.99     -0.75
   -3   11   19      0.03     -0.98
   -3   11   20      6.18      5.37
   -3   11   21     -0.41      1.97
   -3   11   22      0.60      0.00
   -2   11    0     -9.38    -13.51
   -2   11    1     11.62     10.57
   -2   11    2      3.09    -11.95
   -2   11    3     -2.79      1.74
   -2   11    4      0.52     -4.23
   -2   11    5      0.94     -5.01
   -2   11    6     -2.41      2.77
   -2   11    7      9.60     -2.37
   -2   11    8      8.26      7.69
   -2   11    9     -1.53     -1.52
   -2   11   10      0.57     -3.08
   -2   11   11      5.91    -10.23
   -2   11   12      2.68     -7.95
   -2   11   13      5.31      1.63
   -2   11   14     -3.35      2.74
   -2   11   15     -0.43      2.08
   -2   11   16     -8.54     -3.47
   -2   11   17      2.52     -8.09
   -2   11   18     -3.78      0.78
   -2   11   19      2.67     -1.29
   -2   11   20      2.88     -1.76
   -2   11   21     -8.57     -0.42
   -1   11    0      3.97     11.37
   -1   11    1      2.57     -2.25
   -1   11    2      0.52      1.56
   -1   11    3      6.20      4.40
   -1   11    4    -20.42      3.78
   -1   11    5     -3.16     -0.32
   -1   11    6      5.37      6.65
   -1   11    7     -0.28     -4.92
   -1   11    8      1.79     -0.09
   -1   11    9      2.45     12.41
   -1   11   10     -2.31      5.29
   -1   11   11     -4.39      2.58
   -1   11   12     -1.14      7.41
   -1   11   13      2.90     -6.31
   -1   11   14     -1.85     -3.81
   -1   11   15     -1.89     16.80
   -1   11   16     14.14     -2.12
   -1   11   17     -7.22      3.50
   -1   11   18      7.77      0.90
   -1   11   19     -4.79     -7.65
    0   11    0      0.65      6.04
    0   11    1      3.00      0.61
    0   11    2      4.55     -1.88
    0   11    3      3.04     -0.07
    0   11    4     31.90     -1.82
    0   11    5      5.47     -0.29
    0   11    6      4.46      3.92
    0   11    7      2.22     -0.27
    0   11    8     23.21     -1.31
    0   11    9     -3.42     -0.43
    0   11   10    -16.76     -0.73
    0   11   11      1.13     -0.99
    0   11   12     -6.51      0.98
    0   11   13     -9.18     -0.23
    0   11   14      4.36     -0.64
    0   11   15    -21.46     -4.72
    0   11   16    -26.77      0.75
   -6   12    0      2.69     11.25
   -6   12    2     -1.24     -0.39
   -6   12    4      2.49     20.35
   -6   12    6     -3.10     -1.73
   -6   12    8      6.01     -1.46
   -6   12   10      1.81      2.25
   -6   12   12     -1.47    -10.09
   -6   12   14      5.58     -6.31
   -6   12   16      4.70     -3.46
   -6   12   18     -3.97      1.87
   -6   12   20      5.50      5.67
   -5   12    0     -3.76     -3.09
   -5   12    1      2.36      2.28
   -5   12    2     -1.27      0.18
   -5   12    3     -0.48     -3.52
   -5   12    4      8.42     -9.04
   -5   12    5     -2.25      3.83
   -5   12    6      3.27      1.52
   -5   12    7      0.20      5.19
   -5   12    8     -7.85      6.83
   -5   12    9     -7.11     -0.79
   -5   12   10      8.46     -5.60
   -5   12   11      3.17     -1.55
   -5   12   12      0.39      3.54
   -5   12   13     -1.30      1.52
   -5   12   14      2.98      1.27
   -5   12   15     -2.67      2.21
   -5   12   16     -0.04     -2.79
   -5   12   17     -2.11     -4.37
   -5   12   18      0.17     -2.29
   -5   12   19      4.34      3.19
   -4   12    0      3.42      5.54
   -4   12    1      1.87      0.20
   -4   12    2    -10.92      9.44
   -4   12    3     -1.38      1.90
   -4   12    4    -21.11      8.02
   -4   12    5      4.00     -6.48
   -4   12    6     -1.90      4.40
   -4   12    7      0.71     -3.65
   -4   12    8     21.01      9.96
   -4   12    9     -1.21     -1.95
   -4   12   10    -14.58     10.88
   -4   12   11     -3.27     -3.54
   -4   12   12     -4.09     -1.35
   -4   12   13      3.32      7.92
   -4   12   14     -4.56      4.90
   -4   12   15     -7.64     -2.01
   -4   12   16     -3.78      1.35
   -4   12   17      4.68      0.29
   -4   12   18     -3.55     -1.67
   -3   12    0      2.14      4.21
   -3   12    1      0.45     -3.34
   -3   12    2     -1.14      2.08
   -3   12    3      5.58      1.89
   -3   12    4      4.34      2.43
   -3   12    5      1.73     11.92
   -3   12    6      0.66      1.86
   -3   12    7      1.61     -6.97
   -3   12    8     -6.56     -8.80
   -3   12    9      1.45      2.84
   -3   12   10      5.85      6.87
   -3   12   11     -1.95      0.43
   -3   12   12     -3.66      3.80
   -3   12   13     -0.00     -8.40
   -3   12   14     -1.83     -0.67
   -3   12   15      7.42      3.69
   -3   12   16     10.17      0.44
   -3   12   17     -3.21      3.86
   -2   12    0     -4.33     -2.92
   -2   12    1     -7.88     -7.77
   -2   12    2     -6.53      2.72
   -2   12    3     -3.94      1.08
   -2   12    4      6.26     -5.62
   -2   12    5      7.31      5.24
   -2   12    6     -0.20      1.30
   -2   12    7     -0.09      8.21
   -2   12    8     -6.76      7.60
   -2   12    9      3.84     -3.19
   -2   12   10      0.59     -4.53
   -2   12   11      7.53      3.80
   -2   12   12      0.33      5.64
   -2   12   13     -2.53      7.78
   -2   12   14      4.93      7.25
   -2   12   15     -2.72    -11.35
   -1   12    0     -4.34      9.50
   -1   12    1      1.59     11.33
   -1   12    2      2.10     10.62
   -1   12    3     -2.04     -1.08
   -1   12    4     11.72     14.49
   -1   12    5      7.84     -0.12
   -1   12    6    -10.63     -5.08
   -1   12    7      4.48      2.46
   -1   12    8     -6.87     -6.09
   -1   12    9     -3.15     -0.76
   -1   12   10      5.91     10.27
   -1   12   11      0.49      3.36
    0   12    0      7.08     -1.19
    0   12    1      3.81     -0.31
    0   12    2     -4.84      2.51
    0   12    3      1.98     -0.66
    0   12    4    -47.50      6.20
   -6   13    0     -3.29     -6.61
   -6   13    1      8.64     -0.42
   -6   13    2     -4.40      1.70
   -6   13    3     -4.38      1.30
   -6   13    4     -6.97     -6.44
   -6   13    5      3.70     -1.21
   -6   13    6      3.71      3.71
   -6   13    7      2.88     -0.32
   -6   13    8      2.07      3.24
   -6   13    9     -0.22      3.73
   -6   13   10     -1.10     -0.68
   -6   13   11      2.99      1.43
   -6   13   12     -0.16      4.60
   -6   13   13     -0.47     -1.43
   -6   13   14     -4.08      3.71
   -5   13    0     -8.69      8.84
   -5   13    1     -6.59      0.88
   -5   13    2      5.67     -4.57
   -5   13    3      0.93      0.90
   -5   13    4      1.98      5.33
   -5   13    5     -4.42      4.51
   -5   13    6     -7.92     -4.76
   -5   13    7     -3.72      6.38
   -5   13    8     -6.50     -7.42
   -5   13    9      0.50      3.94
   -5   13   10     -4.10      1.39
   -5   13   11     -9.42     11.09
   -5   13   12      2.98     -0.18
   -5   13   13     -5.07      3.26
   -4   13    0    -10.32     -5.58
   -4   13    1     -4.07      4.59
   -4   13    2     -2.71     -0.21
   -4   13    3     -2.17      6.14
   -4   13    4      7.42      0.53
   -4   13    5     -2.52      5.95
   -4   13    6     -5.76      3.45
   -4   13    7     -8.68      6.69
   -4   13    8    -13.16     -2.79
   -4   13    9     -1.25      5.55
   -4   13   10      8.59     -2.63
   -4   13   11     -0.34     -2.93
   -3   13    0      5.00      0.92
   -3   13    1      1.58      2.50
   -3   13    2      1.51      2.48
   -3   13    3     -2.05      3.91
   -3   13    4    -10.59     -0.65
   -3   13    5    -11.73     -7.35
   -3   13    6     -0.38     -5.68
   -3   13    7     -3.89     -1.86
   -3   13    8      8.17      7.24
    0    1    0   -302.77      3.31
   -2   13    0     12.87      5.02
   -1   13    0    -14.97      2.60
    0   13    0      8.29     -0.47
   -7   14    0     23.37      2.31
   -6   14    0     -6.61     -1.46
   -5   14    0     18.22     -3.01
   -4   14    0     -0.65      5.00
   -3   14    0      0.24     -5.69
    0    1    1     -2.37     -1.35
   -2   13    1      5.77      1.55
   -1   13    1     -6.13     -4.98
    0   13    1     -2.11      0.74
   -6   14    1     -0.83      3.01
   -5   14    1      2.73     -4.02
   -4   14    1      4.10      1.63
   -3   14    1     -5.12     -0.64
    0    0    2    143.94     -4.19
    0    1    2     94.39      2.10
   -2   13    2      4.11     -2.19
   -1   13    2     -3.29      4.95
    0   13    2      0.88     -0.19
   -7   14    2      3.03     -8.55
   -6   14    2      4.14      2.71
   -5   14    2     -4.63      0.61
   -4   14    2      8.19     -2.75
   -3   14    2      1.63     -1.97
    0    1    3     23.33     -3.57
   -2   13    3      6.40     -5.48
   -1   13    3     -0.94      8.36
    0   13    3     -0.38      0.18
   -6   14    3      2.85      2.07
   -5   14    3     -1.83     -0.86
   -4   14    3     -5.25     -5.90
   -3   14    3     -1.76      0.17
    0    0    4     93.97      0.51
    0    1    4     84.86      0.29
   -2   13    4     -6.45      1.55
   -1   13    4     11.48     -5.11
    0   13    4     11.86     -0.34
   -7   14    4      6.22      8.35
   -6   14    4      2.53     -2.37
   -5   14    4     -1.31     -6.35
   -4   14    4      1.15      0.53
   -3   14    4      9.49      0.37
    0   12    5     -9.34     -0.71
   -2   13    5     -2.22     -0.24
   -1   13    5     -0.93      6.26
    0   13    5      4.63      0.89
   -6   14    5      2.20      0.33
   -5   14    5     -2.57     -1.42
   -4   14    5      1.42     -2.43
   -3   14    5      4.74      1.91
    0   12    6      5.96     -0.79
   -2   13    6      8.40      4.60
   -1   13    6     -3.40      8.08
   -7   14    6     -5.87      0.32
   -6   14    6      3.37     -1.68
   -5   14    6      9.83     -2.27
   -4   14    6     -1.41     -0.13
   -3   14    6      1.25      0.62
    0   12    7     -1.71     -0.53
   -2   13    7      1.37      4.12
   -1   13    7     -1.25     -0.29
   -6   14    7     -0.14      1.74
   -5   14    7      2.35     -7.36
   -4   14    7      1.07      3.97
   -3   14    7     -1.03     -4.46
    0   12    8    -10.58      1.97
   -2   13    8      5.65     -3.25
   -1   13    8     -0.06      8.44
   -7   14    8      0.16     -3.04
   -6   14    8      2.76      0.67
   -5   14    8      6.32      2.36
   -4   14    8      1.85     -2.64
   -3   14    8     -3.31     -3.60
    0   12    9      9.48      0.05
   -3   13    9     -7.10     -0.95
   -2   13    9      5.26      2.32
   -1   13    9     -3.38      3.10
   -6   14    9      2.65     -0.62
   -5   14    9     -4.60     -4.02
   -4   14    9     -0.80     -3.00
   -3   14    9      0.20      2.52
    0   12   10     -2.87      1.18
   -3   13   10    -10.12      1.79
   -2   13   10      2.20      0.30
   -1   13   10     -3.32     -6.26
   -7   14   10     -2.83     13.28
   -6   14   10      2.85     -0.90
   -5   14   10     -0.32     -5.46
   -4   14   10      0.22     -1.60
    0   12   11     -4.03      0.68
   -3   13   11     -4.19      2.92
   -2   13   11     -2.73     -2.38
   -1   13   11      3.11      0.34
   -6   14   11      4.77     -2.84
   -5   14   11      1.56     -3.30
   -4   14   11      1.00      0.31
   -1   12   12     -0.62     -2.45
    0   12   12     -5.25     -0.35
   -4   13   12      0.12      1.79
   -3   13   12      2.03      2.36
   -2   13   12      2.12     -1.24
   -1   13   12     -2.00      3.00
   -7   14   12     -0.67     -0.86
   -6   14   12     -0.38     -0.53
   -5   14   12     -2.94     -0.75
   -4   14   12      2.63     -5.10
   -1   12   13      1.87     -0.75
    0   12   13      0.51     -0.20
   -4   13   13     -0.26     -1.64
   -3   13   13     -0.73      2.04
   -2   13   13     -0.15     -1.37
   -6   14   13      3.44     -0.96
   -5   14   13     -0.61     -3.87
   -1   12   14     -8.40      1.52
    0   12   14     -7.25      0.78
   -5   13   14     -0.14     -1.42
   -4   13   14     -4.70     -1.20
   -3   13   14      6.86     -1.10
   -2   13   14     -0.35      1.50
   -7   14   14      4.80      2.36
   -6   14   14     -0.30     -2.02
   -5   14   14      5.29      2.33
   -1   12   15      4.12     -1.35
    0   12   15     10.43      1.77
   -6   13   15     -0.32     -0.77
   -5   13   15      3.97      2.68
   -4   13   15     -1.67     -1.85
   -3   13   15     -2.59     -0.17
   -2   13   15      3.47      2.35
   -6   14   15      2.24     -0.68
   -2   12   16     -2.76      2.80
   -1   12   16      0.92      5.37
    0   12   16      4.95     -0.57
   -6   13   16     -1.52      5.12
   -5   13   16      1.90     -2.77
   -4   13   16     -7.39      3.04
   -3   13   16      1.60      0.88
   -2   13   16      2.90     -0.67
   -7   14   16     -1.08     -2.62
    0   11   17      2.31     -2.17
   -2   12   17      4.98     -1.65
   -1   12   17     -3.71     -2.65
    0   12   17      1.03      0.99
   -6   13   17      7.58      4.92
   -5   13   17     -3.36      2.85
   -4   13   17     -1.29     -7.39
   -3   13   17      0.75     -0.79
    0   11   18     -9.46     -0.90
   -3   12   18      9.01      6.01
   -2   12   18      1.45     -3.31
   -1   12   18     -0.77      3.02
   -6   13   18      4.14      0.89
   -5   13   18      0.81     -2.10
   -4   13   18     -1.97     -0.26
   -3   13   18      1.06      3.50
    0   11   19     -1.10     -0.40
   -4   12   19     -3.39      6.80
   -3   12   19      0.15     -2.50
   -2   12   19     -1.81      3.02
   -1   12   19      2.56     -2.20
   -6   13   19     -2.70      0.26
   -5   13   19      4.76     -5.57
   -4   13   19      0.00     -5.13
   -1   11   20     -7.60      0.09
    0   11   20     -3.12      1.36
   -5   12   20      2.28     -0.26
   -4   12   20     -0.55      3.66
   -3   12   20      1.47     -3.97
   -2   12   20      8.94      7.10
   -1   12   20     -2.55     -4.47
   -6   13   20      0.47     -0.41
   -5   13   20     -2.81     -7.03
   -4   13   20     -1.09      3.64
   -1   11   21     -2.99      3.99
    0   11   21     -1.28     -1.96
   -5   12   21     12.92     -4.04
   -4   12   21     -1.49     -3.73
   -3   12   21      0.88      3.83
   -2   12   21      5.65     -7.54
   -6   13   21      2.00      2.48
   -5   13   21     -6.81      4.04
   -2   11   22     -6.92      4.76
   -1   11   22     11.18     -0.97
    0   11   22     -6.79      0.07
   -6   12   22      7.97      4.91
   -5   12   22     -3.30     -1.57
   -4   12   22     -5.13     -3.65
   -3   12   22     12.13      3.85
   -2   12   22     -2.25     -3.77
    0   10   23      5.73      1.61
   -3   11   23     -0.91      2.59
   -2   11   23      1.51      0.71
   -1   11   23     -6.31     -1.14
    0   11   23      1.82     -2.05
   -5   12   23      2.43      2.02
   -4   12   23      3.53     -2.38
   -3   12   23     -1.58     -0.87
    0   10   24     -8.20     -1.16
   -4   11   24     -3.24      9.82
   -3   11   24     -0.23     -4.57
   -2   11   24      4.26     -0.18
   -1   11   24     -0.41      0.63
   -6   12   24      8.59     -1.26
   -5   12   24     -3.21     -4.79
   -4   12   24     -2.08     -1.96
   -3   12   24      6.42      4.09
   -1   10   25     -3.01      0.54
    0   10   25     -1.47      0.25
   -5   11   25      2.49     -5.81
   -4   11   25     -3.06     -2.31
   -3   11   25      5.18     -2.65
   -2   11   25     -6.52      1.34
   -1   11   25      2.44     -1.93
   -5   12   25      3.18      5.77
   -4   12   25      2.84     -2.13
   -2   10   26     -3.04     -5.86
   -1   10   26      5.09      1.34
    0   10   26     -2.89     -2.30
   -5   11   26      1.32      1.43
   -4   11   26     -5.13      3.68
   -3   11   26     -3.62      1.64
   -2   11   26      3.37     -1.66
   -6   12   26     -2.76     -2.03
    0    9   27     -3.62      2.45
   -3   10   27      1.68      5.90
   -2   10   27     -2.70     -2.74
   -1   10   27      1.76      5.55
    0   10   27      3.35     -0.14
   -5   11   27      4.47      0.54
   -4   11   27      6.60     -6.03
   -3   11   27     -0.98     -2.19
   -2   11   27     -4.74     -0.02
   -1    9   28     14.39     -2.43
    0    9   28     -4.22      0.96
   -5   10   28     -1.02      4.45
   -4   10   28      1.98      0.39
   -3   10   28      0.12     -8.87
   -2   10   28      0.39     -5.05
   -1   10   28     -2.31     -2.01
   -5   11   28     -0.59     -2.81
   -4   11   28      0.04      4.07
   -3   11   28     -3.49      2.11
   -2    9   29     -1.67      7.00
   -1    9   29     -8.21     -2.61
    0    9   29     -7.01     -1.06
   -4   10   29      7.59      4.60
   -3   10   29     -5.44      3.03
   -2   10   29      2.11     -9.68
   -1   10   29      7.01      6.22
   -5   11   29     -0.42      1.02
    0    8   30    -24.78      0.69
   -3    9   30      8.76     -1.10
   -2    9   30     -3.01      9.67
   -1    9   30     -2.46     -2.44
    0    9   30     17.12      0.07
   -5   10   30     -4.21     -0.04
   -4   10   30     -2.42     -6.28
   -3   10   30      4.62     -2.50
   -2   10   30     -2.88     -3.00
   -1    8   31     14.16     -4.34
    0    8   31      9.03     -0.65
   -4    9   31     -8.37      7.70
   -3    9   31      7.05      5.18
   -2    9   31      5.19    -13.03
   -1    9   31     -7.03     -3.22
    0    9   31      9.80     -2.14
   -4   10   31      4.59     -2.50
   -3   10   31     -7.95      5.15
   -2    8   32     -2.22     10.63
   -1    8   32     20.83      7.74
    0    8   32      4.42     -0.64
   -4    9   32     -1.61      2.93
   -3    9   32      8.27     -3.61
   -2    9   32     -3.51      1.82
   -1    9   32    -11.10     -1.96
   -5   10   32      3.39      2.46
    0    7   33     -7.91     -1.11
   -3    8   33     -2.38     12.38
   -2    8   33      7.15     -0.33
   -1    8   33     -7.15     -4.12
    0    8   33      6.25     -3.87
   -4    9   33      2.40     -1.49
   -3    9   33      2.16     -0.06
   -2    9   33     -4.55     -0.64
   -2    7   34      7.17    -11.50
   -1    7   34      0.70     -0.42
    0    7   34     -3.91     -1.15
   -4    8   34      9.35     -2.71
   -3    8   34     -6.70     -0.51
   -2    8   34      1.48      4.82
   -1    8   34      0.47      3.57
   -4    9   34     -2.70      0.21
   -1    6   35     14.57    -13.94
    0    6   35     -1.26      0.71
   -3    7   35      9.59     -7.88
   -2    7   35     -8.37     -3.74
   -1    7   35     -3.74     -0.99
    0    7   35    -10.06     -1.09
   -3    8   35      2.63      4.52
   -2    8   35      3.99     -1.72
    0    5   36    -13.22     -3.04
   -3    6   36     27.79     19.15
   -2    6   36      3.09      7.25
   -1    6   36     -3.19     -3.05
    0    6   36     -5.60     -1.06
   -3    7   36     -4.23    -15.45
   -2    7   36     -1.77      5.03
   -1    7   36      5.58     -3.46
    0    7   36     -6.12      2.81
   -4    8   36      1.82     12.32
   -3    8   36     -3.51     -5.27
   -2    5   37     -7.55     23.61
   -1    5   37      1.61      1.46
    0    5   37      2.35     -1.49
   -2    6   37      6.21    -11.86
   -1    6   37      0.70      5.24
    0    6   37      1.57     -2.64
   -3    7   37     -1.05      5.63
   -2    7   37     -5.58     -4.05
   -2    4   38     -5.83      3.41
   -1    4   38     11.59     -2.29
    0    4   38     -0.16     -2.69
   -2    5   38     -6.34      6.79
   -1    5   38     -5.54      4.81
    0    5   38     -1.73     -0.28
   -3    6   38      0.67     -3.35
   -2    6   38      1.62     10.02
   -1    6   38      0.21     -0.28
    0    2   39     11.19     -0.32
   -1    3   39      0.33      1.41
    0    3   39     -2.80     -1.55
   -1    4   39      3.91      2.91
    0    4   39    -10.18      0.99
   -2    5   39     -3.73     -0.32
   -1    5   39      5.16      3.48
    0    5   39     -0.12      0.31
   -2    6   39      1.26     -3.55
    0    0   40     29.00    -10.20
    0    1   40    -12.99     -2.60
   -1    2   40     17.80      0.28
    0    2   40      3.89      0.88
   -1    3   40     -5.84     -2.29
    0    3   40     -1.98      0.48
   -2    4   40     -5.19     -3.17
   -1    4   40      4.70      1.15
    0    4   40      0.80     -1.32
   -2    5   40     -1.02      4.97
   -1    5   40     -2.79      3.30
    0    0    0      0.00      0.00
# SQUEEZE RESULTS (Version =  30118)
# Note: Data are Listed for all Voids in the P1 Unit Cell
# i.e. Centre of Gravity, Solvent Accessible Volume,
# Recovered number of Electrons in the Void and
# Details about the Squeezed Material
loop_
  _platon_squeeze_void_nr
  _platon_squeeze_void_average_x
  _platon_squeeze_void_average_y
  _platon_squeeze_void_average_z
  _platon_squeeze_void_volume
  _platon_squeeze_void_count_electrons
  _platon_squeeze_void_content
   1 -0.093  0.309 -0.006      2341      1099 ' '
# Missing Reflections Below sin(th)/lambda = 0.25
loop_
  _platon_missing_refln_index_h
  _platon_missing_refln_index_k
  _platon_missing_refln_index_l
  _platon_missing_refln_theta
    0    1    0     2.031
    0    1    1     2.125
    0    0    2     1.247
    0    1    2     2.384
    0    1    3     2.762
    0    0    4     2.494
    0    1    4     3.217
_platon_squeeze_void_probe_radius                  1.20
_platon_squeeze_details
)
TITL gy1099_a.res in P-62c
CELL   11.5764   11.5764   32.6710     90.00     90.00    120.00
SPGR P-62c
# Solvent Accessible Volume =      2350
# Electrons Found in S.A.V. =      1065
# Note: Atoms in Void are Labelled as Cxxx and Qxxx for all Others
C101 0.671 0.337 0.360 !       6.15 eA-3
C102 0.661 0.330 0.875 !       5.87 eA-3
C103 0.331 0.682 0.468 !       5.82 eA-3
C104 0.341 0.658 0.609 !       5.49 eA-3
C105 0.672 0.355 0.327 !       5.19 eA-3
C106 0.360 0.800 0.344 !       5.14 eA-3
C107 0.338 0.664 0.156 !       5.09 eA-3
C108 0.671 0.334 0.592 !       4.82 eA-3
C109 0.405 0.603 0.819 !       4.74 eA-3
C110 0.340 0.663 0.445 !       4.73 eA-3
C111 0.671 0.994 0.002 !       4.71 eA-3
C112 0.673 0.352 0.460 !       4.64 eA-3
C113 0.437 0.653 0.374 !       4.58 eA-3
C114 0.823 0.413 0.297 !       4.48 eA-3
C115 0.424 0.793 0.132 !       4.35 eA-3
C116 0.672 0.343 0.684 !       4.08 eA-3
C117 0.829 0.133 0.991 !       4.05 eA-3
C118 0.342 0.581 0.624 !       3.99 eA-3
C119 0.434 0.794 0.657 !       3.70 eA-3
Q120 0.187 0.931 0.469 !       3.67 eA-3
C121 0.330 0.657-0.001 !       3.66 eA-3
Q122 0.083 0.471 0.353 !       3.57 eA-3
C123 0.361 0.774 0.185 !       3.55 eA-3
Q124 0.842 0.543 0.150 !       3.53 eA-3
Q125 0.093 0.708 0.797 !       3.50 eA-3
C126 0.387 0.385 0.516 !       3.47 eA-3
C127 0.416 0.653 0.314 !       3.46 eA-3
C128 0.627 1.003 0.518 !       3.42 eA-3
Q129 0.172 0.712 0.788 !       3.42 eA-3
C130 0.408 0.731 0.109 !       3.40 eA-3
C131 0.465 0.503 0.025 !       3.38 eA-3
C132 0.571 0.414 0.360 !       3.37 eA-3
C133 0.579 0.979 0.047 !       3.37 eA-3
C134 0.576 0.341 0.829 !       3.36 eA-3
C135 0.437 0.653 0.407 !       3.32 eA-3
C136 0.657 0.435 0.906 !       3.29 eA-3
C137 0.184 0.676 0.798 !       3.21 eA-3
Q138 0.500 0.604 0.303 !       3.15 eA-3
C139 0.190 0.302 0.460 !       3.14 eA-3
C140 0.610 0.343 0.751 !       3.12 eA-3
Q141 0.079 0.544 0.746 !       3.08 eA-3
Q142 0.297 0.037 0.990 !       3.07 eA-3
C143 0.750 0.402 0.796 !       3.06 eA-3
C144 0.281 0.715 0.787 !       2.96 eA-3
Q145 0.892 0.206 0.014 !       2.93 eA-3
C146 0.985 0.585 0.955 !       2.90 eA-3
C147 0.516 0.147 0.680 !       2.87 eA-3
C148 0.387 0.306 0.493 !       2.87 eA-3
C149 0.530 0.457 0.493 !       2.86 eA-3
Q150 0.768 0.208 0.797 !       2.84 eA-3
C151 0.407 0.703 0.578 !       2.84 eA-3
Q152 0.778 0.464 0.804 !       2.83 eA-3
Q153 0.611 0.546 0.749 !       2.77 eA-3
C154 0.941 0.474 0.977 !       2.73 eA-3
Q155 0.095 0.578 0.146 !       2.70 eA-3
C156 0.236 0.208 0.009 !       2.70 eA-3
Q157 0.922 0.866 0.631 !       2.69 eA-3
Q158 0.592 0.038 0.367 !       2.69 eA-3
Q159 0.169 0.101 0.022 !       2.67 eA-3
Q160 0.597 0.998 0.570 !       2.64 eA-3
C161 0.611 0.958 0.963 !       2.62 eA-3
Q162 0.640 0.196 0.234 !       2.61 eA-3
C163 0.592 0.204 0.024 !       2.60 eA-3
C164 0.543 0.075 0.468 !       2.57 eA-3
Q165 0.889 0.488 0.796 !       2.57 eA-3
Q166 0.136 0.082 0.297 !       2.55 eA-3
Q167 0.181 0.487 0.797 !       2.54 eA-3
C168 0.265 0.193 0.491 !       2.52 eA-3
C169 0.294 0.290 0.518 !       2.51 eA-3
Q170 0.385 0.078 0.644 !       2.50 eA-3
Q171 0.142 0.687 0.765 !       2.50 eA-3
C172 0.813 0.502 0.320 !       2.47 eA-3
C173 0.500 0.952 0.545 !       2.47 eA-3
C174 0.252 0.619 0.046 !       2.46 eA-3
Q175 0.999 0.346 0.486 !       2.44 eA-3
Q176 0.313 0.213 0.571 !       2.43 eA-3
Q177 0.347 0.998 0.515 !       2.43 eA-3
C178 0.234 0.856 0.492 !       2.40 eA-3
Q179 0.982 0.422 0.297 !       2.39 eA-3
Q180 0.263 0.222 0.048 !       2.38 eA-3
C181 0.684 0.899 0.517 !       2.36 eA-3
C182 0.377 0.472 0.522 !       2.35 eA-3
C183 0.607 0.138 0.680 !       2.35 eA-3
C184 0.218 0.558 0.220 !       2.35 eA-3
Q185 0.422 0.171 0.141 !       2.33 eA-3
C186 0.486 0.743 0.656 !       2.28 eA-3
Q187 0.455 0.158 0.328 !       2.21 eA-3
Q188 0.609 0.575 0.683 !       2.19 eA-3
C189 0.576 0.004 0.993 !       2.18 eA-3
C190 0.358 0.334 0.970 !       2.17 eA-3
Q191 0.488 0.249 0.382 !       2.15 eA-3
Q192 0.703 0.736 0.968 !       2.12 eA-3
C193 0.375 0.606 0.080 !       2.10 eA-3
C194 0.247 0.571 0.820 !       2.08 eA-3
Q195 0.702 0.158 0.678 !       2.08 eA-3
C196 0.581 0.409 0.829 !       2.07 eA-3
Q197 0.342 0.092 0.547 !       2.06 eA-3
Q198 0.999 0.992 0.203 !       2.05 eA-3
Q199 0.756 0.258 0.873 !       2.05 eA-3
)
;
_shelx_fab_checksum              43064
loop_
_space_group_symop_operation_xyz
'x, y, z'
'-x+y, -x, -z+1/2'
'-y, x-y, z'
'x, y, -z+1/2'
'-x+y, -x, z'
'-y, x-y, -z+1/2'
'x-y, -y, -z'
'-x, -x+y, -z'
'y, x, -z'
'y, x, z+1/2'
'x-y, -y, z+1/2'
'-x, -x+y, z+1/2'
loop_
_atom_site_label
_atom_site_type_symbol
_atom_site_fract_x
_atom_site_fract_y
_atom_site_fract_z
_atom_site_U_iso_or_equiv
_atom_site_adp_type
_atom_site_occupancy
_atom_site_site_symmetry_order
_atom_site_calc_flag
_atom_site_refinement_flags_posn
_atom_site_refinement_flags_adp
_atom_site_refinement_flags_occupancy
Re1 Re 0.86299(13) 0.88062(13) 0.63664(6) 0.0825(6) Uani 1 1 d . . .
Re2 Re 0.88270(10) 1.01828(10) 0.70126(6) 0.0672(5) Uani 1 1 d . U .
S1 S 1.000000 1.000000 0.5794(6) 0.083(4) Uani 1 3 d S T P
S2 S 0.7761(7) 1.0333(8) 0.6395(3) 0.086(3) Uani 1 1 d . . .
S3 S 0.7455(8) 0.7830(7) 0.7001(2) 0.062(2) Uani 1 1 d . U .
Br1 Br 0.7207(5) 1.0395(5) 0.750000 0.1062(19) Uani 1 2 d S TU P
C1 C 1.000000 1.000000 0.750000 0.071(7) Uani 1 6 d S TU P
Cl1 Cl 0.6746(9) 0.7194(9) 0.5933(4) 0.115(3) Uani 1 1 d . . .
loop_
_atom_site_aniso_label
_atom_site_aniso_U_11
_atom_site_aniso_U_22
_atom_site_aniso_U_33
_atom_site_aniso_U_23
_atom_site_aniso_U_13
_atom_site_aniso_U_12
Re1 0.0484(9) 0.0530(9) 0.1455(15) -0.0085(8) -0.0099(8) 0.0248(8)
Re2 0.0238(6) 0.0335(7) 0.1468(13) 0.0018(6) -0.0017(6) 0.0161(6)
S1 0.055(5) 0.055(5) 0.140(14) 0.000 0.000 0.028(2)
S2 0.032(4) 0.057(5) 0.173(9) 0.003(5) -0.008(5) 0.026(4)
S3 0.047(4) 0.043(4) 0.121(5) -0.006(3) -0.011(3) 0.041(3)
Br1 0.063(3) 0.085(4) 0.181(5) 0.000 0.000 0.044(3)
C1 0.031(8) 0.031(8) 0.150(14) 0.000 0.000 0.016(4)
Cl1 0.059(6) 0.072(6) 0.183(9) -0.026(6) -0.013(6) 0.008(5)
loop_
_atom_type_symbol
_atom_type_description
_atom_type_scat_dispersion_real
_atom_type_scat_dispersion_imag
_atom_type_scat_source
C C 0.0033 0.0016 'International Tables Vol C Tables 4.2.6.8 and 6.1.1.4'
H H 0.0000 0.0000 'International Tables Vol C Tables 4.2.6.8 and 6.1.1.4'
N N 0.0061 0.0033 'International Tables Vol C Tables 4.2.6.8 and 6.1.1.4'
S S 0.1246 0.1234 'International Tables Vol C Tables 4.2.6.8 and 6.1.1.4'
Cl Cl 0.1484 0.1585 'International Tables Vol C Tables 4.2.6.8 and 6.1.1.4'
Re Re -1.0185 7.2310 'International Tables Vol C Tables 4.2.6.8 and 6.1.1.4'
Br Br -0.2901 2.4595 'International Tables Vol C Tables 4.2.6.8 and 6.1.1.4'
loop_
_geom_angle_atom_site_label_1
_geom_angle_atom_site_label_2
_geom_angle_atom_site_label_3
_geom_angle
_geom_angle_site_symmetry_1
_geom_angle_site_symmetry_3
Re1 Re1 Re1 60.000(1) 5_675 3_765
Re2 Re1 Re1 89.53(4) . 3_765
Re2 Re1 Re1 89.73(4) 3_765 5_675
Re2 Re1 Re1 59.73(5) . 5_675
Re2 Re1 Re1 60.08(5) 3_765 3_765
Re2 Re1 Re2 59.33(7) 3_765 .
S1 Re1 Re1 57.3(2) . 3_765
S1 Re1 Re1 57.3(2) . 5_675
S1 Re1 Re2 117.0(2) . .
S1 Re1 Re2 117.3(2) . 3_765
S1 Re1 S2 90.4(2) . .
S1 Re1 S2 90.4(2) . 3_765
S1 Re1 S3 172.6(3) . .
S1 Re1 Cl1 93.9(4) . .
S2 Re1 Re1 57.9(2) 3_765 3_765
S2 Re1 Re1 57.81(18) . 5_675
S2 Re1 Re1 117.8(2) 3_765 5_675
S2 Re1 Re1 117.76(18) . 3_765
S2 Re1 Re2 57.4(2) . .
S2 Re1 Re2 57.6(2) 3_765 3_765
S2 Re1 Re2 116.8(2) . 3_765
S2 Re1 Re2 116.9(2) 3_765 .
S2 Re1 S2 173.8(4) 3_765 .
S2 Re1 Cl1 92.4(3) . .
S2 Re1 Cl1 93.7(3) 3_765 .
S3 Re1 Re1 117.38(17) . 3_765
S3 Re1 Re1 116.04(18) . 5_675
S3 Re1 Re2 56.32(18) . .
S3 Re1 Re2 57.39(18) . 3_765
S3 Re1 S2 88.1(3) . .
S3 Re1 S2 90.4(3) . 3_765
S3 Re1 Cl1 93.5(3) . .
Cl1 Re1 Re1 134.8(3) . 5_675
Cl1 Re1 Re1 135.9(3) . 3_765
Cl1 Re1 Re2 134.6(3) . .
Cl1 Re1 Re2 135.4(3) . 3_765
Re1 Re2 Re1 60.19(8) 5_675 .
Re1 Re2 Re2 144.74(4) . 4_556
Re1 Re2 Re2 145.02(5) 5_675 4_556
Re2 Re2 Re1 90.27(4) 5_675 .
Re2 Re2 Re1 90.47(4) 3_765 5_675
Re2 Re2 Re1 60.16(5) 3_765 .
Re2 Re2 Re1 60.51(5) 5_675 5_675
Re2 Re2 Re2 60.001(1) 3_765 5_675
Re2 Re2 Re2 90.0 3_765 4_556
Re2 Re2 Re2 90.0 5_675 4_556
Re2 Re2 Br1 132.17(11) 3_765 .
Re2 Re2 Br1 133.30(11) 5_675 .
S2 Re2 Re1 58.1(2) . .
S2 Re2 Re1 58.2(2) . 5_675
S2 Re2 Re2 118.3(2) . 3_765
S2 Re2 Re2 118.7(2) . 5_675
S2 Re2 Re2 146.6(2) . 4_556
S2 Re2 Br1 95.0(2) . .
S3 Re2 Re1 58.19(18) 5_675 5_675
S3 Re2 Re1 58.47(19) . .
S3 Re2 Re1 118.30(18) 5_675 .
S3 Re2 Re1 118.66(19) . 5_675
S3 Re2 Re2 56.98(16) 5_675 5_675
S3 Re2 Re2 58.35(16) . 3_765
S3 Re2 Re2 90.87(18) 5_675 4_556
S3 Re2 Re2 90.89(18) . 4_556
S3 Re2 Re2 116.97(16) 5_675 3_765
S3 Re2 Re2 118.34(16) . 5_675
S3 Re2 S2 89.8(3) . .
S3 Re2 S2 91.3(3) 5_675 .
S3 Re2 S3 175.0(3) . 5_675
S3 Re2 Br1 91.0(2) . .
S3 Re2 Br1 93.7(2) 5_675 .
Br1 Re2 Re1 136.29(12) . .
Br1 Re2 Re1 137.32(12) . 5_675
Br1 Re2 Re2 51.60(8) . 4_556
C1 Re2 Re1 113.93(6) . .
C1 Re2 Re1 114.28(6) . 5_675
C1 Re2 Re2 42.81(4) . 4_556
C1 Re2 Re2 53.95(3) . 3_765
C1 Re2 Re2 53.95(3) . 5_675
C1 Re2 S2 170.6(2) . .
C1 Re2 S3 88.58(17) . 5_675
C1 Re2 S3 89.53(17) . .
C1 Re2 Br1 94.41(10) . .
Re1 S1 Re1 65.4(4) 3_765 .
Re1 S1 Re1 65.4(4) 5_675 .
Re1 S1 Re1 65.4(4) 5_675 3_765
Re1 S2 Re1 64.3(2) 5_675 .
Re2 S2 Re1 64.4(2) . .
Re2 S2 Re1 64.23(19) . 5_675
Re2 S3 Re1 64.4(2) 3_765 .
Re2 S3 Re1 65.2(2) . .
Re2 S3 Re2 64.7(2) . 3_765
Re2 Br1 Re2 76.80(16) 4_556 .
Re2 C1 Re2 72.10(6) . 3_765
Re2 C1 Re2 72.10(6) . 5_675
Re2 C1 Re2 72.10(6) 2_676 4_556
Re2 C1 Re2 72.10(6) 2_676 6_766
Re2 C1 Re2 72.10(6) 3_765 5_675
Re2 C1 Re2 72.10(6) 6_766 4_556
Re2 C1 Re2 94.38(8) . 4_556
Re2 C1 Re2 94.38(8) 2_676 5_675
Re2 C1 Re2 94.38(8) 3_765 6_766
Re2 C1 Re2 140.27(3) . 2_676
Re2 C1 Re2 140.27(3) . 6_766
Re2 C1 Re2 140.27(3) 2_676 3_765
Re2 C1 Re2 140.27(3) 3_765 4_556
Re2 C1 Re2 140.27(3) 4_556 5_675
Re2 C1 Re2 140.27(3) 6_766 5_675
loop_
_geom_bond_atom_site_label_1
_geom_bond_atom_site_label_2
_geom_bond_distance
_geom_bond_site_symmetry_2
_geom_bond_publ_flag
Re1 Re1 2.589(2) 3_765 yes
Re1 Re1 2.589(2) 5_675 ?
Re1 Re2 2.577(2) 3_765 yes
Re1 Re2 2.586(2) . yes
Re1 S1 2.395(14) . yes
Re1 S2 2.431(7) 3_765 yes
Re1 S2 2.433(8) . yes
Re1 S3 2.428(8) . yes
Re1 Cl1 2.485(10) . yes
Re2 Re2 2.5550(18) 3_765 yes
Re2 Re2 2.5550(18) 5_675 ?
Re2 Re2 3.185(4) 4_556 yes
Re2 S2 2.415(9) . yes
Re2 S3 2.370(8) . yes
Re2 S3 2.406(8) 5_675 yes
Re2 Br1 2.564(4) . yes
Re2 C1 2.1707(15) . yes
