#------------------------------------------------------------------------------
#$Date: 2019-10-10 04:06:14 +0300 (Thu, 10 Oct 2019) $
#$Revision: 219233 $
#$URL: file:///home/coder/svn-repositories/cod/cif/7/70/13/7701337.cif $
#------------------------------------------------------------------------------
#
# This file is available in the Crystallography Open Database (COD),
# http://www.crystallography.net/
#
# All data on this site have been placed in the public domain by the
# contributors.
#
data_7701337
loop_
_publ_author_name
'Kodrin, Ivan'
'Borovina, Mladen'
'\<Smital, Luka'
'Vald\'es-Mart\'inez, Jes\'us'
'Aaker\"oy, Christer B'
'\/Dakovi\'c, Marijana'
_publ_section_title
;
 Exploring and predicting intermolecular binding preferences in
 crystalline Cu(ii) coordination complexes.
;
_journal_name_full
'Dalton transactions (Cambridge, England : 2003)'
_journal_paper_doi               10.1039/c9dt03346g
_journal_year                    2019
_chemical_formula_moiety         'C22 H14 Cu F12 N4 O6'
_chemical_formula_sum            'C22 H14 Cu F12 N4 O6'
_chemical_formula_weight         721.91
_space_group_crystal_system      triclinic
_space_group_IT_number           2
_space_group_name_Hall           '-P 1'
_space_group_name_H-M_alt        'P -1'
_symmetry_space_group_name_Hall  '-P 1'
_symmetry_space_group_name_H-M   'P -1'
_atom_sites_solution_hydrogens   geom
_audit_creation_date             2019-07-10
_audit_creation_method
;
Olex2 1.2
(compiled 2018.05.29 svn.r3508 for OlexSys, GUI svn.r5506)
;
_audit_update_record
;
2019-07-23 deposited with the CCDC.    2019-09-30 downloaded from the CCDC.
;
_cell_angle_alpha                86.776(15)
_cell_angle_beta                 73.162(14)
_cell_angle_gamma                63.012(18)
_cell_formula_units_Z            1
_cell_length_a                   8.7980(14)
_cell_length_b                   9.4558(18)
_cell_length_c                   9.9430(15)
_cell_measurement_reflns_used    1531
_cell_measurement_temperature    296
_cell_measurement_theta_max      24.2880
_cell_measurement_theta_min      3.7750
_cell_volume                     702.8(2)
_computing_cell_refinement       'CrysAlisPro 1.171.39.46 (Rigaku OD, 2018)'
_computing_data_collection       'CrysAlisPro 1.171.39.46 (Rigaku OD, 2018)'
_computing_data_reduction        'CrysAlisPro 1.171.39.46 (Rigaku OD, 2018)'
_computing_molecular_graphics    'Olex2 (Dolomanov et al., 2009)'
_computing_publication_material  'Olex2 (Dolomanov et al., 2009)'
_computing_structure_refinement  'ShelXL (Sheldrick, 2015)'
_computing_structure_solution    'ShelXT (Sheldrick, 2015)'
_diffrn_ambient_temperature      296
_diffrn_detector_area_resol_mean 16.3426
_diffrn_measured_fraction_theta_full 0.996
_diffrn_measured_fraction_theta_max 0.997
_diffrn_measurement_device_type  'Xcalibur, Sapphire3'
_diffrn_measurement_method       '\w scans'
_diffrn_radiation_type           MoK\a
_diffrn_radiation_wavelength     0.71073
_diffrn_reflns_av_R_equivalents  0.0379
_diffrn_reflns_av_unetI/netI     0.0698
_diffrn_reflns_Laue_measured_fraction_full 0.996
_diffrn_reflns_Laue_measured_fraction_max 0.997
_diffrn_reflns_limit_h_max       10
_diffrn_reflns_limit_h_min       -7
_diffrn_reflns_limit_k_max       11
_diffrn_reflns_limit_k_min       -11
_diffrn_reflns_limit_l_max       12
_diffrn_reflns_limit_l_min       -12
_diffrn_reflns_number            6111
_diffrn_reflns_point_group_measured_fraction_full 0.996
_diffrn_reflns_point_group_measured_fraction_max 0.997
_diffrn_reflns_theta_full        25.242
_diffrn_reflns_theta_max         25.983
_diffrn_reflns_theta_min         3.798
_diffrn_source                   'Enhance (Mo) X-ray Source'
_exptl_absorpt_coefficient_mu    0.901
_exptl_absorpt_correction_T_max  1.00000
_exptl_absorpt_correction_T_min  0.75886
_exptl_absorpt_correction_type   multi-scan
_exptl_absorpt_process_details
;
CrysAlisPro 1.171.39.46 (Rigaku Oxford Diffraction, 2018)
Empirical absorption correction using spherical harmonics,
 implemented in SCALE3 ABSPACK scaling algorithm.
;
_exptl_crystal_colour            green
_exptl_crystal_colour_primary    green
_exptl_crystal_density_diffrn    1.706
_exptl_crystal_description       block
_exptl_crystal_F_000             359
_exptl_crystal_recrystallization_method
'Re-crystallisation from solvent: EtOH'
_exptl_crystal_size_max          0.26
_exptl_crystal_size_mid          0.11
_exptl_crystal_size_min          0.04
_refine_diff_density_max         1.145
_refine_diff_density_min         -0.240
_refine_diff_density_rms         0.087
_refine_ls_extinction_method     none
_refine_ls_goodness_of_fit_ref   1.042
_refine_ls_hydrogen_treatment    constr
_refine_ls_matrix_type           full
_refine_ls_number_parameters     262
_refine_ls_number_reflns         2755
_refine_ls_number_restraints     114
_refine_ls_restrained_S_all      1.063
_refine_ls_R_factor_all          0.0997
_refine_ls_R_factor_gt           0.0704
_refine_ls_shift/su_max          0.001
_refine_ls_shift/su_mean         0.000
_refine_ls_structure_factor_coef Fsqd
_refine_ls_weighting_details
'w=1/[\s^2^(Fo^2^)+(0.1091P)^2^] where P=(Fo^2^+2Fc^2^)/3'
_refine_ls_weighting_scheme      calc
_refine_ls_wR_factor_gt          0.1761
_refine_ls_wR_factor_ref         0.1927
_reflns_Friedel_coverage         0.000
_reflns_number_gt                1978
_reflns_number_total             2755
_reflns_threshold_expression     'I > 2\s(I)'
_cod_data_source_file            c9dt03346g2.cif
_cod_data_source_block           1a
_cod_database_code               7701337
_shelx_shelxl_version_number     2018/3
_shelx_space_group_comment
;
The symmetry employed for this shelxl refinement is uniquely defined
by the following loop, which should always be used as a source of
symmetry information in preference to the above space-group names.
They are only intended as comments.
;
_shelx_estimated_absorpt_t_max   0.965
_shelx_estimated_absorpt_t_min   0.799
_olex2_refinement_description
;
1. Fixed Uiso
 At 1.2 times of:
  All C(H) groups
 At 1.5 times of:
  All O(H) groups
2. Restrained distances
 F5A-C5 = C5-F4A = C5-F6A = C5-F4B = C5-F6B = C5-F5B
 1.32 with sigma of 0.01
 F1A-C1 = C1-F3A = C1-F2A = C1-F3B = C1-F2B = C1-F1B
 1.32 with sigma of 0.01
 F3A-F2A \\sim F3A-F1A \\sim F2A-F1A \\sim F3B-F2B \\sim F3B-F1B \\sim F2B-F1B
 with sigma of 0.02
 F5A-F4A \\sim F5A-F6A \\sim F4A-F6A \\sim F4B-F5B \\sim F4B-F6B \\sim F5B-F6B
 with sigma of 0.02
3. Rigid body (RIGU) restrains
 F6A, F5A, F4A, C5
 with sigma for 1-2 distances of 0.004 and sigma for 1-3 distances of 0.004
 F6B, F5B, F4B, C5
 with sigma for 1-2 distances of 0.004 and sigma for 1-3 distances of 0.004
 F2A, F1A, F3A, C1
 with sigma for 1-2 distances of 0.004 and sigma for 1-3 distances of 0.004
 F2B, F1B, F3B, C1
 with sigma for 1-2 distances of 0.004 and sigma for 1-3 distances of 0.004
4. Others
 Sof(F4B)=Sof(F5B)=Sof(F6B)=1-FVAR(1)
 Sof(F5A)=Sof(F4A)=Sof(F6A)=FVAR(1)
 Sof(F3B)=Sof(F2B)=Sof(F1B)=1-FVAR(2)
 Sof(F3A)=Sof(F2A)=Sof(F1A)=FVAR(2)
5.a Aromatic/amide H refined with riding coordinates:
 C11(H11), C8(H8), C9(H9), C6(H6), C10(H10), C3(H3A)
5.b Idealised tetrahedral OH refined as rotating group:
 O3(H3)
;
_shelx_res_file
;
TITL exp_969_a.res in P-1
    exp_969.res
    created by SHELXL-2018/3 at 18:11:43 on 10-Jul-2019
REM Old TITL exp_969 in P-1
REM SHELXT solution in P-1: R1 0.294, Rweak 0.101, Alpha 0.083
REM <I/s> 0.000 for 0 systematic absences, Orientation as input
REM Formula found by SHELXT: C32 N8 O6 Cu
CELL 0.71073 8.798 9.4558 9.943 86.776 73.162 63.012
ZERR 1 0.0014 0.0018 0.0015 0.015 0.014 0.018
LATT 1
SFAC C H Cu F N O
UNIT 22 14 1 12 4 6
EQIV $1 -1+X,1+Y,+Z
DFIX 1.32 0.01 F5A C5 C5 F4A C5 F6A C5 F4B C5 F6B C5 F5B
DFIX 1.32 0.01 F1A C1 C1 F3A C1 F2A C1 F3B C1 F2B C1 F1B
SADI F3A F2A F3A F1A F2A F1A F3B F2B F3B F1B F2B F1B
SADI F5A F4A F5A F6A F4A F6A F4B F5B F4B F6B F5B F6B
RIGU F6A F5A F4A C5
RIGU F6B F5B F4B C5
RIGU F2A F1A F3A C1
RIGU F2B F1B F3B C1

L.S. 20
PLAN  20
SIZE 0.04 0.11 0.26
TEMP 23
HTAB O3 O2_$1
BOND
list 4
htab
fmap 2
acta
OMIT -1 52
OMIT 3 4 3
REM <olex2.extras>
REM <HklSrc "%.\\exp_969.hkl">
REM </olex2.extras>

WGHT    0.109100
FVAR       0.74435   0.51888   0.61035
CU1   3    0.500000    0.500000    0.500000    10.50000    0.05047    0.03906 =
         0.04052   -0.00021   -0.01092   -0.00758
O1    6    0.300317    0.640440    0.666762    11.00000    0.06242    0.04501 =
         0.04690    0.00238   -0.01365   -0.01030
O2    6    0.505657    0.294046    0.636556    11.00000    0.07073    0.04435 =
         0.05327    0.00325   -0.01473   -0.01348
N1    5    0.319227    0.494297    0.416595    11.00000    0.05442    0.03707 =
         0.04874    0.00507   -0.01436   -0.01041
O3    6   -0.321061    1.026346    0.436994    11.00000    0.08378    0.06211 =
         0.10432   -0.00098   -0.03034    0.00347
AFIX 147
H3    2   -0.360566    1.093876    0.502963    11.00000   -1.50000
AFIX   0
N2    5   -0.166104    0.898618    0.448435    11.00000    0.06620    0.04770 =
         0.08120    0.00910   -0.02464   -0.00786
C11   1   -0.113572    0.788065    0.360500    11.00000    0.06364    0.05453 =
         0.05743    0.00471   -0.02147   -0.01398
AFIX  43
H11   2   -0.176132    0.799234    0.296292    11.00000   -1.20000
AFIX   0
C7    1    0.047814    0.637371    0.355252    11.00000    0.05311    0.05209 =
         0.04447    0.00725   -0.00885   -0.01756
C8    1    0.076757    0.498557    0.289790    11.00000    0.06701    0.06248 =
         0.05598    0.00262   -0.02307   -0.02514
AFIX  43
H8    2   -0.002823    0.499443    0.244892    11.00000   -1.20000
AFIX   0
C9    1    0.224939    0.358943    0.291911    11.00000    0.07830    0.04755 =
         0.06527   -0.00190   -0.02147   -0.02372
AFIX  43
H9    2    0.244716    0.263732    0.250924    11.00000   -1.20000
AFIX   0
C2    1    0.268692    0.609854    0.791920    11.00000    0.05230    0.05717 =
         0.05034   -0.00634   -0.00950   -0.01626
C4    1    0.448299    0.318705    0.767082    11.00000    0.05898    0.05254 =
         0.05145    0.01169   -0.01739   -0.01992
C6    1    0.171436    0.630157    0.417645    11.00000    0.05314    0.04585 =
         0.04463    0.00194   -0.01089   -0.01260
AFIX  43
H6    2    0.152282    0.723027    0.462525    11.00000   -1.20000
AFIX   0
C10   1    0.341271    0.361561    0.354057    11.00000    0.06207    0.03938 =
         0.05152    0.00426   -0.01226   -0.01026
AFIX  43
H10   2    0.441708    0.266566    0.353465    11.00000   -1.20000
AFIX   0
PART 1
F3A   4    0.078283    0.735583    1.023708    31.00000    0.17127    0.09510 =
         0.06515   -0.00075    0.03658    0.00596
F2A   4    0.196534    0.858711    0.884113    31.00000    0.14976    0.07348 =
         0.11186   -0.03958   -0.01372   -0.03713
PART 0
C3    1    0.336740    0.464118    0.848732    11.00000    0.07767    0.05990 =
         0.04604    0.00634   -0.01250   -0.01521
AFIX  43
H3A   2    0.306299    0.463467    0.946396    11.00000   -1.20000
AFIX   0
C1    1    0.130020    0.757747    0.893270    11.00000    0.08548    0.06809 =
         0.05610   -0.00926   -0.00658   -0.01268
PART 1
F1A   4   -0.011749    0.832793    0.849244    31.00000    0.07335    0.12065 =
         0.11136   -0.03348   -0.01869    0.02955
PART 0
C5    1    0.508474    0.170522    0.846656    11.00000    0.09534    0.06602 =
         0.06953    0.01934   -0.03070   -0.01856
PART 1
F5A   4    0.684931    0.095818    0.806892    21.00000    0.10266    0.11060 =
         0.14691    0.04848   -0.04904   -0.00569
F4A   4    0.458437    0.186449    0.981099    21.00000    0.19422    0.08568 =
         0.05301    0.02304   -0.02130   -0.01237
F6A   4    0.471040    0.062942    0.805660    21.00000    0.19561    0.06329 =
         0.14760    0.04708   -0.09234   -0.05949
PART 0
PART 2
F4B   4    0.561937    0.189538    0.950648   -21.00000    0.19847    0.11965 =
         0.14291    0.07183   -0.12668   -0.06238
F5B   4    0.626846    0.041446    0.773113   -21.00000    0.20876    0.05074 =
         0.11487    0.01191   -0.00796    0.02347
F6B   4    0.368182    0.148299    0.914585   -21.00000    0.13677    0.12714 =
         0.17040    0.09682   -0.05706   -0.07286
F3B   4   -0.029837    0.764976    0.927483   -31.00000    0.08142    0.19284 =
         0.15888   -0.10007    0.02753   -0.03440
F2B   4    0.165584    0.743833    1.015453   -31.00000    0.15113    0.12825 =
         0.05955   -0.05240   -0.01132   -0.03093
F1B   4    0.117290    0.893562    0.853897   -31.00000    0.18853    0.05491 =
         0.11801   -0.00843    0.04706    0.00670
HKLF 4




REM  exp_969_a.res in P-1
REM wR2 = 0.1927, GooF = S = 1.042, Restrained GooF = 1.063 for all data
REM R1 = 0.0704 for 1978 Fo > 4sig(Fo) and 0.0997 for all 2755 data
REM 262 parameters refined using 114 restraints

END

WGHT      0.1091      0.0000

REM Instructions for potential hydrogen bonds
HTAB O3 O2_$1
EQIV $3 -x+1, -y, -z+1
HTAB C9 F5B_$3
EQIV $4 x+1, y-1, z
HTAB C10 O3_$4

REM Highest difference peak  1.145,  deepest hole -0.240,  1-sigma level  0.087
Q1    1   0.1783  0.4966  0.5013  11.00000  0.05    1.14
Q2    1  -0.1583  0.9756  0.5181  11.00000  0.05    0.38
Q3    1   0.0900  0.6436  0.6729  11.00000  0.05    0.33
Q4    1   0.4399  0.6287  0.6662  11.00000  0.05    0.32
Q5    1   0.3380  0.5157  0.4840  11.00000  0.05    0.31
Q6    1  -0.0461  0.7187  1.0011  11.00000  0.05    0.30
Q7    1  -0.4739  1.0830  0.5402  11.00000  0.05    0.30
Q8    1   0.2030  0.7957  0.9630  11.00000  0.05    0.29
Q9    1  -0.4997  1.0431  0.4416  11.00000  0.05    0.28
Q10   1  -0.2704  0.8569  0.3904  11.00000  0.05    0.27
Q11   1   0.2240  0.1508  0.1577  11.00000  0.05    0.27
Q12   1   0.2678  0.2683  0.9748  11.00000  0.05    0.27
Q13   1  -0.2172  0.6997  0.3674  11.00000  0.05    0.27
Q14   1   0.5022  0.2860  0.9954  11.00000  0.05    0.26
Q15   1  -0.1785  0.8802  0.8564  11.00000  0.05    0.26
Q16   1   0.4010  0.5161  0.4302  11.00000  0.05    0.26
Q17   1   0.4631  0.3598  0.2976  11.00000  0.05    0.26
Q18   1   0.0062  0.7060  0.3635  11.00000  0.05    0.25
Q19   1   0.5268  0.1522  1.1014  11.00000  0.05    0.25
Q20   1   0.4336 -0.1320  0.8421  11.00000  0.05    0.24
;
_shelx_res_checksum              19568
loop_
_space_group_symop_operation_xyz
'x, y, z'
'-x, -y, -z'
loop_
_atom_site_label
_atom_site_type_symbol
_atom_site_fract_x
_atom_site_fract_y
_atom_site_fract_z
_atom_site_U_iso_or_equiv
_atom_site_adp_type
_atom_site_occupancy
_atom_site_site_symmetry_order
_atom_site_calc_flag
_atom_site_refinement_flags_posn
_atom_site_refinement_flags_adp
_atom_site_refinement_flags_occupancy
_atom_site_disorder_assembly
_atom_site_disorder_group
Cu1 Cu 0.500000 0.500000 0.500000 0.0490(3) Uani 1 2 d S T P . .
O1 O 0.3003(4) 0.6404(4) 0.6668(3) 0.0577(9) Uani 1 1 d . . . . .
O2 O 0.5057(5) 0.2940(4) 0.6366(3) 0.0621(9) Uani 1 1 d . . . . .
N1 N 0.3192(5) 0.4943(4) 0.4166(4) 0.0512(9) Uani 1 1 d . . . . .
O3 O -0.3211(6) 1.0263(5) 0.4370(5) 0.0972(14) Uani 1 1 d . . . . .
H3 H -0.360566 1.093876 0.502963 0.146 Uiso 1 1 calc GR . . . .
N2 N -0.1661(6) 0.8986(5) 0.4484(5) 0.0718(12) Uani 1 1 d . . . . .
C11 C -0.1136(7) 0.7881(6) 0.3605(5) 0.0629(13) Uani 1 1 d . . . . .
H11 H -0.176132 0.799234 0.296292 0.076 Uiso 1 1 calc R . . . .
C7 C 0.0478(6) 0.6374(6) 0.3553(5) 0.0540(11) Uani 1 1 d . . . . .
C8 C 0.0768(7) 0.4986(6) 0.2898(5) 0.0624(13) Uani 1 1 d . . . . .
H8 H -0.002823 0.499443 0.244892 0.075 Uiso 1 1 calc R . . . .
C9 C 0.2249(7) 0.3589(6) 0.2919(6) 0.0654(14) Uani 1 1 d . . . . .
H9 H 0.244716 0.263732 0.250924 0.078 Uiso 1 1 calc R . . . .
C2 C 0.2687(6) 0.6099(6) 0.7919(5) 0.0577(12) Uani 1 1 d . . . . .
C4 C 0.4483(7) 0.3187(6) 0.7671(5) 0.0566(12) Uani 1 1 d . . . . .
C6 C 0.1714(6) 0.6302(5) 0.4176(5) 0.0527(11) Uani 1 1 d . . . . .
H6 H 0.152282 0.723027 0.462525 0.063 Uiso 1 1 calc R . . . .
C10 C 0.3413(7) 0.3616(5) 0.3541(5) 0.0573(12) Uani 1 1 d . . . . .
H10 H 0.441708 0.266566 0.353465 0.069 Uiso 1 1 calc R . . . .
F3A F 0.078(2) 0.7356(15) 1.0237(10) 0.154(7) Uani 0.61(3) 1 d D U . A 1
F2A F 0.1965(18) 0.8587(14) 0.8841(16) 0.121(4) Uani 0.61(3) 1 d D U . A 1
C3 C 0.3367(7) 0.4641(6) 0.8487(6) 0.0692(15) Uani 1 1 d . . . . .
H3A H 0.306299 0.463467 0.946396 0.083 Uiso 1 1 calc R . . . .
C1 C 0.1300(8) 0.7577(7) 0.8933(5) 0.0817(16) Uani 1 1 d D U . . .
F1A F -0.0117(14) 0.8328(17) 0.8492(15) 0.132(5) Uani 0.61(3) 1 d D U . A 1
C5 C 0.5085(8) 0.1705(7) 0.8467(6) 0.0834(16) Uani 1 1 d D U . . .
F5A F 0.6849(11) 0.096(2) 0.8069(18) 0.136(6) Uani 0.52(2) 1 d D U . B 1
F4A F 0.458(3) 0.1864(17) 0.9811(8) 0.136(7) Uani 0.52(2) 1 d D U . B 1
F6A F 0.471(3) 0.0629(13) 0.8057(19) 0.127(7) Uani 0.52(2) 1 d D U . B 1
F4B F 0.562(3) 0.190(2) 0.9506(18) 0.142(8) Uani 0.48(2) 1 d D U . B 2
F5B F 0.627(3) 0.0414(13) 0.7731(15) 0.168(10) Uani 0.48(2) 1 d D U . B 2
F6B F 0.3682(16) 0.148(2) 0.915(2) 0.141(8) Uani 0.48(2) 1 d D U . B 2
F3B F -0.0298(18) 0.765(4) 0.927(3) 0.166(11) Uani 0.39(3) 1 d D U . A 2
F2B F 0.166(3) 0.744(2) 1.0155(15) 0.128(8) Uani 0.39(3) 1 d D U . A 2
F1B F 0.117(4) 0.8936(16) 0.854(2) 0.167(11) Uani 0.39(3) 1 d D U . A 2
loop_
_atom_site_aniso_label
_atom_site_aniso_U_11
_atom_site_aniso_U_22
_atom_site_aniso_U_33
_atom_site_aniso_U_23
_atom_site_aniso_U_13
_atom_site_aniso_U_12
Cu1 0.0505(5) 0.0391(5) 0.0405(5) -0.0002(3) -0.0109(3) -0.0076(3)
O1 0.062(2) 0.0450(18) 0.0469(19) 0.0024(14) -0.0136(16) -0.0103(15)
O2 0.071(2) 0.0443(18) 0.053(2) 0.0032(15) -0.0147(17) -0.0135(16)
N1 0.054(2) 0.0371(19) 0.049(2) 0.0051(16) -0.0144(17) -0.0104(17)
O3 0.084(3) 0.062(3) 0.104(4) -0.001(2) -0.030(3) 0.003(2)
N2 0.066(3) 0.048(2) 0.081(3) 0.009(2) -0.025(2) -0.008(2)
C11 0.064(3) 0.055(3) 0.057(3) 0.005(2) -0.021(2) -0.014(2)
C7 0.053(3) 0.052(3) 0.044(3) 0.007(2) -0.009(2) -0.018(2)
C8 0.067(3) 0.062(3) 0.056(3) 0.003(2) -0.023(3) -0.025(3)
C9 0.078(4) 0.048(3) 0.065(3) -0.002(2) -0.021(3) -0.024(3)
C2 0.052(3) 0.057(3) 0.050(3) -0.006(2) -0.009(2) -0.016(2)
C4 0.059(3) 0.053(3) 0.051(3) 0.012(2) -0.017(2) -0.020(2)
C6 0.053(3) 0.046(3) 0.045(2) 0.002(2) -0.011(2) -0.013(2)
C10 0.062(3) 0.039(2) 0.052(3) 0.004(2) -0.012(2) -0.010(2)
F3A 0.171(14) 0.095(7) 0.065(5) -0.001(5) 0.037(5) 0.006(8)
F2A 0.150(9) 0.073(6) 0.112(7) -0.040(5) -0.014(6) -0.037(7)
C3 0.078(4) 0.060(3) 0.046(3) 0.006(2) -0.013(3) -0.015(3)
C1 0.085(4) 0.068(3) 0.056(3) -0.009(3) -0.007(3) -0.013(3)
F1A 0.073(6) 0.121(9) 0.111(8) -0.033(6) -0.019(5) 0.030(5)
C5 0.095(4) 0.066(4) 0.070(3) 0.019(3) -0.031(3) -0.019(3)
F5A 0.103(6) 0.111(12) 0.147(12) 0.048(8) -0.049(6) -0.006(6)
F4A 0.194(17) 0.086(7) 0.053(4) 0.023(4) -0.021(6) -0.012(9)
F6A 0.196(17) 0.063(7) 0.148(13) 0.047(7) -0.092(13) -0.059(10)
F4B 0.198(18) 0.120(10) 0.143(13) 0.072(10) -0.127(13) -0.062(12)
F5B 0.209(19) 0.051(6) 0.115(9) 0.012(5) -0.008(12) 0.023(10)
F6B 0.137(9) 0.127(13) 0.170(18) 0.097(13) -0.057(9) -0.073(9)
F3B 0.081(8) 0.19(2) 0.16(2) -0.100(16) 0.028(9) -0.034(11)
F2B 0.151(16) 0.128(11) 0.060(7) -0.052(7) -0.011(8) -0.031(11)
F1B 0.19(2) 0.055(6) 0.118(14) -0.008(7) 0.047(14) 0.007(10)
loop_
_atom_type_symbol
_atom_type_description
_atom_type_scat_dispersion_real
_atom_type_scat_dispersion_imag
_atom_type_scat_source
C C 0.0033 0.0016 'International Tables Vol C Tables 4.2.6.8 and 6.1.1.4'
H H 0.0000 0.0000 'International Tables Vol C Tables 4.2.6.8 and 6.1.1.4'
Cu Cu 0.3201 1.2651 'International Tables Vol C Tables 4.2.6.8 and 6.1.1.4'
F F 0.0171 0.0103 'International Tables Vol C Tables 4.2.6.8 and 6.1.1.4'
N N 0.0061 0.0033 'International Tables Vol C Tables 4.2.6.8 and 6.1.1.4'
O O 0.0106 0.0060 'International Tables Vol C Tables 4.2.6.8 and 6.1.1.4'
loop_
_geom_angle_atom_site_label_1
_geom_angle_atom_site_label_2
_geom_angle_atom_site_label_3
_geom_angle
_geom_angle_site_symmetry_1
_geom_angle_site_symmetry_3
O1 Cu1 O1 180.0 . 2_666
O1 Cu1 O2 95.12(12) 2_666 .
O1 Cu1 O2 95.12(12) . 2_666
O1 Cu1 O2 84.88(12) 2_666 2_666
O1 Cu1 O2 84.88(12) . .
O1 Cu1 N1 89.67(14) . .
O1 Cu1 N1 90.33(14) 2_666 .
O1 Cu1 N1 90.33(14) . 2_666
O1 Cu1 N1 89.67(14) 2_666 2_666
O2 Cu1 O2 180.00(19) 2_666 .
N1 Cu1 O2 86.95(14) . 2_666
N1 Cu1 O2 93.05(14) 2_666 2_666
N1 Cu1 O2 93.05(14) . .
N1 Cu1 O2 86.95(14) 2_666 .
N1 Cu1 N1 180.0 . 2_666
C2 O1 Cu1 127.8(3) . .
C4 O2 Cu1 120.0(3) . .
C6 N1 Cu1 119.6(3) . .
C10 N1 Cu1 123.1(3) . .
C10 N1 C6 117.3(4) . .
C11 N2 O3 111.3(5) . .
N2 C11 C7 120.8(5) . .
C8 C7 C11 120.7(5) . .
C6 C7 C11 121.2(4) . .
C6 C7 C8 118.1(4) . .
C9 C8 C7 119.1(5) . .
C10 C9 C8 119.3(4) . .
O1 C2 C3 129.3(4) . .
O1 C2 C1 112.6(5) . .
C3 C2 C1 118.0(5) . .
O2 C4 C3 128.3(5) . .
O2 C4 C5 115.1(4) . .
C3 C4 C5 116.6(5) . .
N1 C6 C7 122.9(4) . .
N1 C10 C9 123.2(5) . .
C2 C3 C4 123.6(5) . .
F3A C1 C2 117.0(7) . .
F3A C1 F2A 108.5(9) . .
F3A C1 F1A 108.3(8) . .
F2A C1 C2 107.9(7) . .
F2A C1 F1A 104.5(8) . .
F1A C1 C2 109.8(6) . .
F3B C1 C2 111.0(9) . .
F3B C1 F2B 103.4(9) . .
F2B C1 C2 109.5(9) . .
F1B C1 C2 117.2(10) . .
F1B C1 F3B 108.6(10) . .
F1B C1 F2B 106.2(10) . .
F5A C5 C4 108.5(8) . .
F4A C5 C4 118.8(8) . .
F4A C5 F5A 106.4(9) . .
F4A C5 F6A 108.3(8) . .
F6A C5 C4 111.7(6) . .
F6A C5 F5A 101.6(8) . .
F4B C5 C4 112.3(9) . .
F4B C5 F6B 101.6(8) . .
F5B C5 C4 116.3(8) . .
F5B C5 F4B 108.5(10) . .
F5B C5 F6B 107.6(9) . .
F6B C5 C4 109.3(7) . .
loop_
_geom_bond_atom_site_label_1
_geom_bond_atom_site_label_2
_geom_bond_distance
_geom_bond_site_symmetry_2
Cu1 O1 2.010(3) .
Cu1 O1 2.010(3) 2_666
Cu1 O2 2.301(3) .
Cu1 O2 2.300(3) 2_666
Cu1 N1 2.017(4) .
Cu1 N1 2.017(4) 2_666
O1 C2 1.242(6) .
O2 C4 1.241(6) .
N1 C6 1.349(6) .
N1 C10 1.340(5) .
O3 N2 1.382(6) .
N2 C11 1.225(6) .
C11 C7 1.476(7) .
C7 C8 1.381(6) .
C7 C6 1.375(7) .
C8 C9 1.376(7) .
C9 C10 1.349(7) .
C2 C3 1.391(7) .
C2 C1 1.535(7) .
C4 C3 1.397(7) .
C4 C5 1.521(8) .
F3A C1 1.283(8) .
F2A C1 1.315(8) .
C1 F1A 1.315(7) .
C1 F3B 1.318(9) .
C1 F2B 1.325(9) .
C1 F1B 1.286(9) .
C5 F5A 1.321(8) .
C5 F4A 1.275(8) .
C5 F6A 1.318(7) .
C5 F4B 1.305(8) .
C5 F5B 1.271(8) .
C5 F6B 1.327(8) .
loop_
_geom_hbond_atom_site_label_D
_geom_hbond_atom_site_label_H
_geom_hbond_atom_site_label_A
_geom_hbond_distance_DH
_geom_hbond_distance_HA
_geom_hbond_distance_DA
_geom_hbond_angle_DHA
_geom_hbond_site_symmetry_A
_geom_hbond_publ_flag
O3 H3 O2 0.82 2.02 2.825(5) 166.1 1_465 yes
