#------------------------------------------------------------------------------
#$Date: 2019-11-05 05:41:22 +0200 (Tue, 05 Nov 2019) $
#$Revision: 223275 $
#$URL: file:///home/coder/svn-repositories/cod/cif/7/70/14/7701478.cif $
#------------------------------------------------------------------------------
#
# This file is available in the Crystallography Open Database (COD),
# http://www.crystallography.net/
#
# All data on this site have been placed in the public domain by the
# contributors.
#
data_7701478
loop_
_publ_author_name
'Ould, Darren'
'Tran, Thao Thi-Phuong'
'Rawson, Jeremy Michael'
'Melen, Rebecca'
_publ_section_title
;
 Structure-property-reactivity studies on dithiaphospholes
;
_journal_name_full               'Dalton Transactions'
_journal_paper_doi               10.1039/C9DT03577J
_journal_year                    2019
_chemical_formula_moiety         'C6 H4 Br P S2'
_chemical_formula_sum            'C6 H4 Br P S2'
_chemical_formula_weight         251.09
_space_group_crystal_system      triclinic
_space_group_IT_number           2
_space_group_name_Hall           '-P 1'
_space_group_name_H-M_alt        'P -1'
_atom_sites_solution_hydrogens   geom
_atom_sites_solution_primary     direct
_audit_creation_method           SHELXL-2013
_audit_update_record
;
2019-09-03 deposited with the CCDC.	2019-09-25 downloaded from the CCDC.
;
_cell_angle_alpha                69.213(7)
_cell_angle_beta                 73.956(6)
_cell_angle_gamma                78.555(5)
_cell_formula_units_Z            4
_cell_length_a                   8.9636(5)
_cell_length_b                   9.1854(7)
_cell_length_c                   11.3840(10)
_cell_measurement_reflns_used    2720
_cell_measurement_temperature    423(2)
_cell_measurement_theta_max      29.1500
_cell_measurement_theta_min      3.8650
_cell_volume                     836.88(12)
_computing_cell_refinement       'CrysAlisPro 1.171.40.50a (Rigaku OD, 2019)'
_computing_data_collection       'CrysAlisPro 1.171.40.50a (Rigaku OD, 2019)'
_computing_data_reduction        'CrysAlisPro 1.171.40.50a (Rigaku OD, 2019)'
_computing_molecular_graphics    'XShell and Mercury'
_computing_publication_material  Xcif
_computing_structure_refinement  'SHELXL-2013 (Sheldrick, 2013)'
_computing_structure_solution    ShelXS
_diffrn_ambient_temperature      423(2)
_diffrn_measured_fraction_theta_full 0.997
_diffrn_measured_fraction_theta_max 0.826
_diffrn_measurement_device_type
'Agilent Supernova Dual Atlas with CCD Detector'
_diffrn_measurement_method       'Omega scans'
_diffrn_radiation_type           MoK\a
_diffrn_radiation_wavelength     0.71073
_diffrn_reflns_av_R_equivalents  0.0262
_diffrn_reflns_av_unetI/netI     0.0530
_diffrn_reflns_Laue_measured_fraction_full 0.997
_diffrn_reflns_Laue_measured_fraction_max 0.826
_diffrn_reflns_limit_h_max       11
_diffrn_reflns_limit_h_min       -12
_diffrn_reflns_limit_k_max       12
_diffrn_reflns_limit_k_min       -12
_diffrn_reflns_limit_l_max       14
_diffrn_reflns_limit_l_min       -12
_diffrn_reflns_number            6707
_diffrn_reflns_point_group_measured_fraction_full 0.997
_diffrn_reflns_point_group_measured_fraction_max 0.826
_diffrn_reflns_theta_full        25.242
_diffrn_reflns_theta_max         29.722
_diffrn_reflns_theta_min         3.409
_diffrn_source                   'Sealed tube'
_exptl_absorpt_coefficient_mu    5.518
_exptl_absorpt_correction_T_max  1.000
_exptl_absorpt_correction_T_min  0.679
_exptl_absorpt_correction_type   gaussian
_exptl_absorpt_process_details
;
CrysAlisPro 1.171.40.50a (Rigaku Oxford Diffraction, 2019)
Numerical absorption correction based on gaussian integration over
			a multifaceted crystal model
Empirical absorption correction using spherical harmonics,
 implemented in SCALE3 ABSPACK scaling algorithm.
;
_exptl_crystal_colour            Colourless
_exptl_crystal_density_diffrn    1.993
_exptl_crystal_description       Block
_exptl_crystal_F_000             488
_exptl_crystal_size_max          0.700
_exptl_crystal_size_mid          0.225
_exptl_crystal_size_min          0.216
_refine_diff_density_max         0.461
_refine_diff_density_min         -0.479
_refine_diff_density_rms         0.096
_refine_ls_extinction_method     none
_refine_ls_goodness_of_fit_ref   0.973
_refine_ls_hydrogen_treatment    constr
_refine_ls_matrix_type           full
_refine_ls_number_parameters     181
_refine_ls_number_reflns         3932
_refine_ls_number_restraints     0
_refine_ls_restrained_S_all      0.973
_refine_ls_R_factor_all          0.0468
_refine_ls_R_factor_gt           0.0324
_refine_ls_shift/su_max          0.001
_refine_ls_shift/su_mean         0.000
_refine_ls_structure_factor_coef Fsqd
_refine_ls_weighting_details
'w=1/[\s^2^(Fo^2^)+(0.0167P)^2^] where P=(Fo^2^+2Fc^2^)/3'
_refine_ls_weighting_scheme      calc
_refine_ls_wR_factor_gt          0.0527
_refine_ls_wR_factor_ref         0.0595
_reflns_Friedel_coverage         0.000
_reflns_number_gt                3164
_reflns_number_total             3932
_reflns_threshold_expression     'I > 2\s(I)'
_cod_data_source_file            c9dt03577j2.cif
_cod_data_source_block           rm1923
_cod_depositor_comments
;
The following automatic conversions were performed:

data item '_atom_sites_solution_primary' value 'Direct' was changed
to 'direct' in accordance with the
/home/data/users/saulius/crontab/automatic-downloads/rss-feeds/RSC/lib/dictionaries/cif_core.dic
dictionary named 'cif_core.dic' version 2.4.2 last updated on
2011-04-26.

data item '_exptl_absorpt_correction_type' value 'Gaussian' was
changed to 'gaussian' in accordance with the
/home/data/users/saulius/crontab/automatic-downloads/rss-feeds/RSC/lib/dictionaries/cif_core.dic
dictionary named 'cif_core.dic' version 2.4.2 last updated on
2011-04-26.

Automatic conversion script
Id: cif_fix_values 6909 2019-04-08 15:41:33Z antanas 
;
_cod_database_code               7701478
_shelx_space_group_comment
;
The symmetry employed for this shelxl refinement is uniquely defined
by the following loop, which should always be used as a source of
symmetry information in preference to the above space-group names.
They are only intended as comments.
;
_shelx_estimated_absorpt_t_min   0.113
_shelx_estimated_absorpt_t_max   0.382
_shelxl_version_number           2013-3
_shelx_res_file
;
TITL rm1923_a.res in P-1
CELL  0.71073   8.9636   9.1854  11.3840   69.213   73.956   78.555
ZERR    4.000   0.0005   0.0007   0.0010    0.007    0.006    0.005
LATT 1
SFAC C  H  P  S  Br
UNIT 24  16  4  8  4
REM Old TITL rm1923 in P-1
REM SHELXT solution in P-1
REM R1 0.110,  Rweak 0.007,  Alpha 0.033,  Orientation as input
REM Formula found by SHELXT:  C12 P2 S4 Br2
L.S. 10
BOND $H
LIST
ACTA
TEMP 150
SIZE 0.700  0.225  0.216
FMAP 2
PLAN 20
WGHT    0.016700
FVAR       0.51577
BR1   5    0.253615   -0.339095    0.284509    11.00000    0.02824    0.03802 =
         0.03854   -0.02090   -0.00724   -0.00320
BR2   5    0.843308    0.097956    0.105309    11.00000    0.03377    0.02494 =
         0.04028   -0.01168    0.00350   -0.00090
S2    4    0.731832    0.487374   -0.015136    11.00000    0.02665    0.02829 =
         0.02277   -0.00382   -0.00680   -0.00463
S1    4    0.536250    0.309106    0.250467    11.00000    0.02024    0.02476 =
         0.03057   -0.00969    0.00072   -0.00704
S3    4    0.469251   -0.124591    0.353263    11.00000    0.02092    0.03442 =
         0.03521   -0.01467   -0.00882   -0.00252
P1    3    0.629823    0.277747    0.070381    11.00000    0.02618    0.03267 =
         0.03144   -0.01482   -0.00568   -0.00814
P2    3    0.430576   -0.157694    0.193093    11.00000    0.02533    0.04712 =
         0.02760   -0.01829    0.00191   -0.00678
S4    4    0.285058    0.051803    0.142054    11.00000    0.04567    0.04210 =
         0.01893   -0.00316   -0.00770   -0.00730
C6    1    0.749961    0.518213    0.124307    11.00000    0.01697    0.01715 =
         0.02778   -0.00429   -0.00983    0.00400
C1    1    0.660742    0.439040    0.243969    11.00000    0.01946    0.01641 =
         0.02649   -0.00633   -0.00638    0.00135
C7    1    0.301079    0.004313    0.388867    11.00000    0.01926    0.02014 =
         0.02359   -0.00476   -0.00282   -0.00795
C8    1    0.253175    0.027049    0.506898    11.00000    0.02940    0.02785 =
         0.02729   -0.00977   -0.00890   -0.00798
AFIX  43
H8    2    0.306150   -0.029569    0.571792    11.00000   -1.20000
AFIX   0
C5    1    0.848184    0.623165    0.115046    11.00000    0.02185    0.01919 =
         0.03484   -0.00009   -0.00843   -0.00149
AFIX  43
H5    2    0.909344    0.673971    0.035547    11.00000   -1.20000
AFIX   0
C12   1    0.220203    0.085513    0.291358    11.00000    0.02498    0.02460 =
         0.02073   -0.00323   -0.00306   -0.00898
C4    1    0.854281    0.651417    0.224665    11.00000    0.02880    0.02034 =
         0.04986   -0.01179   -0.02014    0.00123
AFIX  43
H4    2    0.919264    0.722258    0.218754    11.00000   -1.20000
AFIX   0
C2    1    0.668509    0.467989    0.353015    11.00000    0.02919    0.02484 =
         0.02752   -0.00880   -0.00476    0.00003
AFIX  43
H2    2    0.609306    0.415487    0.432913    11.00000   -1.20000
AFIX   0
C3    1    0.763982    0.574795    0.344140    11.00000    0.03961    0.02886 =
         0.03818   -0.01611   -0.02136    0.00516
AFIX  43
H3    2    0.767723    0.595192    0.417606    11.00000   -1.20000
AFIX   0
C11   1    0.092480    0.194141    0.314696    11.00000    0.03096    0.02874 =
         0.03734   -0.00459   -0.01545   -0.00307
AFIX  43
H11   2    0.037885    0.249788    0.250706    11.00000   -1.20000
AFIX   0
C9    1    0.125559    0.134669    0.529196    11.00000    0.03779    0.03256 =
         0.03552   -0.01999   -0.00266   -0.00801
AFIX  43
H9    2    0.092330    0.150453    0.609151    11.00000   -1.20000
AFIX   0
C10   1    0.047553    0.218810    0.431601    11.00000    0.03220    0.02881 =
         0.04705   -0.01494   -0.00555    0.00055
AFIX  43
H10   2   -0.036419    0.292970    0.445976    11.00000   -1.20000
AFIX   0
HKLF 4

REM  rm1923_a.res in P-1
REM R1 =  0.0324 for    3164 Fo > 4sig(Fo)  and  0.0468 for all    3932 data
REM    181 parameters refined using      0 restraints

END

WGHT      0.0137      0.0000

REM Highest difference peak  0.461,  deepest hole -0.479,  1-sigma level  0.096
Q1    1   0.2067 -0.2541  0.2478  11.00000  0.05    0.46
Q2    1   0.7409  0.5175  0.0531  11.00000  0.05    0.46
Q3    1   0.9193  0.0165  0.1419  11.00000  0.05    0.41
Q4    1   0.2626  0.1147  0.2280  11.00000  0.05    0.41
Q5    1   0.2383 -0.3062  0.3657  11.00000  0.05    0.40
Q6    1   0.8503  0.0730  0.0095  11.00000  0.05    0.39
Q7    1   0.3386 -0.4254  0.3251  11.00000  0.05    0.36
Q8    1   0.3550 -0.2885  0.2374  11.00000  0.05    0.36
Q9    1   0.6190  0.3779  0.2426  11.00000  0.05    0.36
Q10   1   0.4457 -0.1339  0.2776  11.00000  0.05    0.35
Q11   1   0.7589  0.0627  0.1152  11.00000  0.05    0.35
Q12   1   0.3952 -0.2603  0.3816  11.00000  0.05    0.35
Q13   1   0.5883  0.3137  0.1537  11.00000  0.05    0.34
Q14   1   0.0122  0.1604  0.2392  11.00000  0.05    0.34
Q15   1   0.0815  0.2653  0.6420  11.00000  0.05    0.34
Q16   1   0.7029  0.3833  0.0221  11.00000  0.05    0.33
Q17   1   0.1901 -0.3452  0.2037  11.00000  0.05    0.33
Q18   1   0.8436  0.1231  0.2238  11.00000  0.05    0.33
Q19   1   0.9432  0.0575 -0.0689  11.00000  0.05    0.33
Q20   1   0.6046  0.2230  0.2922  11.00000  0.05    0.33
;
_shelx_res_checksum              38008
loop_
_space_group_symop_operation_xyz
'x, y, z'
'-x, -y, -z'
loop_
_atom_site_label
_atom_site_type_symbol
_atom_site_fract_x
_atom_site_fract_y
_atom_site_fract_z
_atom_site_U_iso_or_equiv
_atom_site_adp_type
_atom_site_occupancy
_atom_site_site_symmetry_order
_atom_site_calc_flag
_atom_site_refinement_flags_posn
_atom_site_refinement_flags_adp
Br1 Br 0.25362(3) -0.33910(3) 0.28451(3) 0.03263(9) Uani 1 1 d . .
Br2 Br 0.84331(3) 0.09796(3) 0.10531(3) 0.03549(10) Uani 1 1 d . .
S2 S 0.73183(8) 0.48737(8) -0.01514(7) 0.02662(18) Uani 1 1 d . .
S1 S 0.53625(7) 0.30911(8) 0.25047(7) 0.02563(17) Uani 1 1 d . .
S3 S 0.46925(8) -0.12459(8) 0.35326(8) 0.02873(18) Uani 1 1 d . .
P1 P 0.62982(8) 0.27775(9) 0.07038(8) 0.02825(19) Uani 1 1 d . .
P2 P 0.43058(9) -0.15769(10) 0.19309(8) 0.0328(2) Uani 1 1 d . .
S4 S 0.28506(9) 0.05180(9) 0.14205(8) 0.0370(2) Uani 1 1 d . .
C6 C 0.7500(3) 0.5182(3) 0.1243(3) 0.0213(6) Uani 1 1 d . .
C1 C 0.6607(3) 0.4390(3) 0.2440(3) 0.0212(6) Uani 1 1 d . .
C7 C 0.3011(3) 0.0043(3) 0.3889(3) 0.0212(6) Uani 1 1 d . .
C8 C 0.2532(3) 0.0270(3) 0.5069(3) 0.0267(7) Uani 1 1 d . .
H8 H 0.3062 -0.0296 0.5718 0.032 Uiso 1 1 calc R U
C5 C 0.8482(3) 0.6232(3) 0.1150(3) 0.0274(7) Uani 1 1 d . .
H5 H 0.9093 0.6740 0.0355 0.033 Uiso 1 1 calc R U
C12 C 0.2202(3) 0.0855(3) 0.2914(3) 0.0241(6) Uani 1 1 d . .
C4 C 0.8543(3) 0.6514(3) 0.2247(3) 0.0310(7) Uani 1 1 d . .
H4 H 0.9193 0.7223 0.2188 0.037 Uiso 1 1 calc R U
C2 C 0.6685(3) 0.4680(3) 0.3530(3) 0.0279(7) Uani 1 1 d . .
H2 H 0.6093 0.4155 0.4329 0.033 Uiso 1 1 calc R U
C3 C 0.7640(3) 0.5748(3) 0.3441(3) 0.0327(7) Uani 1 1 d . .
H3 H 0.7677 0.5952 0.4176 0.039 Uiso 1 1 calc R U
C11 C 0.0925(3) 0.1941(3) 0.3147(3) 0.0324(8) Uani 1 1 d . .
H11 H 0.0379 0.2498 0.2507 0.039 Uiso 1 1 calc R U
C9 C 0.1256(3) 0.1347(3) 0.5292(3) 0.0333(7) Uani 1 1 d . .
H9 H 0.0923 0.1505 0.6092 0.040 Uiso 1 1 calc R U
C10 C 0.0476(3) 0.2188(3) 0.4316(3) 0.0365(8) Uani 1 1 d . .
H10 H -0.0364 0.2930 0.4460 0.044 Uiso 1 1 calc R U
loop_
_atom_site_aniso_label
_atom_site_aniso_U_11
_atom_site_aniso_U_22
_atom_site_aniso_U_33
_atom_site_aniso_U_23
_atom_site_aniso_U_13
_atom_site_aniso_U_12
Br1 0.02824(16) 0.03802(18) 0.0385(2) -0.02090(14) -0.00724(14) -0.00320(13)
Br2 0.03377(17) 0.02494(16) 0.0403(2) -0.01168(13) 0.00350(14) -0.00090(13)
S2 0.0267(4) 0.0283(4) 0.0228(4) -0.0038(3) -0.0068(3) -0.0046(3)
S1 0.0202(3) 0.0248(4) 0.0306(4) -0.0097(3) 0.0007(3) -0.0070(3)
S3 0.0209(3) 0.0344(4) 0.0352(5) -0.0147(3) -0.0088(3) -0.0025(3)
P1 0.0262(4) 0.0327(4) 0.0314(5) -0.0148(3) -0.0057(3) -0.0081(3)
P2 0.0253(4) 0.0471(5) 0.0276(5) -0.0183(4) 0.0019(3) -0.0068(4)
S4 0.0457(5) 0.0421(5) 0.0189(4) -0.0032(3) -0.0077(4) -0.0073(4)
C6 0.0170(12) 0.0171(13) 0.0278(17) -0.0043(11) -0.0098(12) 0.0040(11)
C1 0.0195(13) 0.0164(13) 0.0265(17) -0.0063(11) -0.0064(12) 0.0014(11)
C7 0.0193(13) 0.0201(13) 0.0236(16) -0.0048(11) -0.0028(12) -0.0079(11)
C8 0.0294(15) 0.0279(15) 0.0273(18) -0.0098(12) -0.0089(13) -0.0080(12)
C5 0.0219(14) 0.0192(14) 0.0348(19) -0.0001(12) -0.0084(13) -0.0015(11)
C12 0.0250(14) 0.0246(14) 0.0207(16) -0.0032(12) -0.0031(12) -0.0090(12)
C4 0.0288(15) 0.0203(14) 0.050(2) -0.0118(14) -0.0201(15) 0.0012(12)
C2 0.0292(15) 0.0248(15) 0.0275(18) -0.0088(12) -0.0048(13) 0.0000(12)
C3 0.0396(17) 0.0289(16) 0.038(2) -0.0161(14) -0.0214(16) 0.0052(14)
C11 0.0310(16) 0.0287(16) 0.037(2) -0.0046(14) -0.0154(15) -0.0031(13)
C9 0.0378(17) 0.0326(16) 0.036(2) -0.0200(14) -0.0027(15) -0.0080(14)
C10 0.0322(16) 0.0288(16) 0.047(2) -0.0149(15) -0.0055(16) 0.0006(13)
loop_
_atom_type_symbol
_atom_type_description
_atom_type_scat_dispersion_real
_atom_type_scat_dispersion_imag
_atom_type_scat_source
C C 0.0033 0.0016 'International Tables Vol C Tables 4.2.6.8 and 6.1.1.4'
H H 0.0000 0.0000 'International Tables Vol C Tables 4.2.6.8 and 6.1.1.4'
P P 0.1023 0.0942 'International Tables Vol C Tables 4.2.6.8 and 6.1.1.4'
S S 0.1246 0.1234 'International Tables Vol C Tables 4.2.6.8 and 6.1.1.4'
Br Br -0.2901 2.4595 'International Tables Vol C Tables 4.2.6.8 and 6.1.1.4'
loop_
_geom_angle_atom_site_label_1
_geom_angle_atom_site_label_2
_geom_angle_atom_site_label_3
_geom_angle
C6 S2 P1 99.48(9)
C1 S1 P1 99.90(10)
C7 S3 P2 100.27(10)
S1 P1 S2 95.67(4)
S1 P1 Br2 102.68(4)
S2 P1 Br2 101.54(4)
S3 P2 S4 95.32(5)
S3 P2 Br1 102.51(4)
S4 P2 Br1 101.80(4)
C12 S4 P2 100.08(9)
C5 C6 C1 120.4(3)
C5 C6 S2 120.5(2)
C1 C6 S2 119.1(2)
C2 C1 C6 119.5(3)
C2 C1 S1 121.8(2)
C6 C1 S1 118.7(2)
C8 C7 C12 120.8(2)
C8 C7 S3 121.4(2)
C12 C7 S3 117.8(2)
C7 C8 C9 119.8(3)
C7 C8 H8 120.1
C9 C8 H8 120.1
C4 C5 C6 119.5(3)
C4 C5 H5 120.3
C6 C5 H5 120.3
C11 C12 C7 118.9(3)
C11 C12 S4 121.9(2)
C7 C12 S4 119.2(2)
C5 C4 C3 120.6(3)
C5 C4 H4 119.7
C3 C4 H4 119.7
C1 C2 C3 120.4(3)
C1 C2 H2 119.8
C3 C2 H2 119.8
C2 C3 C4 119.7(3)
C2 C3 H3 120.2
C4 C3 H3 120.2
C10 C11 C12 120.0(3)
C10 C11 H11 120.0
C12 C11 H11 120.0
C8 C9 C10 119.7(3)
C8 C9 H9 120.2
C10 C9 H9 120.2
C11 C10 C9 120.9(3)
C11 C10 H10 119.6
C9 C10 H10 119.6
loop_
_geom_bond_atom_site_label_1
_geom_bond_atom_site_label_2
_geom_bond_distance
Br1 P2 2.2981(9)
Br2 P1 2.2908(8)
S2 C6 1.763(3)
S2 P1 2.0899(10)
S1 C1 1.759(3)
S1 P1 2.0886(11)
S3 C7 1.770(3)
S3 P2 2.0790(12)
P2 S4 2.0907(11)
S4 C12 1.755(3)
C6 C5 1.389(4)
C6 C1 1.396(4)
C1 C2 1.381(4)
C7 C8 1.370(4)
C7 C12 1.399(4)
C8 C9 1.385(4)
C8 H8 0.9300
C5 C4 1.379(4)
C5 H5 0.9300
C12 C11 1.394(4)
C4 C3 1.392(4)
C4 H4 0.9300
C2 C3 1.386(4)
C2 H2 0.9300
C3 H3 0.9300
C11 C10 1.366(4)
C11 H11 0.9300
C9 C10 1.388(4)
C9 H9 0.9300
C10 H10 0.9300
