#------------------------------------------------------------------------------
#$Date: 2019-10-10 04:06:14 +0300 (Thu, 10 Oct 2019) $
#$Revision: 219233 $
#$URL: file:///home/coder/svn-repositories/cod/cif/7/70/13/7701338.cif $
#------------------------------------------------------------------------------
#
# This file is available in the Crystallography Open Database (COD),
# http://www.crystallography.net/
#
# All data on this site have been placed in the public domain by the
# contributors.
#
data_7701338
loop_
_publ_author_name
'Kodrin, Ivan'
'Borovina, Mladen'
'\<Smital, Luka'
'Vald\'es-Mart\'inez, Jes\'us'
'Aaker\"oy, Christer B'
'\/Dakovi\'c, Marijana'
_publ_section_title
;
 Exploring and predicting intermolecular binding preferences in
 crystalline Cu(ii) coordination complexes.
;
_journal_name_full
'Dalton transactions (Cambridge, England : 2003)'
_journal_paper_doi               10.1039/c9dt03346g
_journal_year                    2019
_chemical_formula_moiety         'C24 H18 Cu F12 N4 O6'
_chemical_formula_sum            'C24 H18 Cu F12 N4 O6'
_chemical_formula_weight         749.96
_space_group_crystal_system      triclinic
_space_group_IT_number           2
_space_group_name_Hall           '-P 1'
_space_group_name_H-M_alt        'P -1'
_symmetry_space_group_name_Hall  '-P 1'
_symmetry_space_group_name_H-M   'P -1'
_atom_sites_solution_hydrogens   mixed
_atom_sites_solution_primary     dual
_audit_creation_date             2019-07-11
_audit_creation_method
;
Olex2 1.2
(compiled 2018.05.29 svn.r3508 for OlexSys, GUI svn.r5506)
;
_audit_update_record
;
2019-07-23 deposited with the CCDC.    2019-09-30 downloaded from the CCDC.
;
_cell_angle_alpha                96.577(5)
_cell_angle_beta                 106.692(6)
_cell_angle_gamma                102.284(5)
_cell_formula_units_Z            1
_cell_length_a                   8.5710(4)
_cell_length_b                   8.6068(5)
_cell_length_c                   10.9486(6)
_cell_measurement_reflns_used    2386
_cell_measurement_temperature    296
_cell_measurement_theta_max      29.7600
_cell_measurement_theta_min      3.8340
_cell_volume                     742.49(8)
_computing_cell_refinement       'CrysAlisPro 1.171.39.46 (Rigaku OD, 2018)'
_computing_data_collection       'CrysAlisPro 1.171.39.46 (Rigaku OD, 2018)'
_computing_data_reduction        'CrysAlisPro 1.171.39.46 (Rigaku OD, 2018)'
_computing_molecular_graphics    'Olex2 (Dolomanov et al., 2009)'
_computing_publication_material  'Olex2 (Dolomanov et al., 2009)'
_computing_structure_refinement  'ShelXL (Sheldrick, 2015)'
_computing_structure_solution    'ShelXT (Sheldrick, 2015)'
_diffrn_ambient_temperature      296
_diffrn_detector_area_resol_mean 16.3426
_diffrn_measured_fraction_theta_full 0.997
_diffrn_measured_fraction_theta_max 0.998
_diffrn_measurement_device_type  'Xcalibur, Sapphire3'
_diffrn_measurement_method       '\w scans'
_diffrn_radiation_type           MoK\a
_diffrn_radiation_wavelength     0.71073
_diffrn_reflns_av_R_equivalents  0.0193
_diffrn_reflns_av_unetI/netI     0.0303
_diffrn_reflns_Laue_measured_fraction_full 0.997
_diffrn_reflns_Laue_measured_fraction_max 0.998
_diffrn_reflns_limit_h_max       11
_diffrn_reflns_limit_h_min       -11
_diffrn_reflns_limit_k_max       11
_diffrn_reflns_limit_k_min       -11
_diffrn_reflns_limit_l_max       14
_diffrn_reflns_limit_l_min       -14
_diffrn_reflns_number            7122
_diffrn_reflns_point_group_measured_fraction_full 0.997
_diffrn_reflns_point_group_measured_fraction_max 0.998
_diffrn_reflns_theta_full        25.242
_diffrn_reflns_theta_max         27.998
_diffrn_reflns_theta_min         3.711
_diffrn_source                   'Enhance (Mo) X-ray Source'
_exptl_absorpt_coefficient_mu    0.856
_exptl_absorpt_correction_T_max  1.00000
_exptl_absorpt_correction_T_min  0.87309
_exptl_absorpt_correction_type   multi-scan
_exptl_absorpt_process_details
;
CrysAlisPro 1.171.39.46 (Rigaku Oxford Diffraction, 2018)
Empirical absorption correction using spherical harmonics,
 implemented in SCALE3 ABSPACK scaling algorithm.
;
_exptl_crystal_colour            green
_exptl_crystal_colour_primary    green
_exptl_crystal_density_diffrn    1.677
_exptl_crystal_description       block
_exptl_crystal_F_000             375
_exptl_crystal_recrystallization_method
'Re-crystallisation from solvent: EtOH'
_exptl_crystal_size_max          0.35
_exptl_crystal_size_mid          0.15
_exptl_crystal_size_min          0.1
_refine_diff_density_max         0.455
_refine_diff_density_min         -0.304
_refine_diff_density_rms         0.046
_refine_ls_extinction_method     none
_refine_ls_goodness_of_fit_ref   1.039
_refine_ls_hydrogen_treatment    mixed
_refine_ls_matrix_type           full
_refine_ls_number_parameters     247
_refine_ls_number_reflns         3594
_refine_ls_number_restraints     57
_refine_ls_restrained_S_all      1.068
_refine_ls_R_factor_all          0.0572
_refine_ls_R_factor_gt           0.0421
_refine_ls_shift/su_max          0.000
_refine_ls_shift/su_mean         0.000
_refine_ls_structure_factor_coef Fsqd
_refine_ls_weighting_details
'w=1/[\s^2^(Fo^2^)+(0.0492P)^2^+0.2210P] where P=(Fo^2^+2Fc^2^)/3'
_refine_ls_weighting_scheme      calc
_refine_ls_wR_factor_gt          0.1036
_refine_ls_wR_factor_ref         0.1112
_reflns_Friedel_coverage         0.000
_reflns_number_gt                2846
_reflns_number_total             3594
_reflns_threshold_expression     'I > 2\s(I)'
_cod_data_source_file            c9dt03346g2.cif
_cod_data_source_block           2a
_cod_original_cell_volume        742.49(7)
_cod_database_code               7701338
_shelx_shelxl_version_number     2018/3
_shelx_space_group_comment
;
The symmetry employed for this shelxl refinement is uniquely defined
by the following loop, which should always be used as a source of
symmetry information in preference to the above space-group names.
They are only intended as comments.
;
_shelx_estimated_absorpt_t_max   0.919
_shelx_estimated_absorpt_t_min   0.754
_olex2_refinement_description
;
1. Fixed Uiso
 At 1.2 times of:
  All C(H) groups
 At 1.5 times of:
  All C(H,H,H) groups
2. Restrained distances
 C1-F1B = C1-F3B = C1-F2A = C1-F1A = C1-F3A = C1-F2B
 1.32 with sigma of 0.01
 F1B-F3B \\sim F1B-F2B \\sim F3B-F2B \\sim F1A-F2A \\sim F1A-F3A \\sim F2A-F3A
 with sigma of 0.02
3. Rigid body (RIGU) restrains
 F1B, F2B, F3B, C1
 with sigma for 1-2 distances of 0.004 and sigma for 1-3 distances of 0.004
 F3A, F1A, F2A, C1
 with sigma for 1-2 distances of 0.004 and sigma for 1-3 distances of 0.004
4. Others
 Sof(F3B)=Sof(F2B)=Sof(F1B)=1-FVAR(1)
 Sof(F1A)=Sof(F3A)=Sof(F2A)=FVAR(1)
5.a Aromatic/amide H refined with riding coordinates:
 C6(H6), C3(H3A), C10(H10), C8(H8), C9(H9)
5.b Idealised Me refined as rotating group:
 C12(H12A,H12B,H12C)
;
_shelx_res_file
;
TITL exp_747_a.res in P-1
    exp_747.res
    created by SHELXL-2018/3 at 13:04:52 on 11-Jul-2019
REM Old TITL exp_747 in P-1
REM SHELXT solution in P-1: R1 0.196, Rweak 0.032, Alpha 0.061
REM <I/s> 0.000 for 0 systematic absences, Orientation as input
REM Formula found by SHELXT: C24 N6 O4 F12 Cu
CELL 0.71073 8.571 8.6068 10.9486 96.577 106.692 102.284
ZERR 1 0.0004 0.0005 0.0006 0.005 0.006 0.005
LATT 1
SFAC C H Cu F N O
UNIT 24 18 1 12 4 6
EQIV $1 -X,1-Y,-Z
DFIX 1.32 0.01 C1 F1B C1 F3B C1 F2A C1 F1A C1 F3A C1 F2B
SADI F1B F3B F1B F2B F3B F2B F1A F2A F1A F3A F2A F3A
RIGU F1B F2B F3B C1
RIGU F3A F1A F2A C1

L.S. 4
PLAN  20
SIZE 0.1 0.15 0.35
TEMP 23
HTAB O3 N2_$1
BOND
list 4
htab
fmap 2
acta
OMIT -1 56
REM <olex2.extras>
REM <HklSrc "%.\\exp_747.hkl">
REM </olex2.extras>

WGHT    0.049200    0.221000
FVAR       0.78947   0.24207
CU1   3    0.500000    0.500000    0.500000    10.50000    0.04220    0.05534 =
         0.03775   -0.00596    0.00291    0.01084
O2    6    0.707538    0.701295    0.640909    11.00000    0.05556    0.06389 =
         0.05809   -0.00519    0.00988    0.01814
O1    6    0.347971    0.652189    0.495646    11.00000    0.05292    0.06561 =
         0.04939   -0.00768    0.00449    0.01035
F4    4    0.974282    0.934531    0.791696    11.00000    0.05045    0.10918 =
         0.10322   -0.01095    0.01675    0.00260
N1    5    0.558187    0.579873    0.348328    11.00000    0.04316    0.05726 =
         0.04467   -0.00476    0.00664    0.00883
F5    4    0.821762    1.078736    0.833192    11.00000    0.09202    0.08612 =
         0.13161   -0.05152   -0.02275    0.02708
F6    4    0.830462    0.864640    0.911443    11.00000    0.09550    0.18065 =
         0.04878    0.02421    0.00002   -0.00718
N2    5    0.184326    0.585575    0.013637    11.00000    0.06023    0.07535 =
         0.04551    0.01438    0.01175    0.02769
O3    6    0.063119    0.605733   -0.096430    11.00000    0.07582    0.11378 =
         0.06122    0.03527    0.00721    0.03553
C7    1    0.471080    0.650023    0.137133    11.00000    0.05546    0.04696 =
         0.04702   -0.00109    0.01700    0.00902
C6    1    0.439182    0.599914    0.246125    11.00000    0.04439    0.05612 =
         0.04458   -0.00016    0.01022    0.01063
AFIX  43
H6    2    0.328910    0.579249    0.247870    11.00000   -1.20000
AFIX   0
PART 1
F1A   4    0.184979    0.934425    0.462670    21.00000    0.18315    0.24867 =
         0.20102    0.16864    0.13543    0.15723
F3A   4    0.089913    0.745230    0.545897    21.00000    0.04478    0.10434 =
         0.19792   -0.02633    0.00474   -0.01977
PART 0
C2    1    0.380677    0.786542    0.568645    11.00000    0.04991    0.05556 =
         0.04206    0.00845    0.01458    0.01316
C3    1    0.530354    0.873661    0.660475    11.00000    0.05226    0.05326 =
         0.05109   -0.00323    0.01063    0.01358
AFIX  43
H3A   2    0.532571    0.972977    0.705461    11.00000   -1.20000
AFIX   0
C4    1    0.679315    0.823000    0.690732    11.00000    0.04931    0.05270 =
         0.03808    0.00467    0.01390    0.00803
C11   1    0.332962    0.664806    0.025001    11.00000    0.07101    0.05482 =
         0.04769    0.00826    0.01967    0.01770
C5    1    0.828182    0.927537    0.806789    11.00000    0.05429    0.06971 =
         0.05207   -0.00184    0.00957    0.01240
C10   1    0.718825    0.613513    0.347629    11.00000    0.04258    0.07138 =
         0.05762   -0.00483    0.00654    0.00744
AFIX  43
H10   2    0.802929    0.601164    0.418634    11.00000   -1.20000
AFIX   0
C8    1    0.637909    0.684026    0.139412    11.00000    0.06407    0.06591 =
         0.05932    0.00374    0.02639    0.00441
AFIX  43
H8    2    0.666029    0.719371    0.069487    11.00000   -1.20000
AFIX   0
C1    1    0.227218    0.854484    0.552238    11.00000    0.05579    0.07708 =
         0.08100    0.00740    0.00750    0.01970
C9    1    0.761467    0.665556    0.244741    11.00000    0.04806    0.07886 =
         0.07474   -0.00353    0.02146    0.00116
AFIX  43
H9    2    0.873150    0.688140    0.246324    11.00000   -1.20000
AFIX   0
PART 1
F2A   4    0.245296    0.952302    0.664221    21.00000    0.08341    0.11925 =
         0.10143   -0.00340    0.03072    0.06927
PART 0
C12   1    0.371244    0.765644   -0.070919    11.00000    0.10577    0.08477 =
         0.08148    0.03742    0.02709    0.01188
AFIX 137
H12A  2    0.382674    0.698024   -0.142206    11.00000   -1.50000
H12B  2    0.474520    0.848106   -0.029368    11.00000   -1.50000
H12C  2    0.281044    0.815346   -0.102582    11.00000   -1.50000
AFIX   0
H3    2   -0.032219    0.560717   -0.086011    11.00000    0.14429
PART 2
F3B   4    0.114857    0.761827    0.588612   -21.00000    0.07123    0.17589 =
         0.13100    0.04050    0.05403    0.04726
F2B   4    0.259319    1.004967    0.607217   -21.00000    0.09128    0.09183 =
         0.24879   -0.05909   -0.03381    0.05062
F1B   4    0.154132    0.851594    0.427120   -21.00000    0.08856    0.12947 =
         0.10971    0.03738   -0.01818    0.04765
HKLF 4




REM  exp_747_a.res in P-1
REM wR2 = 0.1112, GooF = S = 1.039, Restrained GooF = 1.068 for all data
REM R1 = 0.0421 for 2846 Fo > 4sig(Fo) and 0.0572 for all 3594 data
REM 247 parameters refined using 57 restraints

END

WGHT      0.0492      0.2210

REM Instructions for potential hydrogen bonds
EQIV $3 x+1, y, z
HTAB C10 F3A_$3
HTAB C9 F1B_$3
HTAB O3 N2_$1
HTAB O3 O3_$1

REM Highest difference peak  0.455,  deepest hole -0.304,  1-sigma level  0.046
Q1    1   0.7697  0.9809  0.9017  11.00000  0.05    0.45
Q2    1   0.1888  0.8602  0.6633  11.00000  0.05    0.30
Q3    1   0.9192  0.8666  0.8653  11.00000  0.05    0.24
Q4    1   0.5415  0.5839  0.4052  11.00000  0.05    0.22
Q5    1   0.9024  1.0476  0.7975  11.00000  0.05    0.21
Q6    1   0.1056  0.7640  0.4346  11.00000  0.05    0.21
Q7    1   0.2668  0.6428  0.4431  11.00000  0.05    0.21
Q8    1   0.3420  1.0550  0.6035  11.00000  0.05    0.21
Q9    1   0.7819  0.7769  0.8726  11.00000  0.05    0.20
Q10   1   0.4701  0.8627  0.5827  11.00000  0.05    0.19
Q11   1   0.3714  0.8677 -0.0185  11.00000  0.05    0.19
Q12   1   0.7591  0.8834  0.7393  11.00000  0.05    0.18
Q13   1   0.4126  0.6608  0.0836  11.00000  0.05    0.18
Q14   1   0.6992  0.6889  0.6987  11.00000  0.05    0.18
Q15   1   0.6160  0.5799  0.3391  11.00000  0.05    0.17
Q16   1   0.6205  0.6425  0.6013  11.00000  0.05    0.17
Q17   1   0.3771  0.6948  0.4821  11.00000  0.05    0.17
Q18   1   0.6217  0.6261  0.3575  11.00000  0.05    0.16
Q19   1   0.4757  0.7820 -0.0612  11.00000  0.05    0.16
Q20   1   0.2040  0.8781  0.4761  11.00000  0.05    0.16
;
_shelx_res_checksum              96524
loop_
_space_group_symop_operation_xyz
'x, y, z'
'-x, -y, -z'
loop_
_atom_site_label
_atom_site_type_symbol
_atom_site_fract_x
_atom_site_fract_y
_atom_site_fract_z
_atom_site_U_iso_or_equiv
_atom_site_adp_type
_atom_site_occupancy
_atom_site_site_symmetry_order
_atom_site_calc_flag
_atom_site_refinement_flags_posn
_atom_site_refinement_flags_adp
_atom_site_refinement_flags_occupancy
_atom_site_disorder_assembly
_atom_site_disorder_group
Cu1 Cu 0.500000 0.500000 0.500000 0.04880(15) Uani 1 2 d S T P . .
O2 O 0.7075(2) 0.7013(2) 0.64091(17) 0.0620(5) Uani 1 1 d . . . . .
O1 O 0.3480(2) 0.6522(2) 0.49565(16) 0.0610(4) Uani 1 1 d . . . . .
F4 F 0.9743(2) 0.9345(2) 0.7917(2) 0.0948(6) Uani 1 1 d . . . . .
N1 N 0.5582(2) 0.5799(2) 0.34833(18) 0.0519(5) Uani 1 1 d . . . . .
F5 F 0.8218(3) 1.0787(3) 0.8332(2) 0.1216(9) Uani 1 1 d . . . . .
F6 F 0.8305(3) 0.8646(3) 0.91144(18) 0.1200(8) Uani 1 1 d . . . . .
N2 N 0.1843(3) 0.5856(3) 0.01364(19) 0.0596(5) Uani 1 1 d . . . . .
O3 O 0.0631(3) 0.6057(3) -0.0964(2) 0.0835(6) Uani 1 1 d . . . . .
C7 C 0.4711(3) 0.6500(3) 0.1371(2) 0.0512(5) Uani 1 1 d . . . . .
C6 C 0.4392(3) 0.5999(3) 0.2461(2) 0.0504(5) Uani 1 1 d . . . . .
H6 H 0.328910 0.579249 0.247870 0.061 Uiso 1 1 calc R . . . .
F1A F 0.185(3) 0.934(3) 0.4627(19) 0.168(10) Uani 0.242(14) 1 d D U . A 1
F3A F 0.090(2) 0.745(2) 0.546(2) 0.134(8) Uani 0.242(14) 1 d D U . A 1
C2 C 0.3807(3) 0.7865(3) 0.5686(2) 0.0494(5) Uani 1 1 d . . . . .
C3 C 0.5304(3) 0.8737(3) 0.6605(2) 0.0546(6) Uani 1 1 d . . . . .
H3A H 0.532571 0.972977 0.705461 0.066 Uiso 1 1 calc R . . . .
C4 C 0.6793(3) 0.8230(3) 0.6907(2) 0.0479(5) Uani 1 1 d . . . . .
C11 C 0.3330(3) 0.6648(3) 0.0250(2) 0.0576(6) Uani 1 1 d . . . . .
C5 C 0.8282(3) 0.9275(3) 0.8068(2) 0.0620(6) Uani 1 1 d . . . . .
C10 C 0.7188(3) 0.6135(3) 0.3476(3) 0.0619(7) Uani 1 1 d . . . . .
H10 H 0.802929 0.601164 0.418634 0.074 Uiso 1 1 calc R . . . .
C8 C 0.6379(3) 0.6840(3) 0.1394(3) 0.0643(7) Uani 1 1 d . . . . .
H8 H 0.666029 0.719371 0.069487 0.077 Uiso 1 1 calc R . . . .
C1 C 0.2272(4) 0.8545(4) 0.5522(3) 0.0747(8) Uani 1 1 d D U . . .
C9 C 0.7615(3) 0.6656(4) 0.2447(3) 0.0708(8) Uani 1 1 d . . . . .
H9 H 0.873150 0.688140 0.246324 0.085 Uiso 1 1 calc R . . . .
F2A F 0.2453(17) 0.952(2) 0.6642(11) 0.096(4) Uani 0.242(14) 1 d D U . A 1
C12 C 0.3712(5) 0.7656(4) -0.0709(3) 0.0915(10) Uani 1 1 d . . . . .
H12A H 0.382674 0.698024 -0.142206 0.137 Uiso 1 1 calc GR . . . .
H12B H 0.474520 0.848106 -0.029368 0.137 Uiso 1 1 calc GR . . . .
H12C H 0.281044 0.815346 -0.102582 0.137 Uiso 1 1 calc GR . . . .
H3 H -0.032(6) 0.561(6) -0.086(4) 0.144(19) Uiso 1 1 d . . . . .
F3B F 0.1149(7) 0.7618(9) 0.5886(7) 0.1179(19) Uani 0.758(14) 1 d D U . A 2
F2B F 0.2593(7) 1.0050(7) 0.6072(10) 0.167(3) Uani 0.758(14) 1 d D U . A 2
F1B F 0.1541(6) 0.8516(7) 0.4271(4) 0.1159(17) Uani 0.758(14) 1 d D U . A 2
loop_
_atom_site_aniso_label
_atom_site_aniso_U_11
_atom_site_aniso_U_22
_atom_site_aniso_U_33
_atom_site_aniso_U_23
_atom_site_aniso_U_13
_atom_site_aniso_U_12
Cu1 0.0422(2) 0.0553(3) 0.0378(2) -0.00596(16) 0.00291(15) 0.01084(17)
O2 0.0556(9) 0.0639(11) 0.0581(10) -0.0052(8) 0.0099(8) 0.0181(8)
O1 0.0529(9) 0.0656(11) 0.0494(9) -0.0077(8) 0.0045(7) 0.0104(8)
F4 0.0505(9) 0.1092(15) 0.1032(14) -0.0110(11) 0.0168(9) 0.0026(9)
N1 0.0432(9) 0.0573(11) 0.0447(10) -0.0048(8) 0.0066(8) 0.0088(8)
F5 0.0920(13) 0.0861(13) 0.1316(18) -0.0515(12) -0.0227(12) 0.0271(11)
F6 0.0955(14) 0.181(2) 0.0488(10) 0.0242(12) 0.0000(9) -0.0072(14)
N2 0.0602(12) 0.0753(14) 0.0455(11) 0.0144(10) 0.0117(9) 0.0277(11)
O3 0.0758(14) 0.1138(18) 0.0612(12) 0.0353(12) 0.0072(10) 0.0355(13)
C7 0.0555(13) 0.0470(12) 0.0470(12) -0.0011(9) 0.0170(10) 0.0090(10)
C6 0.0444(11) 0.0561(13) 0.0446(12) -0.0002(10) 0.0102(9) 0.0106(10)
F1A 0.183(18) 0.25(2) 0.201(14) 0.169(17) 0.135(14) 0.157(18)
F3A 0.045(5) 0.104(9) 0.198(18) -0.026(9) 0.005(8) -0.020(6)
C2 0.0499(12) 0.0556(13) 0.0421(11) 0.0084(10) 0.0146(10) 0.0132(10)
C3 0.0523(13) 0.0533(13) 0.0511(13) -0.0032(10) 0.0106(10) 0.0136(10)
C4 0.0493(12) 0.0527(13) 0.0381(11) 0.0047(9) 0.0139(9) 0.0080(10)
C11 0.0710(16) 0.0548(14) 0.0477(13) 0.0083(10) 0.0197(12) 0.0177(12)
C5 0.0543(14) 0.0697(17) 0.0521(14) -0.0018(12) 0.0096(11) 0.0124(12)
C10 0.0426(12) 0.0714(16) 0.0576(15) -0.0048(12) 0.0065(11) 0.0074(11)
C8 0.0641(15) 0.0659(16) 0.0593(15) 0.0037(12) 0.0264(13) 0.0044(13)
C1 0.0558(15) 0.0771(19) 0.0810(19) 0.0074(15) 0.0075(14) 0.0197(14)
C9 0.0481(13) 0.0789(19) 0.0747(18) -0.0035(14) 0.0215(13) 0.0012(13)
F2A 0.083(6) 0.119(9) 0.101(7) -0.003(6) 0.031(5) 0.069(6)
C12 0.106(3) 0.085(2) 0.081(2) 0.0374(18) 0.0271(19) 0.0119(19)
F3B 0.071(3) 0.176(5) 0.131(4) 0.041(3) 0.054(3) 0.047(3)
F2B 0.091(3) 0.092(3) 0.249(7) -0.059(4) -0.034(4) 0.051(2)
F1B 0.089(2) 0.129(3) 0.110(2) 0.037(2) -0.018(2) 0.048(2)
loop_
_atom_type_symbol
_atom_type_description
_atom_type_scat_dispersion_real
_atom_type_scat_dispersion_imag
_atom_type_scat_source
C C 0.0033 0.0016 'International Tables Vol C Tables 4.2.6.8 and 6.1.1.4'
H H 0.0000 0.0000 'International Tables Vol C Tables 4.2.6.8 and 6.1.1.4'
Cu Cu 0.3201 1.2651 'International Tables Vol C Tables 4.2.6.8 and 6.1.1.4'
F F 0.0171 0.0103 'International Tables Vol C Tables 4.2.6.8 and 6.1.1.4'
N N 0.0061 0.0033 'International Tables Vol C Tables 4.2.6.8 and 6.1.1.4'
O O 0.0106 0.0060 'International Tables Vol C Tables 4.2.6.8 and 6.1.1.4'
loop_
_geom_angle_atom_site_label_1
_geom_angle_atom_site_label_2
_geom_angle_atom_site_label_3
_geom_angle
_geom_angle_site_symmetry_1
_geom_angle_site_symmetry_3
O2 Cu1 O2 180.0 . 2_666
O1 Cu1 O2 93.05(6) . 2_666
O1 Cu1 O2 86.95(6) . .
O1 Cu1 O2 93.05(6) 2_666 .
O1 Cu1 O2 86.95(6) 2_666 2_666
O1 Cu1 O1 180.0 . 2_666
N1 Cu1 O2 88.83(7) 2_666 .
N1 Cu1 O2 91.17(7) 2_666 2_666
N1 Cu1 O2 91.17(7) . .
N1 Cu1 O2 88.83(7) . 2_666
N1 Cu1 O1 90.27(8) . 2_666
N1 Cu1 O1 90.27(8) 2_666 .
N1 Cu1 O1 89.73(8) 2_666 2_666
N1 Cu1 O1 89.73(8) . .
N1 Cu1 N1 180.00(11) . 2_666
C4 O2 Cu1 121.83(15) . .
C2 O1 Cu1 127.26(16) . .
C6 N1 Cu1 121.13(15) . .
C6 N1 C10 118.4(2) . .
C10 N1 Cu1 120.49(18) . .
C11 N2 O3 112.4(2) . .
C6 C7 C11 121.2(2) . .
C8 C7 C6 116.6(2) . .
C8 C7 C11 122.3(2) . .
N1 C6 C7 123.7(2) . .
O1 C2 C3 129.2(2) . .
O1 C2 C1 112.7(2) . .
C3 C2 C1 118.0(2) . .
C2 C3 C4 124.5(2) . .
O2 C4 C3 129.0(2) . .
O2 C4 C5 114.0(2) . .
C3 C4 C5 116.9(2) . .
N2 C11 C7 116.8(2) . .
N2 C11 C12 122.9(3) . .
C7 C11 C12 120.2(3) . .
F4 C5 F5 105.9(2) . .
F4 C5 F6 106.4(2) . .
F4 C5 C4 113.5(2) . .
F5 C5 F6 107.5(2) . .
F5 C5 C4 113.9(2) . .
F6 C5 C4 109.3(2) . .
N1 C10 C9 121.7(3) . .
C9 C8 C7 120.2(2) . .
F1A C1 F3A 107.0(10) . .
F1A C1 C2 120.4(8) . .
F1A C1 F2A 105.7(9) . .
F3A C1 C2 113.2(12) . .
F3A C1 F2A 98.4(8) . .
F2A C1 C2 109.6(6) . .
F3B C1 C2 110.2(4) . .
F3B C1 F2B 111.4(5) . .
F3B C1 F1B 105.6(4) . .
F2B C1 C2 115.2(3) . .
F2B C1 F1B 104.6(5) . .
F1B C1 C2 109.3(3) . .
C10 C9 C8 119.5(2) . .
loop_
_geom_bond_atom_site_label_1
_geom_bond_atom_site_label_2
_geom_bond_distance
_geom_bond_site_symmetry_2
Cu1 O2 2.2463(17) 2_666
Cu1 O2 2.2463(17) .
Cu1 O1 2.0300(18) .
Cu1 O1 2.0300(18) 2_666
Cu1 N1 2.018(2) 2_666
Cu1 N1 2.017(2) .
O2 C4 1.227(3) .
O1 C2 1.255(3) .
F4 C5 1.299(3) .
N1 C6 1.336(3) .
N1 C10 1.348(3) .
F5 C5 1.317(3) .
F6 C5 1.319(3) .
N2 O3 1.402(3) .
N2 C11 1.274(3) .
C7 C6 1.393(3) .
C7 C11 1.480(3) .
C7 C8 1.389(3) .
F1A C1 1.274(8) .
F3A C1 1.320(8) .
C2 C3 1.377(3) .
C2 C1 1.523(4) .
C3 C4 1.399(3) .
C4 C5 1.540(3) .
C11 C12 1.500(4) .
C10 C9 1.373(4) .
C8 C9 1.374(4) .
C1 F2A 1.355(8) .
C1 F3B 1.299(5) .
C1 F2B 1.300(5) .
C1 F1B 1.327(4) .
loop_
_geom_hbond_atom_site_label_D
_geom_hbond_atom_site_label_H
_geom_hbond_atom_site_label_A
_geom_hbond_distance_DH
_geom_hbond_distance_HA
_geom_hbond_distance_DA
_geom_hbond_angle_DHA
_geom_hbond_site_symmetry_A
_geom_hbond_publ_flag
O3 H3 N2 0.87(4) 2.01(4) 2.827(3) 156(4) 2_565 yes
