#------------------------------------------------------------------------------
#$Date: 2019-11-08 00:22:19 +0200 (Fri, 08 Nov 2019) $
#$Revision: 224239 $
#$URL: file:///home/coder/svn-repositories/cod/cif/7/70/11/7701178.cif $
#------------------------------------------------------------------------------
#
# This file is available in the Crystallography Open Database (COD),
# http://www.crystallography.net/
#
# All data on this site have been placed in the public domain by the
# contributors.
#
data_7701178
loop_
_publ_author_name
'Dankhoff, Katja'
'Gold, Madeleine'
'Kober, Luisa'
'Schmitt, Florian'
'Pfeifer, Lena'
'D\"urrmann, Andreas'
'Kostrhunova, Hana'
'Rothemund, Matthias'
'Brabec, Viktor'
'Schobert, Rainer'
'Weber, Birgit'
_publ_section_title
;
 Copper(ii) complexes with tridentate Schiff base-like ligands: solid
 state and solution structures and anticancer activity.
;
_journal_issue                   40
_journal_name_full
'Dalton transactions (Cambridge, England : 2003)'
_journal_page_first              15220
_journal_page_last               15230
_journal_paper_doi               10.1039/c9dt02571e
_journal_volume                  48
_journal_year                    2019
_chemical_formula_moiety         'C13 H14 Br Cu N3 O2'
_chemical_formula_sum            'C13 H14 Br Cu N3 O2'
_chemical_formula_weight         387.72
_chemical_name_common            '[CuL37dBr]'
_space_group_crystal_system      triclinic
_space_group_IT_number           2
_space_group_name_Hall           '-P 1'
_space_group_name_H-M_alt        'P -1'
_symmetry_space_group_name_Hall  '-P 1'
_symmetry_space_group_name_H-M   'P -1'
_atom_sites_solution_hydrogens   geom
_audit_creation_date             2019-01-09
_audit_creation_method           SHELXL-2014/7
_audit_update_record
;
2019-05-13 deposited with the CCDC.    2019-09-18 downloaded from the CCDC.
;
_cell_angle_alpha                85.890(3)
_cell_angle_beta                 78.823(3)
_cell_angle_gamma                81.476(3)
_cell_formula_units_Z            2
_cell_length_a                   7.8986(4)
_cell_length_b                   8.2689(3)
_cell_length_c                   11.3892(4)
_cell_measurement_reflns_used    8410
_cell_measurement_temperature    133(2)
_cell_measurement_theta_max      29.1
_cell_measurement_theta_min      1.8
_cell_volume                     720.98(5)
_computing_cell_refinement       X-AREA-STOE
_computing_data_collection       X-AREA-STOE
_computing_data_reduction        X-AREA-STOE
_computing_molecular_graphics    ORTEP-III
_computing_publication_material  PLATON
_computing_structure_refinement  'SHELXL-2014 (Sheldrick, 2014)'
_computing_structure_solution    SIR97
_diffrn_ambient_temperature      133(2)
_diffrn_detector_area_resol_mean 9
_diffrn_measured_fraction_theta_full 0.987
_diffrn_measured_fraction_theta_max 0.863
_diffrn_measurement_device_type  STOE-STADIVARI
_diffrn_measurement_method       omega-scan
_diffrn_radiation_type           MoK\a
_diffrn_radiation_wavelength     0.71073
_diffrn_reflns_av_R_equivalents  0.0280
_diffrn_reflns_av_unetI/netI     0.0337
_diffrn_reflns_Laue_measured_fraction_full 0.987
_diffrn_reflns_Laue_measured_fraction_max 0.863
_diffrn_reflns_limit_h_max       8
_diffrn_reflns_limit_h_min       -10
_diffrn_reflns_limit_k_max       11
_diffrn_reflns_limit_k_min       -10
_diffrn_reflns_limit_l_max       15
_diffrn_reflns_limit_l_min       -14
_diffrn_reflns_number            8912
_diffrn_reflns_point_group_measured_fraction_full 0.987
_diffrn_reflns_point_group_measured_fraction_max 0.863
_diffrn_reflns_theta_full        25.242
_diffrn_reflns_theta_max         29.131
_diffrn_reflns_theta_min         1.824
_diffrn_source                   'fine-focus sealed tube'
_exptl_absorpt_coefficient_mu    4.289
_exptl_absorpt_correction_type   none
_exptl_crystal_colour            green
_exptl_crystal_density_diffrn    1.786
_exptl_crystal_density_method    'not measured'
_exptl_crystal_description       plate
_exptl_crystal_F_000             386
_exptl_crystal_size_max          0.119
_exptl_crystal_size_mid          0.117
_exptl_crystal_size_min          0.098
_refine_diff_density_max         0.610
_refine_diff_density_min         -0.430
_refine_diff_density_rms         0.093
_refine_ls_extinction_method     none
_refine_ls_goodness_of_fit_ref   1.034
_refine_ls_hydrogen_treatment    constr
_refine_ls_matrix_type           full
_refine_ls_number_parameters     181
_refine_ls_number_reflns         3350
_refine_ls_number_restraints     0
_refine_ls_restrained_S_all      1.034
_refine_ls_R_factor_all          0.0431
_refine_ls_R_factor_gt           0.0296
_refine_ls_shift/su_max          0.000
_refine_ls_shift/su_mean         0.000
_refine_ls_structure_factor_coef Fsqd
_refine_ls_weighting_details
'w=1/[\s^2^(Fo^2^)+(0.0415P)^2^+0.1860P] where P=(Fo^2^+2Fc^2^)/3'
_refine_ls_weighting_scheme      calc
_refine_ls_wR_factor_gt          0.0694
_refine_ls_wR_factor_ref         0.0741
_reflns_Friedel_coverage         0.000
_reflns_number_gt                2709
_reflns_number_total             3350
_reflns_threshold_expression     'I > 2\s(I)'
_cod_data_source_file            c9dt02571e2.cif
_cod_data_source_block           kd037
_cod_depositor_comments
'Adding full bibliography for 7701175--7701183.cif.'
_cod_database_code               7701178
_shelx_space_group_comment
;
The symmetry employed for this shelxl refinement is uniquely defined
by the following loop, which should always be used as a source of
symmetry information in preference to the above space-group names.
They are only intended as comments.
;
_shelx_res_file
;

    shelx.res created by SHELXL-2014/7


TITL SIR97 run in space group P -1
CELL  0.71073   7.8986   8.2689  11.3892   85.890   78.823   81.476
ZERR     2.00   0.0004   0.0003   0.0004    0.003    0.003    0.003
LATT   1
SFAC  C    H    N    O    CU   BR
UNIT  26 28 6 4 2 2
MERG   2
FMAP   2
PLAN   10
ACTA
BOND   $H
CONF
LIST   4
L.S.  20
TEMP  -140.00
WGHT    0.041500    0.186000
FVAR       0.38901
C1    1    0.350364    0.437883   -0.124528    11.00000    0.02165    0.02557 =
         0.02787    0.00141   -0.00860    0.00143
AFIX  43
H1    2    0.229134    0.448255   -0.092390    11.00000   -1.20000
AFIX   0
C2    1    0.412285    0.531309   -0.227900    11.00000    0.03014    0.02507 =
         0.03075    0.00480   -0.01169   -0.00078
AFIX  43
H2    2    0.329537    0.603970   -0.263367    11.00000   -1.20000
AFIX   0
C3    1    0.594952    0.523598   -0.283815    11.00000    0.03285    0.02143 =
         0.02371    0.00198   -0.00791   -0.00403
C4    1    0.706669    0.419201   -0.229354    11.00000    0.02267    0.02380 =
         0.02580    0.00009   -0.00578   -0.00696
AFIX  43
H4    2    0.828492    0.407584   -0.259571    11.00000   -1.20000
AFIX   0
C5    1    0.637287    0.326623   -0.125197    11.00000    0.02068    0.02152 =
         0.02087   -0.00197   -0.00773   -0.00379
C6    1    0.756698    0.209327   -0.066452    11.00000    0.01835    0.02756 =
         0.02418    0.00414   -0.00801   -0.00478
AFIX  23
H6A   2    0.844739    0.266323   -0.041433    11.00000   -1.20000
H6B   2    0.818053    0.124324   -0.122523    11.00000   -1.20000
AFIX   0
C7    1    0.733398    0.037729    0.111181    11.00000    0.01647    0.02332 =
         0.02493   -0.00310   -0.00799   -0.00068
AFIX  43
H7    2    0.856776    0.019812    0.089036    11.00000   -1.20000
AFIX   0
C8    1    0.655086   -0.043563    0.220894    11.00000    0.01803    0.02373 =
         0.02158   -0.00019   -0.00831   -0.00284
C9    1    0.469300   -0.029723    0.271292    11.00000    0.02290    0.02300 =
         0.01958   -0.00197   -0.00743   -0.00347
C10   1    0.224268   -0.092383    0.435850    11.00000    0.01746    0.03041 =
         0.02472    0.00450   -0.00712   -0.00109
AFIX  23
H10A  2    0.154652   -0.123753    0.379751    11.00000   -1.20000
H10B  2    0.183425    0.023566    0.454644    11.00000   -1.20000
AFIX   0
C11   1    0.197613   -0.199448    0.550300    11.00000    0.02805    0.02797 =
         0.02592    0.00427   -0.00652   -0.00184
AFIX 133
H11A  2    0.239021   -0.314074    0.531670    11.00000   -1.50000
H11B  2    0.073422   -0.187674    0.586124    11.00000   -1.50000
H11C  2    0.263211   -0.165621    0.606892    11.00000   -1.50000
AFIX   0
C12   1    0.770067   -0.141963    0.282705    11.00000    0.01981    0.02725 =
         0.02515    0.00260   -0.00565   -0.00391
C13   1    0.665654    0.623604   -0.396942    11.00000    0.04065    0.02860 =
         0.03104    0.00842   -0.00485   -0.00554
AFIX 133
H13A  2    0.793245    0.608462   -0.410231    11.00000   -1.50000
H13B  2    0.621198    0.739794   -0.386608    11.00000   -1.50000
H13C  2    0.627612    0.586339   -0.466139    11.00000   -1.50000
AFIX   0
N1    3    0.461498    0.335493   -0.072178    11.00000    0.02012    0.02188 =
         0.02313   -0.00061   -0.00921   -0.00145
N2    3    0.649361    0.131243    0.042328    11.00000    0.01669    0.02637 =
         0.02138    0.00261   -0.00829   -0.00391
N3    3    0.866035   -0.219392    0.330817    11.00000    0.02246    0.04225 =
         0.03390    0.00906   -0.01071   -0.00084
O1    4    0.355873    0.051951    0.224240    11.00000    0.01704    0.02859 =
         0.02326    0.00432   -0.00880   -0.00246
O2    4    0.414877   -0.111377    0.377271    11.00000    0.01643    0.03000 =
         0.02305    0.00518   -0.00759   -0.00056
CU1   5    0.394043    0.194078    0.077490    11.00000    0.01594    0.02276 =
         0.01980    0.00241   -0.00771   -0.00284
BR1   6    0.081365    0.268664    0.121213    11.00000    0.01616    0.02937 =
         0.02638    0.00359   -0.00785   -0.00197
HKLF    4

REM  SIR97 run in space group P -1
REM R1 =  0.0296 for    2709 Fo > 4sig(Fo)  and  0.0431 for all    3350 data
REM    181 parameters refined using      0 restraints

END

WGHT      0.0415      0.1860

REM Highest difference peak  0.610,  deepest hole -0.430,  1-sigma level  0.093
Q1    1   0.0454  0.3552  0.0950  11.00000  0.05    0.61
Q2    1   0.0020  0.2779  0.1793  11.00000  0.05    0.53
Q3    1   0.1161  0.1818  0.1514  11.00000  0.05    0.53
Q4    1   0.4356  0.0768  0.1564  11.00000  0.05    0.48
Q5    1   0.7466  0.5790 -0.4593  11.00000  0.05    0.48
Q6    1   0.2409  0.2223  0.1239  11.00000  0.05    0.46
Q7    1   0.4264  0.0990  0.1086  11.00000  0.05    0.41
Q8    1   0.3901  0.2989 -0.0032  11.00000  0.05    0.41
Q9    1   0.1374  0.3012  0.1907  11.00000  0.05    0.40
Q10   1   0.5550  0.1363  0.0624  11.00000  0.05    0.40
;
_shelx_res_checksum              53259
loop_
_space_group_symop_operation_xyz
'x, y, z'
'-x, -y, -z'
loop_
_atom_site_label
_atom_site_type_symbol
_atom_site_fract_x
_atom_site_fract_y
_atom_site_fract_z
_atom_site_U_iso_or_equiv
_atom_site_adp_type
_atom_site_occupancy
_atom_site_site_symmetry_order
_atom_site_calc_flag
_atom_site_refinement_flags_posn
_atom_site_refinement_flags_adp
C1 C 0.3504(4) 0.4379(3) -0.1245(2) 0.0251(6) Uani 1 1 d . .
H1 H 0.2291 0.4483 -0.0924 0.030 Uiso 1 1 calc R U
C2 C 0.4123(4) 0.5313(3) -0.2279(3) 0.0284(6) Uani 1 1 d . .
H2 H 0.3295 0.6040 -0.2634 0.034 Uiso 1 1 calc R U
C3 C 0.5950(4) 0.5236(3) -0.2838(2) 0.0258(6) Uani 1 1 d . .
C4 C 0.7067(4) 0.4192(3) -0.2294(2) 0.0236(6) Uani 1 1 d . .
H4 H 0.8285 0.4076 -0.2596 0.028 Uiso 1 1 calc R U
C5 C 0.6373(4) 0.3266(3) -0.1252(2) 0.0204(5) Uani 1 1 d . .
C6 C 0.7567(4) 0.2093(3) -0.0665(2) 0.0229(6) Uani 1 1 d . .
H6A H 0.8447 0.2663 -0.0414 0.027 Uiso 1 1 calc R U
H6B H 0.8181 0.1243 -0.1225 0.027 Uiso 1 1 calc R U
C7 C 0.7334(4) 0.0377(3) 0.1112(2) 0.0211(5) Uani 1 1 d . .
H7 H 0.8568 0.0198 0.0890 0.025 Uiso 1 1 calc R U
C8 C 0.6551(4) -0.0436(3) 0.2209(2) 0.0205(5) Uani 1 1 d . .
C9 C 0.4693(4) -0.0297(3) 0.2713(2) 0.0213(5) Uani 1 1 d . .
C10 C 0.2243(4) -0.0924(3) 0.4358(2) 0.0243(6) Uani 1 1 d . .
H10A H 0.1547 -0.1238 0.3798 0.029 Uiso 1 1 calc R U
H10B H 0.1834 0.0236 0.4546 0.029 Uiso 1 1 calc R U
C11 C 0.1976(4) -0.1994(3) 0.5503(2) 0.0276(6) Uani 1 1 d . .
H11A H 0.2390 -0.3141 0.5317 0.041 Uiso 1 1 calc R U
H11B H 0.0734 -0.1877 0.5861 0.041 Uiso 1 1 calc R U
H11C H 0.2632 -0.1656 0.6069 0.041 Uiso 1 1 calc R U
C12 C 0.7701(4) -0.1420(3) 0.2827(2) 0.0240(6) Uani 1 1 d . .
C13 C 0.6657(4) 0.6236(4) -0.3969(3) 0.0341(7) Uani 1 1 d . .
H13A H 0.7932 0.6085 -0.4102 0.051 Uiso 1 1 calc R U
H13B H 0.6212 0.7398 -0.3866 0.051 Uiso 1 1 calc R U
H13C H 0.6276 0.5863 -0.4661 0.051 Uiso 1 1 calc R U
N1 N 0.4615(3) 0.3355(3) -0.07218(19) 0.0212(5) Uani 1 1 d . .
N2 N 0.6494(3) 0.1312(3) 0.04233(19) 0.0209(5) Uani 1 1 d . .
N3 N 0.8660(3) -0.2194(3) 0.3308(2) 0.0330(6) Uani 1 1 d . .
O1 O 0.3559(2) 0.0520(2) 0.22424(16) 0.0226(4) Uani 1 1 d . .
O2 O 0.4149(2) -0.1114(2) 0.37727(16) 0.0232(4) Uani 1 1 d . .
Cu1 Cu 0.39404(4) 0.19408(4) 0.07749(3) 0.01905(9) Uani 1 1 d . .
Br1 Br 0.08136(3) 0.26866(3) 0.12121(2) 0.02380(9) Uani 1 1 d . .
loop_
_atom_site_aniso_label
_atom_site_aniso_U_11
_atom_site_aniso_U_22
_atom_site_aniso_U_33
_atom_site_aniso_U_23
_atom_site_aniso_U_13
_atom_site_aniso_U_12
C1 0.0216(15) 0.0256(13) 0.0279(14) 0.0014(11) -0.0086(12) 0.0014(11)
C2 0.0301(17) 0.0251(13) 0.0307(15) 0.0048(11) -0.0117(13) -0.0008(12)
C3 0.0329(17) 0.0214(12) 0.0237(13) 0.0020(10) -0.0079(12) -0.0040(12)
C4 0.0227(15) 0.0238(12) 0.0258(13) 0.0001(10) -0.0058(12) -0.0070(11)
C5 0.0207(15) 0.0215(12) 0.0209(12) -0.0020(10) -0.0077(11) -0.0038(11)
C6 0.0184(14) 0.0276(13) 0.0242(13) 0.0041(10) -0.0080(11) -0.0048(11)
C7 0.0165(14) 0.0233(12) 0.0249(13) -0.0031(10) -0.0080(11) -0.0007(11)
C8 0.0180(14) 0.0237(12) 0.0216(12) -0.0002(10) -0.0083(11) -0.0028(11)
C9 0.0229(15) 0.0230(12) 0.0196(12) -0.0020(10) -0.0074(11) -0.0035(11)
C10 0.0175(14) 0.0304(14) 0.0247(13) 0.0045(11) -0.0071(11) -0.0011(11)
C11 0.0281(16) 0.0280(14) 0.0259(14) 0.0043(11) -0.0065(12) -0.0018(12)
C12 0.0198(15) 0.0273(13) 0.0252(13) 0.0026(11) -0.0056(11) -0.0039(11)
C13 0.041(2) 0.0286(14) 0.0310(15) 0.0084(12) -0.0048(14) -0.0055(14)
N1 0.0201(12) 0.0219(10) 0.0231(11) -0.0006(9) -0.0092(9) -0.0015(9)
N2 0.0167(12) 0.0264(11) 0.0214(11) 0.0026(9) -0.0083(9) -0.0039(9)
N3 0.0225(14) 0.0423(14) 0.0339(13) 0.0091(11) -0.0107(11) -0.0008(11)
O1 0.0170(10) 0.0286(10) 0.0233(9) 0.0043(7) -0.0088(8) -0.0025(8)
O2 0.0164(10) 0.0300(10) 0.0231(9) 0.0052(8) -0.0076(8) -0.0006(8)
Cu1 0.01594(18) 0.02276(16) 0.01980(16) 0.00241(12) -0.00771(13) -0.00284(13)
Br1 0.01616(15) 0.02937(15) 0.02638(15) 0.00359(10) -0.00785(11) -0.00197(11)
loop_
_atom_type_symbol
_atom_type_description
_atom_type_scat_dispersion_real
_atom_type_scat_dispersion_imag
_atom_type_scat_source
C C 0.0033 0.0016 'International Tables Vol C Tables 4.2.6.8 and 6.1.1.4'
H H 0.0000 0.0000 'International Tables Vol C Tables 4.2.6.8 and 6.1.1.4'
N N 0.0061 0.0033 'International Tables Vol C Tables 4.2.6.8 and 6.1.1.4'
O O 0.0106 0.0060 'International Tables Vol C Tables 4.2.6.8 and 6.1.1.4'
Cu Cu 0.3201 1.2651 'International Tables Vol C Tables 4.2.6.8 and 6.1.1.4'
Br Br -0.2901 2.4595 'International Tables Vol C Tables 4.2.6.8 and 6.1.1.4'
loop_
_geom_angle_atom_site_label_1
_geom_angle_atom_site_label_2
_geom_angle_atom_site_label_3
_geom_angle
N1 C1 C2 119.8(3)
N1 C1 H1 120.1
C2 C1 H1 120.1
C1 C2 C3 124.1(3)
C1 C2 H2 117.9
C3 C2 H2 117.9
C4 C3 C2 115.4(2)
C4 C3 C13 119.5(3)
C2 C3 C13 125.1(3)
C3 C4 C5 118.3(3)
C3 C4 H4 120.8
C5 C4 H4 120.8
N1 C5 C4 125.7(2)
N1 C5 C6 115.3(2)
C4 C5 C6 119.0(2)
C5 C6 N2 107.9(2)
C5 C6 H6A 110.1
N2 C6 H6A 110.1
C5 C6 H6B 110.1
N2 C6 H6B 110.1
H6A C6 H6B 108.4
N2 C7 C8 124.9(3)
N2 C7 H7 117.6
C8 C7 H7 117.6
C12 C8 C7 115.9(2)
C12 C8 C9 118.2(2)
C7 C8 C9 126.0(2)
O1 C9 O2 116.7(2)
O1 C9 C8 124.0(2)
O2 C9 C8 119.4(2)
O2 C10 C11 110.5(2)
O2 C10 H10A 109.6
C11 C10 H10A 109.6
O2 C10 H10B 109.6
C11 C10 H10B 109.6
H10A C10 H10B 108.1
C10 C11 H11A 109.5
C10 C11 H11B 109.5
H11A C11 H11B 109.5
C10 C11 H11C 109.5
H11A C11 H11C 109.5
H11B C11 H11C 109.5
N3 C12 C8 178.2(3)
C3 C13 H13A 109.5
C3 C13 H13B 109.5
H13A C13 H13B 109.5
C3 C13 H13C 109.5
H13A C13 H13C 109.5
H13B C13 H13C 109.5
C1 N1 C5 116.6(2)
C1 N1 Cu1 124.74(19)
C5 N1 Cu1 118.64(17)
C7 N2 C6 116.7(2)
C7 N2 Cu1 123.66(19)
C6 N2 Cu1 119.43(15)
C9 O1 Cu1 126.16(18)
C9 O2 C10 120.9(2)
O1 Cu1 N2 95.10(8)
O1 Cu1 N1 173.68(8)
N2 Cu1 N1 78.76(9)
O1 Cu1 Br1 84.50(5)
N2 Cu1 Br1 179.52(7)
N1 Cu1 Br1 101.65(6)
loop_
_geom_bond_atom_site_label_1
_geom_bond_atom_site_label_2
_geom_bond_distance
C1 N1 1.324(3)
C1 C2 1.407(4)
C1 H1 0.9500
C2 C3 1.454(4)
C2 H2 0.9500
C3 C4 1.348(4)
C3 C13 1.537(4)
C4 C5 1.427(4)
C4 H4 0.9500
C5 N1 1.396(4)
C5 C6 1.469(3)
C6 N2 1.520(3)
C6 H6A 0.9900
C6 H6B 0.9900
C7 N2 1.271(3)
C7 C8 1.449(4)
C7 H7 0.9500
C8 C12 1.389(3)
C8 C9 1.459(4)
C9 O1 1.225(3)
C9 O2 1.366(3)
C10 O2 1.514(3)
C10 C11 1.520(3)
C10 H10A 0.9900
C10 H10B 0.9900
C11 H11A 0.9800
C11 H11B 0.9800
C11 H11C 0.9800
C12 N3 1.119(3)
C13 H13A 0.9800
C13 H13B 0.9800
C13 H13C 0.9800
N1 Cu1 2.026(2)
N2 Cu1 1.976(2)
O1 Cu1 1.9732(18)
Cu1 Br1 2.4173(4)
loop_
_geom_torsion_atom_site_label_1
_geom_torsion_atom_site_label_2
_geom_torsion_atom_site_label_3
_geom_torsion_atom_site_label_4
_geom_torsion
N1 C1 C2 C3 0.2(4)
C1 C2 C3 C4 -0.4(4)
C1 C2 C3 C13 179.7(3)
C2 C3 C4 C5 0.7(4)
C13 C3 C4 C5 -179.4(2)
C3 C4 C5 N1 -0.9(4)
C3 C4 C5 C6 178.5(2)
N1 C5 C6 N2 -1.6(3)
C4 C5 C6 N2 178.9(2)
N2 C7 C8 C12 179.4(3)
N2 C7 C8 C9 -1.1(4)
C12 C8 C9 O1 -179.2(2)
C7 C8 C9 O1 1.3(4)
C12 C8 C9 O2 0.8(4)
C7 C8 C9 O2 -178.6(2)
C2 C1 N1 C5 -0.3(4)
C2 C1 N1 Cu1 179.4(2)
C4 C5 N1 C1 0.7(4)
C6 C5 N1 C1 -178.7(2)
C4 C5 N1 Cu1 -179.1(2)
C6 C5 N1 Cu1 1.5(3)
C8 C7 N2 C6 178.0(2)
C8 C7 N2 Cu1 3.8(4)
C5 C6 N2 C7 -173.3(2)
C5 C6 N2 Cu1 1.2(3)
O2 C9 O1 Cu1 175.75(15)
C8 C9 O1 Cu1 -4.2(4)
O1 C9 O2 C10 -3.5(3)
C8 C9 O2 C10 176.5(2)
C11 C10 O2 C9 178.3(2)
