#------------------------------------------------------------------------------
#$Date: 2019-11-08 00:22:19 +0200 (Fri, 08 Nov 2019) $
#$Revision: 224239 $
#$URL: file:///home/coder/svn-repositories/cod/cif/7/70/11/7701179.cif $
#------------------------------------------------------------------------------
#
# This file is available in the Crystallography Open Database (COD),
# http://www.crystallography.net/
#
# All data on this site have been placed in the public domain by the
# contributors.
#
data_7701179
loop_
_publ_author_name
'Dankhoff, Katja'
'Gold, Madeleine'
'Kober, Luisa'
'Schmitt, Florian'
'Pfeifer, Lena'
'D\"urrmann, Andreas'
'Kostrhunova, Hana'
'Rothemund, Matthias'
'Brabec, Viktor'
'Schobert, Rainer'
'Weber, Birgit'
_publ_section_title
;
 Copper(ii) complexes with tridentate Schiff base-like ligands: solid
 state and solution structures and anticancer activity.
;
_journal_issue                   40
_journal_name_full
'Dalton transactions (Cambridge, England : 2003)'
_journal_page_first              15220
_journal_page_last               15230
_journal_paper_doi               10.1039/c9dt02571e
_journal_volume                  48
_journal_year                    2019
_chemical_formula_moiety         'C24 H26 Br2 Cu2 N4 O6'
_chemical_formula_sum            'C24 H26 Br2 Cu2 N4 O6'
_chemical_formula_weight         753.38
_chemical_name_common            '[CuL30iBr]'
_space_group_crystal_system      triclinic
_space_group_IT_number           2
_space_group_name_Hall           '-P 1'
_space_group_name_H-M_alt        'P -1'
_symmetry_space_group_name_Hall  '-P 1'
_symmetry_space_group_name_H-M   'P -1'
_atom_sites_solution_hydrogens   geom
_atom_sites_solution_primary     direct
_atom_sites_solution_secondary   difmap
_audit_creation_date             2017-07-27
_audit_creation_method           SHELXL-2014
_audit_update_record
;
2017-08-03 deposited with the CCDC.    2019-09-18 downloaded from the CCDC.
;
_cell_angle_alpha                75.675(4)
_cell_angle_beta                 86.846(4)
_cell_angle_gamma                68.045(4)
_cell_formula_units_Z            1
_cell_length_a                   8.0566(4)
_cell_length_b                   8.4259(4)
_cell_length_c                   11.1094(5)
_cell_measurement_reflns_used    7582
_cell_measurement_temperature    133(2)
_cell_measurement_theta_max      28.4
_cell_measurement_theta_min      1.9
_cell_volume                     677.12(6)
_computing_cell_refinement       X-AREA-STOE
_computing_data_collection       X-AREA-STOE
_computing_data_reduction        X-AREA-STOE
_computing_molecular_graphics    ORTEP-III
_computing_publication_material  PLATON
_computing_structure_refinement  'SHELXL-2014 (Sheldrick, 2014)'
_computing_structure_solution    SIR97
_diffrn_ambient_temperature      133(2)
_diffrn_detector_area_resol_mean 9
_diffrn_measured_fraction_theta_full 0.982
_diffrn_measured_fraction_theta_max 0.937
_diffrn_measurement_device_type  STOE-STADIVARI
_diffrn_measurement_method       omega-scan
_diffrn_radiation_type           MoK\a
_diffrn_radiation_wavelength     0.71069
_diffrn_reflns_av_R_equivalents  0.0299
_diffrn_reflns_av_unetI/netI     0.0320
_diffrn_reflns_Laue_measured_fraction_full 0.982
_diffrn_reflns_Laue_measured_fraction_max 0.937
_diffrn_reflns_limit_h_max       6
_diffrn_reflns_limit_h_min       -10
_diffrn_reflns_limit_k_max       11
_diffrn_reflns_limit_k_min       -11
_diffrn_reflns_limit_l_max       14
_diffrn_reflns_limit_l_min       -14
_diffrn_reflns_number            8251
_diffrn_reflns_point_group_measured_fraction_full 0.982
_diffrn_reflns_point_group_measured_fraction_max 0.937
_diffrn_reflns_theta_full        25.240
_diffrn_reflns_theta_max         28.421
_diffrn_reflns_theta_min         1.893
_diffrn_source                   'fine-focus sealed tube'
_exptl_absorpt_coefficient_mu    4.567
_exptl_absorpt_correction_type   none
_exptl_crystal_colour            'blue green'
_exptl_crystal_density_diffrn    1.848
_exptl_crystal_density_method    'not measured'
_exptl_crystal_description       prism
_exptl_crystal_F_000             374
_exptl_crystal_size_max          0.099
_exptl_crystal_size_mid          0.084
_exptl_crystal_size_min          0.075
_refine_diff_density_max         0.509
_refine_diff_density_min         -0.574
_refine_diff_density_rms         0.083
_refine_ls_extinction_method     none
_refine_ls_goodness_of_fit_ref   0.997
_refine_ls_hydrogen_treatment    constr
_refine_ls_matrix_type           full
_refine_ls_number_parameters     172
_refine_ls_number_reflns         3198
_refine_ls_number_restraints     0
_refine_ls_restrained_S_all      0.997
_refine_ls_R_factor_all          0.0332
_refine_ls_R_factor_gt           0.0241
_refine_ls_shift/su_max          0.001
_refine_ls_shift/su_mean         0.000
_refine_ls_structure_factor_coef Fsqd
_refine_ls_weighting_details
'w=1/[\s^2^(Fo^2^)+(0.0312P)^2^] where P=(Fo^2^+2Fc^2^)/3'
_refine_ls_weighting_scheme      calc
_refine_ls_wR_factor_gt          0.0534
_refine_ls_wR_factor_ref         0.0560
_reflns_number_gt                2677
_reflns_number_total             3198
_reflns_threshold_expression     'I > 2\s(I)'
_cod_data_source_file            c9dt02571e2.cif
_cod_data_source_block           cl093
_cod_depositor_comments
'Adding full bibliography for 7701175--7701183.cif.'
_cod_database_code               7701179
_shelx_space_group_comment
;
The symmetry employed for this shelxl refinement is uniquely defined
by the following loop, which should always be used as a source of
symmetry information in preference to the above space-group names.
They are only intended as comments.
;
_shelxl_version_number           2014-3
_shelx_res_file
;
TITL cl093 in P -1
CELL  0.71069   8.0566   8.4259  11.1094   75.675   86.846   68.045
ZERR     2.00   0.0004   0.0004   0.0005    0.004    0.004    0.004
LATT   1
SFAC  C    H    N    O    CU   BR
UNIT  24   26   4    6    2    2
MERG   2
FMAP   2
PLAN   10
ACTA
BOND   $H
CONF
LIST   4
HTAB
L.S.  20
TEMP  -140.00
WGHT    0.031200
FVAR       0.58269
C1    1    0.291329    0.290099    1.137675    11.00000    0.01732    0.01626 =
         0.01842   -0.00550    0.00138   -0.00519
AFIX  43
H1    2    0.350314    0.168335    1.176280    11.00000   -1.20000
AFIX   0
C2    1    0.160202    0.394595    1.200032    11.00000    0.01666    0.02296 =
         0.01798   -0.00937    0.00369   -0.00669
AFIX  43
H2    2    0.128993    0.345663    1.280485    11.00000   -1.20000
AFIX   0
C3    1    0.074268    0.572695    1.143444    11.00000    0.01370    0.02102 =
         0.02389   -0.01229    0.00152   -0.00190
AFIX  43
H3    2   -0.015403    0.647332    1.185366    11.00000   -1.20000
AFIX   0
C4    1    0.120121    0.640110    1.026145    11.00000    0.01455    0.01376 =
         0.02496   -0.00764   -0.00041   -0.00100
AFIX  43
H4    2    0.061992    0.761336    0.985781    11.00000   -1.20000
AFIX   0
C5    1    0.252981    0.527695    0.967781    11.00000    0.01255    0.01372 =
         0.01873   -0.00526   -0.00196   -0.00343
C6    1    0.303185    0.590614    0.837643    11.00000    0.01639    0.01461 =
         0.02065   -0.00484    0.00102   -0.00322
AFIX  23
H6A   2    0.200210    0.625686    0.779060    11.00000   -1.20000
H6B   2    0.334919    0.694937    0.831759    11.00000   -1.20000
AFIX   0
C7    1    0.532309    0.490299    0.702193    11.00000    0.01854    0.01908 =
         0.01637   -0.00356   -0.00113   -0.00938
AFIX  43
H7    2    0.490075    0.611341    0.659001    11.00000   -1.20000
AFIX   0
C8    1    0.673677    0.371268    0.648332    11.00000    0.01953    0.02799 =
         0.01536   -0.00730    0.00356   -0.01225
C9    1    0.740539    0.188393    0.701950    11.00000    0.02192    0.02569 =
         0.02594   -0.01309    0.00952   -0.01116
C10   1    0.882567    0.058709    0.643756    11.00000    0.04268    0.02959 =
         0.04430   -0.01844    0.02883   -0.01185
AFIX 133
H10A  2    0.919162   -0.059213    0.700206    11.00000   -1.50000
H10B  2    0.986342    0.093824    0.628033    11.00000   -1.50000
H10C  2    0.834896    0.056875    0.565048    11.00000   -1.50000
AFIX   0
C11   1    0.742945    0.450421    0.533317    11.00000    0.02116    0.03616 =
         0.01482   -0.00469   -0.00019   -0.01521
C12   1    0.738179    0.721822    0.402094    11.00000    0.04636    0.04956 =
         0.02117    0.00175    0.00346   -0.03172
AFIX 133
H12A  2    0.868839    0.685210    0.402269    11.00000   -1.50000
H12B  2    0.683493    0.849026    0.395648    11.00000   -1.50000
H12C  2    0.696633    0.694985    0.331033    11.00000   -1.50000
AFIX   0
N1    3    0.338450    0.355933    1.023090    11.00000    0.01320    0.01383 =
         0.01756   -0.00565    0.00122   -0.00387
N2    3    0.455727    0.449135    0.804636    11.00000    0.01596    0.01603 =
         0.01699   -0.00490    0.00092   -0.00515
O1    4    0.688747    0.117568    0.804210    11.00000    0.02688    0.01946 =
         0.02506   -0.00972    0.01281   -0.00804
O2    4    0.837618    0.375376    0.460471    11.00000    0.03057    0.04810 =
         0.02193   -0.00946    0.01030   -0.01298
O3    4    0.687592    0.628141    0.515723    11.00000    0.04022    0.03439 =
         0.01757   -0.00136    0.00548   -0.02228
CU1   5    0.526823    0.221485    0.922095    11.00000    0.01640    0.01197 =
         0.01566   -0.00412    0.00402   -0.00170
BR1   6    0.696535   -0.014912    1.095294    11.00000    0.01577    0.01297 =
         0.02125   -0.00354   -0.00032   -0.00090
HKLF    4

REM  cl093 in P -1
REM R1 =  0.0241 for    2677 Fo > 4sig(Fo)  and  0.0332 for all    3198 data
REM    172 parameters refined using      0 restraints

END

WGHT      0.0312      0.0000

REM Instructions for potential hydrogen bonds
EQIV $1 -x+1, -y, -z+2
HTAB C1 O1_$1
HTAB C1 Br1
EQIV $2 -x+1, -y+1, -z+2
HTAB C6 Br1_$2

REM Highest difference peak  0.509,  deepest hole -0.574,  1-sigma level  0.083
Q1    1   0.7348  0.0441  1.0405  11.00000  0.05    0.51
Q2    1   0.5006  0.3423  0.8455  11.00000  0.05    0.41
Q3    1   0.6954  0.4207  0.5886  11.00000  0.05    0.39
Q4    1   0.7627  0.5393  0.5175  11.00000  0.05    0.38
Q5    1   0.6937 -0.1105  1.1600  11.00000  0.05    0.37
Q6    1   0.7173  0.6672  0.4655  11.00000  0.05    0.36
Q7    1   0.5051  0.1290  0.9792  11.00000  0.05    0.34
Q8    1   0.5886  0.4063  0.6776  11.00000  0.05    0.32
Q9    1   0.1230  0.4850  1.1804  11.00000  0.05    0.30
Q10   1   0.6847  0.2787  0.6599  11.00000  0.05    0.28
;
_shelx_res_checksum              78801
loop_
_space_group_symop_operation_xyz
'x, y, z'
'-x, -y, -z'
loop_
_atom_site_label
_atom_site_type_symbol
_atom_site_fract_x
_atom_site_fract_y
_atom_site_fract_z
_atom_site_U_iso_or_equiv
_atom_site_adp_type
_atom_site_occupancy
_atom_site_site_symmetry_order
_atom_site_calc_flag
_atom_site_refinement_flags_posn
_atom_site_refinement_flags_adp
C1 C 0.2913(3) 0.2901(3) 1.1377(2) 0.0174(4) Uani 1 1 d . .
H1 H 0.3503 0.1683 1.1763 0.021 Uiso 1 1 calc R U
C2 C 0.1602(3) 0.3946(3) 1.2000(2) 0.0187(4) Uani 1 1 d . .
H2 H 0.1290 0.3457 1.2805 0.022 Uiso 1 1 calc R U
C3 C 0.0743(3) 0.5727(3) 1.1434(2) 0.0196(4) Uani 1 1 d . .
H3 H -0.0154 0.6473 1.1854 0.024 Uiso 1 1 calc R U
C4 C 0.1201(3) 0.6401(3) 1.0261(2) 0.0184(4) Uani 1 1 d . .
H4 H 0.0620 0.7613 0.9858 0.022 Uiso 1 1 calc R U
C5 C 0.2530(3) 0.5277(3) 0.96778(19) 0.0151(4) Uani 1 1 d . .
C6 C 0.3032(3) 0.5906(3) 0.8376(2) 0.0179(4) Uani 1 1 d . .
H6A H 0.2002 0.6257 0.7791 0.021 Uiso 1 1 calc R U
H6B H 0.3349 0.6949 0.8318 0.021 Uiso 1 1 calc R U
C7 C 0.5323(3) 0.4903(3) 0.70219(19) 0.0174(4) Uani 1 1 d . .
H7 H 0.4901 0.6113 0.6590 0.021 Uiso 1 1 calc R U
C8 C 0.6737(3) 0.3713(3) 0.6483(2) 0.0197(4) Uani 1 1 d . .
C9 C 0.7405(3) 0.1884(3) 0.7020(2) 0.0229(5) Uani 1 1 d . .
C10 C 0.8826(4) 0.0587(4) 0.6438(3) 0.0387(7) Uani 1 1 d . .
H10A H 0.9192 -0.0592 0.7002 0.058 Uiso 1 1 calc R U
H10B H 0.9863 0.0938 0.6280 0.058 Uiso 1 1 calc R U
H10C H 0.8349 0.0569 0.5650 0.058 Uiso 1 1 calc R U
C11 C 0.7429(3) 0.4504(3) 0.5333(2) 0.0229(5) Uani 1 1 d . .
C12 C 0.7382(4) 0.7218(4) 0.4021(2) 0.0369(6) Uani 1 1 d . .
H12A H 0.8688 0.6852 0.4023 0.055 Uiso 1 1 calc R U
H12B H 0.6835 0.8490 0.3956 0.055 Uiso 1 1 calc R U
H12C H 0.6966 0.6950 0.3310 0.055 Uiso 1 1 calc R U
N1 N 0.3385(2) 0.3559(2) 1.02309(16) 0.0149(3) Uani 1 1 d . .
N2 N 0.4557(2) 0.4491(2) 0.80464(16) 0.0164(3) Uani 1 1 d . .
O1 O 0.6887(2) 0.1176(2) 0.80421(15) 0.0236(3) Uani 1 1 d . .
O2 O 0.8376(3) 0.3754(3) 0.46047(16) 0.0342(4) Uani 1 1 d . .
O3 O 0.6876(3) 0.6281(2) 0.51572(15) 0.0293(4) Uani 1 1 d . .
Cu1 Cu 0.52682(3) 0.22149(3) 0.92209(2) 0.01574(7) Uani 1 1 d . .
Br1 Br 0.69653(3) -0.01491(3) 1.09529(2) 0.01807(7) Uani 1 1 d . .
loop_
_atom_site_aniso_label
_atom_site_aniso_U_11
_atom_site_aniso_U_22
_atom_site_aniso_U_33
_atom_site_aniso_U_23
_atom_site_aniso_U_13
_atom_site_aniso_U_12
C1 0.0173(10) 0.0163(10) 0.0184(10) -0.0055(8) 0.0014(8) -0.0052(8)
C2 0.0167(10) 0.0230(11) 0.0180(10) -0.0094(9) 0.0037(8) -0.0067(9)
C3 0.0137(10) 0.0210(11) 0.0239(11) -0.0123(9) 0.0015(8) -0.0019(8)
C4 0.0146(10) 0.0138(9) 0.0250(11) -0.0076(8) -0.0004(8) -0.0010(8)
C5 0.0125(9) 0.0137(9) 0.0187(10) -0.0053(8) -0.0020(8) -0.0034(8)
C6 0.0164(10) 0.0146(9) 0.0207(10) -0.0048(8) 0.0010(8) -0.0032(8)
C7 0.0185(11) 0.0191(10) 0.0164(10) -0.0036(8) -0.0011(8) -0.0094(8)
C8 0.0195(11) 0.0280(11) 0.0154(9) -0.0073(9) 0.0036(8) -0.0123(9)
C9 0.0219(12) 0.0257(11) 0.0259(11) -0.0131(10) 0.0095(9) -0.0112(10)
C10 0.0427(17) 0.0296(13) 0.0443(16) -0.0184(13) 0.0288(14) -0.0118(12)
C11 0.0212(11) 0.0362(13) 0.0148(10) -0.0047(9) -0.0002(8) -0.0152(10)
C12 0.0464(17) 0.0496(17) 0.0212(12) 0.0017(12) 0.0035(11) -0.0317(14)
N1 0.0132(8) 0.0138(8) 0.0176(8) -0.0056(7) 0.0012(6) -0.0039(7)
N2 0.0160(9) 0.0160(8) 0.0170(8) -0.0049(7) 0.0009(7) -0.0051(7)
O1 0.0269(9) 0.0195(8) 0.0251(8) -0.0097(7) 0.0128(7) -0.0080(7)
O2 0.0306(10) 0.0481(12) 0.0219(8) -0.0095(8) 0.0103(7) -0.0130(9)
O3 0.0402(11) 0.0344(9) 0.0176(8) -0.0014(7) 0.0055(7) -0.0223(8)
Cu1 0.01640(14) 0.01197(13) 0.01566(13) -0.00412(10) 0.00402(10) -0.00170(10)
Br1 0.01577(11) 0.01297(10) 0.02125(11) -0.00354(8) -0.00032(8) -0.00090(8)
loop_
_atom_type_symbol
_atom_type_description
_atom_type_scat_dispersion_real
_atom_type_scat_dispersion_imag
_atom_type_scat_source
C C 0.0033 0.0016 'International Tables Vol C Tables 4.2.6.8 and 6.1.1.4'
H H 0.0000 0.0000 'International Tables Vol C Tables 4.2.6.8 and 6.1.1.4'
N N 0.0061 0.0033 'International Tables Vol C Tables 4.2.6.8 and 6.1.1.4'
O O 0.0106 0.0060 'International Tables Vol C Tables 4.2.6.8 and 6.1.1.4'
Cu Cu 0.3201 1.2651 'International Tables Vol C Tables 4.2.6.8 and 6.1.1.4'
Br Br -0.2901 2.4595 'International Tables Vol C Tables 4.2.6.8 and 6.1.1.4'
loop_
_geom_angle_atom_site_label_1
_geom_angle_atom_site_label_2
_geom_angle_atom_site_label_3
_geom_angle
N1 C1 C2 121.8(2)
N1 C1 H1 119.1
C2 C1 H1 119.1
C1 C2 C3 119.0(2)
C1 C2 H2 120.5
C3 C2 H2 120.5
C4 C3 C2 119.46(19)
C4 C3 H3 120.3
C2 C3 H3 120.3
C3 C4 C5 118.8(2)
C3 C4 H4 120.6
C5 C4 H4 120.6
N1 C5 C4 121.85(19)
N1 C5 C6 116.57(17)
C4 C5 C6 121.54(19)
N2 C6 C5 109.47(17)
N2 C6 H6A 109.8
C5 C6 H6A 109.8
N2 C6 H6B 109.8
C5 C6 H6B 109.8
H6A C6 H6B 108.2
N2 C7 C8 126.2(2)
N2 C7 H7 116.9
C8 C7 H7 116.9
C9 C8 C7 121.40(19)
C9 C8 C11 122.4(2)
C7 C8 C11 116.2(2)
O1 C9 C8 123.6(2)
O1 C9 C10 113.8(2)
C8 C9 C10 122.6(2)
C9 C10 H10A 109.5
C9 C10 H10B 109.5
H10A C10 H10B 109.5
C9 C10 H10C 109.5
H10A C10 H10C 109.5
H10B C10 H10C 109.5
O2 C11 O3 121.3(2)
O2 C11 C8 127.5(2)
O3 C11 C8 111.12(19)
O3 C12 H12A 109.5
O3 C12 H12B 109.5
H12A C12 H12B 109.5
O3 C12 H12C 109.5
H12A C12 H12C 109.5
H12B C12 H12C 109.5
C5 N1 C1 119.01(18)
C5 N1 Cu1 114.63(14)
C1 N1 Cu1 126.36(14)
C7 N2 C6 117.00(18)
C7 N2 Cu1 126.89(16)
C6 N2 Cu1 116.07(13)
C9 O1 Cu1 130.92(15)
C11 O3 C12 116.2(2)
O1 Cu1 N2 89.78(7)
O1 Cu1 N1 171.70(7)
N2 Cu1 N1 82.75(7)
O1 Cu1 Br1 91.75(5)
N2 Cu1 Br1 156.75(6)
N1 Cu1 Br1 96.54(5)
loop_
_geom_bond_atom_site_label_1
_geom_bond_atom_site_label_2
_geom_bond_distance
C1 N1 1.352(3)
C1 C2 1.377(3)
C1 H1 0.9500
C2 C3 1.389(3)
C2 H2 0.9500
C3 C4 1.377(3)
C3 H3 0.9500
C4 C5 1.390(3)
C4 H4 0.9500
C5 N1 1.344(3)
C5 C6 1.501(3)
C6 N2 1.462(3)
C6 H6A 0.9900
C6 H6B 0.9900
C7 N2 1.298(3)
C7 C8 1.424(3)
C7 H7 0.9500
C8 C9 1.407(3)
C8 C11 1.472(3)
C9 O1 1.273(3)
C9 C10 1.502(3)
C10 H10A 0.9800
C10 H10B 0.9800
C10 H10C 0.9800
C11 O2 1.209(3)
C11 O3 1.358(3)
C12 O3 1.440(3)
C12 H12A 0.9800
C12 H12B 0.9800
C12 H12C 0.9800
N1 Cu1 2.0004(17)
N2 Cu1 1.9319(18)
O1 Cu1 1.9259(15)
Cu1 Br1 2.4281(4)
loop_
_geom_torsion_atom_site_label_1
_geom_torsion_atom_site_label_2
_geom_torsion_atom_site_label_3
_geom_torsion_atom_site_label_4
_geom_torsion
N1 C1 C2 C3 -0.1(3)
C1 C2 C3 C4 0.9(3)
C2 C3 C4 C5 -0.6(3)
C3 C4 C5 N1 -0.5(3)
C3 C4 C5 C6 177.0(2)
N1 C5 C6 N2 -7.0(3)
C4 C5 C6 N2 175.28(18)
N2 C7 C8 C9 2.8(4)
N2 C7 C8 C11 -178.0(2)
C7 C8 C9 O1 -4.2(4)
C11 C8 C9 O1 176.7(2)
C7 C8 C9 C10 176.7(2)
C11 C8 C9 C10 -2.4(4)
C9 C8 C11 O2 13.4(4)
C7 C8 C11 O2 -165.7(2)
C9 C8 C11 O3 -166.2(2)
C7 C8 C11 O3 14.7(3)
C4 C5 N1 C1 1.3(3)
C6 C5 N1 C1 -176.36(19)
C4 C5 N1 Cu1 -179.11(16)
C6 C5 N1 Cu1 3.2(2)
C2 C1 N1 C5 -1.0(3)
C2 C1 N1 Cu1 179.47(16)
C8 C7 N2 C6 -175.2(2)
C8 C7 N2 Cu1 7.1(3)
C5 C6 N2 C7 -170.10(19)
C5 C6 N2 Cu1 7.8(2)
C8 C9 O1 Cu1 -4.7(4)
C10 C9 O1 Cu1 174.52(19)
O2 C11 O3 C12 4.0(3)
C8 C11 O3 C12 -176.4(2)
