#------------------------------------------------------------------------------
#$Date: 2019-11-08 00:22:19 +0200 (Fri, 08 Nov 2019) $
#$Revision: 224239 $
#$URL: file:///home/coder/svn-repositories/cod/cif/7/70/11/7701181.cif $
#------------------------------------------------------------------------------
#
# This file is available in the Crystallography Open Database (COD),
# http://www.crystallography.net/
#
# All data on this site have been placed in the public domain by the
# contributors.
#
data_7701181
loop_
_publ_author_name
'Dankhoff, Katja'
'Gold, Madeleine'
'Kober, Luisa'
'Schmitt, Florian'
'Pfeifer, Lena'
'D\"urrmann, Andreas'
'Kostrhunova, Hana'
'Rothemund, Matthias'
'Brabec, Viktor'
'Schobert, Rainer'
'Weber, Birgit'
_publ_section_title
;
 Copper(ii) complexes with tridentate Schiff base-like ligands: solid
 state and solution structures and anticancer activity.
;
_journal_issue                   40
_journal_name_full
'Dalton transactions (Cambridge, England : 2003)'
_journal_page_first              15220
_journal_page_last               15230
_journal_paper_doi               10.1039/c9dt02571e
_journal_volume                  48
_journal_year                    2019
_chemical_formula_moiety         'C14 H16 Br Cl Cu N2 O4'
_chemical_formula_sum            'C14 H16 Br Cl Cu N2 O4'
_chemical_formula_weight         455.19
_chemical_name_common            '[CuL38cBr]'
_space_group_crystal_system      triclinic
_space_group_IT_number           2
_space_group_name_Hall           '-P 1'
_space_group_name_H-M_alt        'P -1'
_symmetry_space_group_name_Hall  '-P 1'
_symmetry_space_group_name_H-M   'P -1'
_atom_sites_solution_hydrogens   geom
_audit_creation_date             2019-01-09
_audit_creation_method           SHELXL-2014/7
_audit_update_record
;
2019-05-13 deposited with the CCDC.    2019-09-18 downloaded from the CCDC.
;
_cell_angle_alpha                98.869(3)
_cell_angle_beta                 102.321(3)
_cell_angle_gamma                104.864(3)
_cell_formula_units_Z            2
_cell_length_a                   8.0351(3)
_cell_length_b                   9.6830(3)
_cell_length_c                   11.4547(4)
_cell_measurement_reflns_used    12430
_cell_measurement_temperature    133(2)
_cell_measurement_theta_max      28.5
_cell_measurement_theta_min      1.9
_cell_volume                     820.70(5)
_computing_cell_refinement       X-AREA-STOE
_computing_data_collection       X-AREA-STOE
_computing_data_reduction        X-AREA-STOE
_computing_molecular_graphics    ORTEP-III
_computing_publication_material  PLATON
_computing_structure_refinement  'SHELXL-2014 (Sheldrick, 2014)'
_computing_structure_solution    SIR97
_diffrn_ambient_temperature      133(2)
_diffrn_detector_area_resol_mean 9
_diffrn_measured_fraction_theta_full 0.998
_diffrn_measured_fraction_theta_max 0.954
_diffrn_measurement_device_type  STOE-STADIVARI
_diffrn_measurement_method       omega-scan
_diffrn_radiation_type           MoK\a
_diffrn_radiation_wavelength     0.71073
_diffrn_reflns_av_R_equivalents  0.0304
_diffrn_reflns_av_unetI/netI     0.0304
_diffrn_reflns_Laue_measured_fraction_full 0.998
_diffrn_reflns_Laue_measured_fraction_max 0.954
_diffrn_reflns_limit_h_max       10
_diffrn_reflns_limit_h_min       -10
_diffrn_reflns_limit_k_max       6
_diffrn_reflns_limit_k_min       -12
_diffrn_reflns_limit_l_max       15
_diffrn_reflns_limit_l_min       -15
_diffrn_reflns_number            12083
_diffrn_reflns_point_group_measured_fraction_full 0.998
_diffrn_reflns_point_group_measured_fraction_max 0.954
_diffrn_reflns_theta_full        25.242
_diffrn_reflns_theta_max         28.491
_diffrn_reflns_theta_min         1.866
_diffrn_source                   'fine-focus sealed tube'
_exptl_absorpt_coefficient_mu    3.947
_exptl_absorpt_correction_type   none
_exptl_crystal_colour            green
_exptl_crystal_density_diffrn    1.842
_exptl_crystal_density_method    'not measured'
_exptl_crystal_description       cube
_exptl_crystal_F_000             454
_exptl_crystal_size_max          0.095
_exptl_crystal_size_mid          0.076
_exptl_crystal_size_min          0.065
_refine_diff_density_max         0.550
_refine_diff_density_min         -0.842
_refine_diff_density_rms         0.108
_refine_ls_extinction_method     none
_refine_ls_goodness_of_fit_ref   1.041
_refine_ls_hydrogen_treatment    constr
_refine_ls_matrix_type           full
_refine_ls_number_parameters     208
_refine_ls_number_reflns         3966
_refine_ls_number_restraints     0
_refine_ls_restrained_S_all      1.041
_refine_ls_R_factor_all          0.0504
_refine_ls_R_factor_gt           0.0368
_refine_ls_shift/su_max          0.001
_refine_ls_shift/su_mean         0.000
_refine_ls_structure_factor_coef Fsqd
_refine_ls_weighting_details
'w=1/[\s^2^(Fo^2^)+(0.0547P)^2^+0.8234P] where P=(Fo^2^+2Fc^2^)/3'
_refine_ls_weighting_scheme      calc
_refine_ls_wR_factor_gt          0.0925
_refine_ls_wR_factor_ref         0.0995
_reflns_Friedel_coverage         0.000
_reflns_number_gt                3236
_reflns_number_total             3966
_reflns_threshold_expression     'I > 2\s(I)'
_cod_data_source_file            c9dt02571e2.cif
_cod_data_source_block           kd046
_cod_depositor_comments
'Adding full bibliography for 7701175--7701183.cif.'
_cod_database_code               7701181
_shelx_space_group_comment
;
The symmetry employed for this shelxl refinement is uniquely defined
by the following loop, which should always be used as a source of
symmetry information in preference to the above space-group names.
They are only intended as comments.
;
_shelx_res_file
;

    shelx.res created by SHELXL-2014/7


TITL SIR97 run in space group P -1
CELL  0.71073   8.0351   9.6830  11.4547   98.869  102.321  104.864
ZERR     2.00   0.0003   0.0003   0.0004    0.003    0.003    0.003
LATT   1
SFAC  C    H    N    O    CL   CU   BR
UNIT  28 32 4 8 2 2 2
MERG   2
FMAP   2
PLAN   10
ACTA
BOND   $H
CONF
LIST   4
L.S.  20
TEMP  -140.00
WGHT    0.054700    0.823400
FVAR       0.32181
C1    1    0.267673    0.122339    1.026810    11.00000    0.02239    0.02357 =
         0.03338    0.01008    0.00978    0.00377
AFIX  43
H1    2    0.146159    0.110231    0.988433    11.00000   -1.20000
AFIX   0
C2    1    0.306001    0.045832    1.115481    11.00000    0.02496    0.02501 =
         0.03042    0.01085    0.01288    0.00428
AFIX  43
H2    2    0.213466   -0.017553    1.138837    11.00000   -1.20000
AFIX   0
C3    1    0.484401    0.064296    1.169735    11.00000    0.03142    0.02135 =
         0.02373    0.00830    0.01210    0.00696
C4    1    0.618234    0.157966    1.135958    11.00000    0.02072    0.02583 =
         0.02504    0.00835    0.00734    0.00456
AFIX  43
H4    2    0.740462    0.170950    1.172946    11.00000   -1.20000
AFIX   0
C5    1    0.569073    0.232385    1.046625    11.00000    0.02258    0.02008 =
         0.02381    0.00717    0.00939    0.00604
C6    1    0.706311    0.335775    1.005020    11.00000    0.01888    0.02617 =
         0.03005    0.01429    0.01047    0.00691
AFIX  23
H6A   2    0.785737    0.413901    1.075865    11.00000   -1.20000
H6B   2    0.780312    0.282196    0.969945    11.00000   -1.20000
AFIX   0
C7    1    0.719682    0.493420    0.865742    11.00000    0.01936    0.02298 =
         0.02824    0.00747    0.01027    0.00613
AFIX  43
H7    2    0.844928    0.514361    0.897483    11.00000   -1.20000
AFIX   0
C8    1    0.664582    0.565162    0.773726    11.00000    0.02049    0.02311 =
         0.02607    0.01090    0.01056    0.00506
C9    1    0.479614    0.534877    0.716010    11.00000    0.02514    0.02275 =
         0.02428    0.00765    0.01005    0.00557
C10   1    0.244835    0.571700    0.569557    11.00000    0.02122    0.03700 =
         0.03000    0.01218    0.00424    0.00627
AFIX  23
H10A  2    0.179565    0.594553    0.630534    11.00000   -1.20000
H10B  2    0.192564    0.466894    0.527966    11.00000   -1.20000
AFIX   0
C11   1    0.234470    0.667286    0.477863    11.00000    0.02847    0.03829 =
         0.03093    0.01448    0.00498    0.01008
AFIX 133
H11A  2    0.281480    0.770538    0.520955    11.00000   -1.50000
H11B  2    0.109786    0.646351    0.431804    11.00000   -1.50000
H11C  2    0.305402    0.647162    0.421173    11.00000   -1.50000
AFIX   0
C12   1    0.810272    0.670804    0.746169    11.00000    0.02382    0.02624 =
         0.03054    0.01236    0.01129    0.00670
C13   1    0.890849    0.846510    0.628742    11.00000    0.02672    0.03511 =
         0.04431    0.02310    0.01794    0.00578
AFIX  23
H13A  2    0.980551    0.808122    0.598685    11.00000   -1.20000
H13B  2    0.952761    0.924622    0.703625    11.00000   -1.20000
AFIX   0
C14   1    0.787253    0.904426    0.531275    11.00000    0.03743    0.06087 =
         0.05923    0.04283    0.02291    0.01626
AFIX 133
H14A  2    0.746080    0.831898    0.453379    11.00000   -1.50000
H14B  2    0.864572    0.995851    0.521487    11.00000   -1.50000
H14C  2    0.684015    0.923036    0.555835    11.00000   -1.50000
AFIX   0
N1    3    0.396459    0.214279    0.992078    11.00000    0.01892    0.02218 =
         0.02947    0.00981    0.01018    0.00451
N2    3    0.618228    0.400776    0.912998    11.00000    0.02086    0.02398 =
         0.02622    0.01058    0.00901    0.00621
O1    4    0.354920    0.446503    0.742725    11.00000    0.01841    0.03206 =
         0.03369    0.01647    0.00769    0.00199
O2    4    0.434675    0.604403    0.628783    11.00000    0.01824    0.03273 =
         0.02795    0.01577    0.00457    0.00421
O3    4    0.966038    0.702977    0.803239    11.00000    0.01985    0.05368 =
         0.05863    0.03727    0.00978    0.00371
O4    4    0.757912    0.730262    0.653415    11.00000    0.02334    0.03812 =
         0.03437    0.02224    0.00937    0.00112
CL1   5    0.538610   -0.033805    1.278203    11.00000    0.03554    0.03201 =
         0.02796    0.01608    0.00995    0.00760
CU1   6    0.360542    0.332453    0.866015    11.00000    0.01861    0.02449 =
         0.02881    0.01220    0.00885    0.00471
BR1   7    0.043189    0.261871    0.815487    11.00000    0.01888    0.03432 =
         0.03774    0.01804    0.00776    0.00408
HKLF    4

REM  SIR97 run in space group P -1
REM R1 =  0.0368 for    3236 Fo > 4sig(Fo)  and  0.0504 for all    3966 data
REM    208 parameters refined using      0 restraints

END

WGHT      0.0547      0.8168

REM Highest difference peak  0.550,  deepest hole -0.842,  1-sigma level  0.108
Q1    1   0.0818  0.1989  0.7734  11.00000  0.05    0.55
Q2    1   0.5681  0.1030  1.1441  11.00000  0.05    0.49
Q3    1   0.2088  0.3397  0.8771  11.00000  0.05    0.47
Q4    1   0.1903  0.2609  0.8114  11.00000  0.05    0.44
Q5    1   0.5309  0.4131  0.9046  11.00000  0.05    0.43
Q6    1   0.9977  0.7598  0.7983  11.00000  0.05    0.43
Q7    1   0.6281  0.2769  1.0222  11.00000  0.05    0.40
Q8    1   0.3009  0.3979  0.9515  11.00000  0.05    0.40
Q9    1   0.3585  0.1675  1.0194  11.00000  0.05    0.39
Q10   1   0.0193  0.1198  0.7415  11.00000  0.05    0.38
;
_shelx_res_checksum              27099
loop_
_space_group_symop_operation_xyz
'x, y, z'
'-x, -y, -z'
loop_
_atom_site_label
_atom_site_type_symbol
_atom_site_fract_x
_atom_site_fract_y
_atom_site_fract_z
_atom_site_U_iso_or_equiv
_atom_site_adp_type
_atom_site_occupancy
_atom_site_site_symmetry_order
_atom_site_calc_flag
_atom_site_refinement_flags_posn
_atom_site_refinement_flags_adp
C1 C 0.2677(4) 0.1223(3) 1.0268(3) 0.0262(7) Uani 1 1 d . .
H1 H 0.1462 0.1102 0.9884 0.031 Uiso 1 1 calc R U
C2 C 0.3060(4) 0.0458(3) 1.1155(3) 0.0260(7) Uani 1 1 d . .
H2 H 0.2135 -0.0176 1.1388 0.031 Uiso 1 1 calc R U
C3 C 0.4844(4) 0.0643(3) 1.1697(3) 0.0245(6) Uani 1 1 d . .
C4 C 0.6182(4) 0.1580(3) 1.1360(3) 0.0238(6) Uani 1 1 d . .
H4 H 0.7405 0.1710 1.1729 0.029 Uiso 1 1 calc R U
C5 C 0.5691(4) 0.2324(3) 1.0466(3) 0.0214(6) Uani 1 1 d . .
C6 C 0.7063(4) 0.3358(3) 1.0050(3) 0.0234(6) Uani 1 1 d . .
H6A H 0.7857 0.4139 1.0759 0.028 Uiso 1 1 calc R U
H6B H 0.7803 0.2822 0.9699 0.028 Uiso 1 1 calc R U
C7 C 0.7197(4) 0.4934(3) 0.8657(3) 0.0227(6) Uani 1 1 d . .
H7 H 0.8449 0.5144 0.8975 0.027 Uiso 1 1 calc R U
C8 C 0.6646(4) 0.5652(3) 0.7737(3) 0.0222(6) Uani 1 1 d . .
C9 C 0.4796(4) 0.5349(3) 0.7160(3) 0.0235(6) Uani 1 1 d . .
C10 C 0.2448(4) 0.5717(4) 0.5696(3) 0.0297(7) Uani 1 1 d . .
H10A H 0.1796 0.5946 0.6305 0.036 Uiso 1 1 calc R U
H10B H 0.1926 0.4669 0.5280 0.036 Uiso 1 1 calc R U
C11 C 0.2345(5) 0.6673(4) 0.4779(3) 0.0322(7) Uani 1 1 d . .
H11A H 0.2815 0.7705 0.5210 0.048 Uiso 1 1 calc R U
H11B H 0.1098 0.6464 0.4318 0.048 Uiso 1 1 calc R U
H11C H 0.3054 0.6472 0.4212 0.048 Uiso 1 1 calc R U
C12 C 0.8103(4) 0.6708(4) 0.7462(3) 0.0257(6) Uani 1 1 d . .
C13 C 0.8908(5) 0.8465(4) 0.6287(3) 0.0331(8) Uani 1 1 d . .
H13A H 0.9806 0.8081 0.5987 0.040 Uiso 1 1 calc R U
H13B H 0.9528 0.9246 0.7036 0.040 Uiso 1 1 calc R U
C14 C 0.7873(5) 0.9044(5) 0.5313(4) 0.0472(10) Uani 1 1 d . .
H14A H 0.7461 0.8319 0.4534 0.071 Uiso 1 1 calc R U
H14B H 0.8646 0.9959 0.5215 0.071 Uiso 1 1 calc R U
H14C H 0.6840 0.9230 0.5558 0.071 Uiso 1 1 calc R U
N1 N 0.3965(3) 0.2143(3) 0.9921(2) 0.0228(5) Uani 1 1 d . .
N2 N 0.6182(3) 0.4008(3) 0.9130(2) 0.0228(5) Uani 1 1 d . .
O1 O 0.3549(3) 0.4465(3) 0.7427(2) 0.0280(5) Uani 1 1 d . .
O2 O 0.4347(3) 0.6044(2) 0.6288(2) 0.0262(5) Uani 1 1 d . .
O3 O 0.9660(3) 0.7030(3) 0.8032(3) 0.0427(7) Uani 1 1 d . .
O4 O 0.7579(3) 0.7303(3) 0.6534(2) 0.0316(5) Uani 1 1 d . .
Cl1 Cl 0.53861(11) -0.03380(9) 1.27820(7) 0.03100(19) Uani 1 1 d . .
Cu1 Cu 0.36054(5) 0.33245(4) 0.86601(3) 0.02318(11) Uani 1 1 d . .
Br1 Br 0.04319(4) 0.26187(4) 0.81549(3) 0.02987(11) Uani 1 1 d . .
loop_
_atom_site_aniso_label
_atom_site_aniso_U_11
_atom_site_aniso_U_22
_atom_site_aniso_U_33
_atom_site_aniso_U_23
_atom_site_aniso_U_13
_atom_site_aniso_U_12
C1 0.0224(15) 0.0236(16) 0.0334(17) 0.0101(13) 0.0098(13) 0.0038(12)
C2 0.0250(16) 0.0250(16) 0.0304(16) 0.0108(13) 0.0129(13) 0.0043(13)
C3 0.0314(17) 0.0214(15) 0.0237(15) 0.0083(12) 0.0121(13) 0.0070(13)
C4 0.0207(14) 0.0258(16) 0.0250(15) 0.0084(12) 0.0073(12) 0.0046(12)
C5 0.0226(14) 0.0201(14) 0.0238(14) 0.0072(11) 0.0094(12) 0.0060(11)
C6 0.0189(14) 0.0262(15) 0.0300(16) 0.0143(13) 0.0105(12) 0.0069(12)
C7 0.0194(14) 0.0230(15) 0.0282(16) 0.0075(12) 0.0103(12) 0.0061(11)
C8 0.0205(14) 0.0231(15) 0.0261(15) 0.0109(12) 0.0106(12) 0.0051(12)
C9 0.0251(15) 0.0227(15) 0.0243(15) 0.0076(12) 0.0100(12) 0.0056(12)
C10 0.0212(15) 0.0370(18) 0.0300(17) 0.0122(14) 0.0042(13) 0.0063(13)
C11 0.0285(17) 0.0383(19) 0.0309(17) 0.0145(15) 0.0050(14) 0.0101(15)
C12 0.0238(15) 0.0262(16) 0.0305(16) 0.0124(13) 0.0113(13) 0.0067(12)
C13 0.0267(17) 0.0351(19) 0.044(2) 0.0231(16) 0.0179(15) 0.0058(14)
C14 0.037(2) 0.061(3) 0.059(3) 0.043(2) 0.0229(19) 0.0163(19)
N1 0.0189(12) 0.0222(13) 0.0295(13) 0.0098(10) 0.0102(11) 0.0045(10)
N2 0.0209(12) 0.0240(13) 0.0262(13) 0.0106(10) 0.0090(10) 0.0062(10)
O1 0.0184(10) 0.0321(12) 0.0337(12) 0.0165(10) 0.0077(9) 0.0020(9)
O2 0.0182(10) 0.0327(12) 0.0280(11) 0.0158(9) 0.0046(9) 0.0042(9)
O3 0.0199(12) 0.0537(17) 0.0586(17) 0.0373(14) 0.0098(11) 0.0037(11)
O4 0.0233(11) 0.0381(13) 0.0344(13) 0.0222(11) 0.0094(10) 0.0011(10)
Cl1 0.0355(4) 0.0320(4) 0.0280(4) 0.0161(3) 0.0100(3) 0.0076(3)
Cu1 0.01861(19) 0.0245(2) 0.0288(2) 0.01220(15) 0.00885(15) 0.00471(15)
Br1 0.01888(16) 0.0343(2) 0.0377(2) 0.01804(14) 0.00776(13) 0.00408(13)
loop_
_atom_type_symbol
_atom_type_description
_atom_type_scat_dispersion_real
_atom_type_scat_dispersion_imag
_atom_type_scat_source
C C 0.0033 0.0016 'International Tables Vol C Tables 4.2.6.8 and 6.1.1.4'
H H 0.0000 0.0000 'International Tables Vol C Tables 4.2.6.8 and 6.1.1.4'
N N 0.0061 0.0033 'International Tables Vol C Tables 4.2.6.8 and 6.1.1.4'
O O 0.0106 0.0060 'International Tables Vol C Tables 4.2.6.8 and 6.1.1.4'
Cl Cl 0.1484 0.1585 'International Tables Vol C Tables 4.2.6.8 and 6.1.1.4'
Cu Cu 0.3201 1.2651 'International Tables Vol C Tables 4.2.6.8 and 6.1.1.4'
Br Br -0.2901 2.4595 'International Tables Vol C Tables 4.2.6.8 and 6.1.1.4'
loop_
_geom_angle_atom_site_label_1
_geom_angle_atom_site_label_2
_geom_angle_atom_site_label_3
_geom_angle
N1 C1 C2 122.5(3)
N1 C1 H1 118.7
C2 C1 H1 118.7
C1 C2 C3 117.8(3)
C1 C2 H2 121.1
C3 C2 H2 121.1
C4 C3 C2 120.7(3)
C4 C3 Cl1 120.0(3)
C2 C3 Cl1 119.4(2)
C3 C4 C5 118.2(3)
C3 C4 H4 120.9
C5 C4 H4 120.9
N1 C5 C4 121.8(3)
N1 C5 C6 116.8(3)
C4 C5 C6 121.4(3)
N2 C6 C5 109.8(2)
N2 C6 H6A 109.7
C5 C6 H6A 109.7
N2 C6 H6B 109.7
C5 C6 H6B 109.7
H6A C6 H6B 108.2
N2 C7 C8 127.6(3)
N2 C7 H7 116.2
C8 C7 H7 116.2
C7 C8 C9 120.3(3)
C7 C8 C12 114.8(3)
C9 C8 C12 124.9(3)
O1 C9 O2 117.7(3)
O1 C9 C8 124.4(3)
O2 C9 C8 117.9(3)
O2 C10 C11 105.7(3)
O2 C10 H10A 110.6
C11 C10 H10A 110.6
O2 C10 H10B 110.6
C11 C10 H10B 110.6
H10A C10 H10B 108.7
C10 C11 H11A 109.5
C10 C11 H11B 109.5
H11A C11 H11B 109.5
C10 C11 H11C 109.5
H11A C11 H11C 109.5
H11B C11 H11C 109.5
O3 C12 O4 122.1(3)
O3 C12 C8 123.6(3)
O4 C12 C8 114.3(3)
O4 C13 C14 105.0(3)
O4 C13 H13A 110.7
C14 C13 H13A 110.7
O4 C13 H13B 110.7
C14 C13 H13B 110.7
H13A C13 H13B 108.8
C13 C14 H14A 109.5
C13 C14 H14B 109.5
H14A C14 H14B 109.5
C13 C14 H14C 109.5
H14A C14 H14C 109.5
H14B C14 H14C 109.5
C5 N1 C1 119.0(3)
C5 N1 Cu1 114.19(19)
C1 N1 Cu1 126.8(2)
C7 N2 C6 117.7(3)
C7 N2 Cu1 126.3(2)
C6 N2 Cu1 115.89(18)
C9 O1 Cu1 131.0(2)
C9 O2 C10 117.5(2)
C12 O4 C13 117.6(3)
O1 Cu1 N2 90.31(10)
O1 Cu1 N1 172.91(10)
N2 Cu1 N1 83.24(10)
O1 Cu1 Br1 89.15(7)
N2 Cu1 Br1 176.52(8)
N1 Cu1 Br1 97.46(7)
loop_
_geom_bond_atom_site_label_1
_geom_bond_atom_site_label_2
_geom_bond_distance
C1 N1 1.354(4)
C1 C2 1.375(4)
C1 H1 0.9500
C2 C3 1.388(5)
C2 H2 0.9500
C3 C4 1.384(4)
C3 Cl1 1.727(3)
C4 C5 1.387(4)
C4 H4 0.9500
C5 N1 1.348(4)
C5 C6 1.500(4)
C6 N2 1.457(4)
C6 H6A 0.9900
C6 H6B 0.9900
C7 N2 1.313(4)
C7 C8 1.405(4)
C7 H7 0.9500
C8 C9 1.425(4)
C8 C12 1.469(4)
C9 O1 1.266(4)
C9 O2 1.327(4)
C10 O2 1.460(4)
C10 C11 1.506(4)
C10 H10A 0.9900
C10 H10B 0.9900
C11 H11A 0.9800
C11 H11B 0.9800
C11 H11C 0.9800
C12 O3 1.216(4)
C12 O4 1.326(4)
C13 O4 1.448(4)
C13 C14 1.513(5)
C13 H13A 0.9900
C13 H13B 0.9900
C14 H14A 0.9800
C14 H14B 0.9800
C14 H14C 0.9800
N1 Cu1 1.995(3)
N2 Cu1 1.930(3)
O1 Cu1 1.922(2)
Cu1 Br1 2.3787(5)
loop_
_geom_torsion_atom_site_label_1
_geom_torsion_atom_site_label_2
_geom_torsion_atom_site_label_3
_geom_torsion_atom_site_label_4
_geom_torsion
N1 C1 C2 C3 -0.5(5)
C1 C2 C3 C4 0.6(5)
C1 C2 C3 Cl1 -178.1(2)
C2 C3 C4 C5 -0.1(5)
Cl1 C3 C4 C5 178.6(2)
C3 C4 C5 N1 -0.7(5)
C3 C4 C5 C6 -180.0(3)
N1 C5 C6 N2 2.0(4)
C4 C5 C6 N2 -178.8(3)
N2 C7 C8 C9 -3.3(5)
N2 C7 C8 C12 175.9(3)
C7 C8 C9 O1 1.0(5)
C12 C8 C9 O1 -178.0(3)
C7 C8 C9 O2 -179.3(3)
C12 C8 C9 O2 1.6(5)
C7 C8 C12 O3 -5.0(5)
C9 C8 C12 O3 174.1(3)
C7 C8 C12 O4 175.5(3)
C9 C8 C12 O4 -5.4(5)
C4 C5 N1 C1 0.9(5)
C6 C5 N1 C1 -179.8(3)
C4 C5 N1 Cu1 -179.6(2)
C6 C5 N1 Cu1 -0.4(4)
C2 C1 N1 C5 -0.3(5)
C2 C1 N1 Cu1 -179.7(2)
C8 C7 N2 C6 177.8(3)
C8 C7 N2 Cu1 1.5(5)
C5 C6 N2 C7 -179.3(3)
C5 C6 N2 Cu1 -2.7(3)
O2 C9 O1 Cu1 -176.8(2)
C8 C9 O1 Cu1 2.9(5)
O1 C9 O2 C10 -0.8(4)
C8 C9 O2 C10 179.5(3)
C11 C10 O2 C9 178.9(3)
O3 C12 O4 C13 -5.8(5)
C8 C12 O4 C13 173.7(3)
C14 C13 O4 C12 -172.6(3)
