#------------------------------------------------------------------------------
#$Date: 2019-11-05 05:41:22 +0200 (Tue, 05 Nov 2019) $
#$Revision: 223275 $
#$URL: file:///home/coder/svn-repositories/cod/cif/7/70/14/7701479.cif $
#------------------------------------------------------------------------------
#
# This file is available in the Crystallography Open Database (COD),
# http://www.crystallography.net/
#
# All data on this site have been placed in the public domain by the
# contributors.
#
data_7701479
loop_
_publ_author_name
'Ould, Darren'
'Tran, Thao Thi-Phuong'
'Rawson, Jeremy Michael'
'Melen, Rebecca'
_publ_section_title
;
 Structure-property-reactivity studies on dithiaphospholes
;
_journal_name_full               'Dalton Transactions'
_journal_paper_doi               10.1039/C9DT03577J
_journal_year                    2019
_chemical_formula_moiety         'C7 H6 Cl P S2'
_chemical_formula_sum            'C7 H6 Cl P S2'
_chemical_formula_weight         220.66
_space_group_crystal_system      monoclinic
_space_group_IT_number           14
_space_group_name_Hall           '-P 2ybc'
_space_group_name_H-M_alt        'P 1 21/c 1'
_atom_sites_solution_hydrogens   geom
_atom_sites_solution_primary     direct
_audit_creation_method           SHELXL-2013
_audit_update_record
;
2019-09-03 deposited with the CCDC.	2019-09-25 downloaded from the CCDC.
;
_cell_angle_alpha                90
_cell_angle_beta                 91.739(3)
_cell_angle_gamma                90
_cell_formula_units_Z            4
_cell_length_a                   7.9254(2)
_cell_length_b                   14.9999(5)
_cell_length_c                   7.5269(2)
_cell_measurement_reflns_used    4972
_cell_measurement_temperature    150(2)
_cell_measurement_theta_max      73.9450
_cell_measurement_theta_min      5.5700
_cell_volume                     894.39(4)
_computing_cell_refinement       'CrysAlisPro 1.171.39.45b (Rigaku OD, 2018)'
_computing_data_collection       'CrysAlisPro 1.171.39.45b (Rigaku OD, 2018)'
_computing_data_reduction        'CrysAlisPro 1.171.39.45b (Rigaku OD, 2018)'
_computing_molecular_graphics    'XShell and Mercury'
_computing_publication_material  Xcif
_computing_structure_refinement  'SHELXL-2013 (Sheldrick, 2013)'
_computing_structure_solution    ShelXS
_diffrn_ambient_temperature      150(2)
_diffrn_measured_fraction_theta_full 0.999
_diffrn_measured_fraction_theta_max 0.987
_diffrn_measurement_device_type
'Agilent Supernova Dual Atlas with CCD Detector'
_diffrn_measurement_method       'Omega scans'
_diffrn_radiation_type           CuK\a
_diffrn_radiation_wavelength     1.54178
_diffrn_reflns_av_R_equivalents  0.0342
_diffrn_reflns_av_unetI/netI     0.0215
_diffrn_reflns_Laue_measured_fraction_full 0.999
_diffrn_reflns_Laue_measured_fraction_max 0.987
_diffrn_reflns_limit_h_max       9
_diffrn_reflns_limit_h_min       -9
_diffrn_reflns_limit_k_max       17
_diffrn_reflns_limit_k_min       -18
_diffrn_reflns_limit_l_max       9
_diffrn_reflns_limit_l_min       -9
_diffrn_reflns_number            8622
_diffrn_reflns_point_group_measured_fraction_full 0.999
_diffrn_reflns_point_group_measured_fraction_max 0.987
_diffrn_reflns_theta_full        67.679
_diffrn_reflns_theta_max         74.035
_diffrn_reflns_theta_min         5.584
_diffrn_source                   'Sealed tube'
_exptl_absorpt_coefficient_mu    9.255
_exptl_absorpt_correction_T_max  1.000
_exptl_absorpt_correction_T_min  0.734
_exptl_absorpt_correction_type   gaussian
_exptl_absorpt_process_details
;
CrysAlisPro 1.171.39.45b (Rigaku Oxford Diffraction, 2018)
Numerical absorption correction based on gaussian integration over
			a multifaceted crystal model
Empirical absorption correction using spherical harmonics,
 implemented in SCALE3 ABSPACK scaling algorithm.
;
_exptl_crystal_colour            Colourless
_exptl_crystal_density_diffrn    1.639
_exptl_crystal_description       Block
_exptl_crystal_F_000             448
_exptl_crystal_size_max          0.260
_exptl_crystal_size_mid          0.150
_exptl_crystal_size_min          0.133
_refine_diff_density_max         0.533
_refine_diff_density_min         -0.337
_refine_diff_density_rms         0.087
_refine_ls_extinction_method     none
_refine_ls_goodness_of_fit_ref   1.027
_refine_ls_hydrogen_treatment    constr
_refine_ls_matrix_type           full
_refine_ls_number_parameters     101
_refine_ls_number_reflns         1792
_refine_ls_number_restraints     0
_refine_ls_restrained_S_all      1.027
_refine_ls_R_factor_all          0.0360
_refine_ls_R_factor_gt           0.0329
_refine_ls_shift/su_max          0.000
_refine_ls_shift/su_mean         0.000
_refine_ls_structure_factor_coef Fsqd
_refine_ls_weighting_details
'w=1/[\s^2^(Fo^2^)+(0.0627P)^2^+0.3568P] where P=(Fo^2^+2Fc^2^)/3'
_refine_ls_weighting_scheme      calc
_refine_ls_wR_factor_gt          0.0856
_refine_ls_wR_factor_ref         0.0889
_reflns_Friedel_coverage         0.000
_reflns_number_gt                1641
_reflns_number_total             1792
_reflns_threshold_expression     'I > 2\s(I)'
_cod_data_source_file            c9dt03577j2.cif
_cod_data_source_block           rm1830
_cod_depositor_comments
;
The following automatic conversions were performed:

data item '_atom_sites_solution_primary' value 'Direct' was changed
to 'direct' in accordance with the
/home/data/users/saulius/crontab/automatic-downloads/rss-feeds/RSC/lib/dictionaries/cif_core.dic
dictionary named 'cif_core.dic' version 2.4.2 last updated on
2011-04-26.

data item '_exptl_absorpt_correction_type' value 'Gaussian' was
changed to 'gaussian' in accordance with the
/home/data/users/saulius/crontab/automatic-downloads/rss-feeds/RSC/lib/dictionaries/cif_core.dic
dictionary named 'cif_core.dic' version 2.4.2 last updated on
2011-04-26.

Automatic conversion script
Id: cif_fix_values 6909 2019-04-08 15:41:33Z antanas 
;
_cod_original_cell_volume        894.38(4)
_cod_original_sg_symbol_H-M      'P 21/c'
_cod_database_code               7701479
_shelx_space_group_comment
;
The symmetry employed for this shelxl refinement is uniquely defined
by the following loop, which should always be used as a source of
symmetry information in preference to the above space-group names.
They are only intended as comments.
;
_shelx_estimated_absorpt_t_min   0.197
_shelx_estimated_absorpt_t_max   0.372
_shelxl_version_number           2013-3
_shelx_res_file
;
TITL rm1830b in P2(1)/c
CELL 1.54178   7.92540  14.99991   7.52686  90.0000  91.7390  90.0000
ZERR    4.00   0.00021   0.00045   0.00020   0.0000   0.0025   0.0000
LATT 1
SYMM -X, 0.5+Y, 0.5-Z
SFAC C  H  P  S  Cl
UNIT 28  24  4  8  4
L.S. 4
ACTA
BOND $H
FMAP 2
PLAN 20
SIZE  0.260 0.150 0.133
TEMP -123
WGHT    0.062700    0.356800
FVAR       0.67714
MOLE 1
S1    4    0.776576    0.096933    0.082309    11.00000    0.01848    0.02419 =
         0.01471   -0.00100    0.00148   -0.00133
S2    4    0.585762    0.185268    0.389586    11.00000    0.01609    0.01832 =
         0.02195   -0.00412   -0.00013    0.00243
CL1   5    0.472796   -0.015441    0.260563    11.00000    0.02034    0.01993 =
         0.02070   -0.00077    0.00091   -0.00277
P1    3    0.526412    0.112385    0.158546    11.00000    0.01667    0.01915 =
         0.01809    0.00012   -0.00229    0.00084
C5    1    1.048027    0.142804    0.618129    11.00000    0.02019    0.01494 =
         0.01882    0.00123    0.00003   -0.00159
C2    1    0.881843    0.111142    0.290978    11.00000    0.01859    0.01746 =
         0.01602    0.00114    0.00124   -0.00071
C6    1    1.131504    0.101729    0.479073    11.00000    0.01599    0.02118 =
         0.02199    0.00078   -0.00054    0.00057
AFIX  43
H6    2    1.246205    0.084572    0.496452    11.00000   -1.20000
AFIX   0
C1    1    1.050596    0.085475    0.316340    11.00000    0.01825    0.02101 =
         0.02109   -0.00069    0.00470    0.00081
AFIX  43
H1    2    1.108963    0.057290    0.223327    11.00000   -1.20000
AFIX   0
C4    1    0.879192    0.165799    0.592635    11.00000    0.02152    0.01384 =
         0.01788   -0.00052    0.00263    0.00041
AFIX  43
H4    2    0.819499    0.191869    0.687081    11.00000   -1.20000
AFIX   0
C3    1    0.797347    0.150800    0.429502    11.00000    0.01529    0.01274 =
         0.02058    0.00092    0.00139    0.00005
C10   1    1.139230    0.160886    0.793455    11.00000    0.02435    0.02792 =
         0.02344   -0.00299   -0.00353    0.00308
AFIX 137
H10A  2    1.071456    0.201277    0.864672    11.00000   -1.50000
H10B  2    1.248798    0.188461    0.771764    11.00000   -1.50000
H10C  2    1.156634    0.104657    0.857727    11.00000   -1.50000
AFIX   0
HKLF 4

REM  rm1830b in P2(1)/c
REM R1 =  0.0329 for    1641 Fo > 4sig(Fo)  and  0.0360 for all    1792 data
REM    101 parameters refined using      0 restraints

END

WGHT      0.0629      0.3471

REM Highest difference peak  0.533,  deepest hole -0.337,  1-sigma level  0.087
Q1    1   0.6546  0.1003  0.1294  11.00000  0.05    0.53
Q2    1   0.9650  0.0956  0.3109  11.00000  0.05    0.43
Q3    1   0.6968  0.1614  0.3983  11.00000  0.05    0.41
Q4    1   0.5006  0.0551  0.2227  11.00000  0.05    0.38
Q5    1   0.3657  0.0036  0.2184  11.00000  0.05    0.30
Q6    1   0.4661  0.1790  0.4357  11.00000  0.05    0.30
Q7    1   0.4112  0.0023 -0.0052  11.00000  0.05    0.29
Q8    1   0.5930 -0.0039  0.2152  11.00000  0.05    0.29
Q9    1   0.8005  0.1058  0.3661  11.00000  0.05    0.29
Q10   1   0.3450  0.0205  0.3054  11.00000  0.05    0.28
Q11   1   0.4233  0.1242  0.1656  11.00000  0.05    0.28
Q12   1   0.6745  0.2622  0.6247  11.00000  0.05    0.27
Q13   1   1.2575  0.1281  0.8060  11.00000  0.05    0.26
Q14   1   0.9729  0.1727  0.5953  11.00000  0.05    0.26
Q15   1   0.7059  0.0557  0.3511  11.00000  0.05    0.25
Q16   1   1.0819  0.1396  0.5438  11.00000  0.05    0.24
Q17   1   0.7285  0.0187  0.1581  11.00000  0.05    0.24
Q18   1   0.3527 -0.0368  0.3143  11.00000  0.05    0.23
Q19   1   1.3951  0.1991  0.5947  11.00000  0.05    0.23
Q20   1   0.5216  0.1377  0.4439  11.00000  0.05    0.23
;
_shelx_res_checksum              1909
loop_
_space_group_symop_operation_xyz
'x, y, z'
'-x, y+1/2, -z+1/2'
'-x, -y, -z'
'x, -y-1/2, z-1/2'
loop_
_atom_site_label
_atom_site_type_symbol
_atom_site_fract_x
_atom_site_fract_y
_atom_site_fract_z
_atom_site_U_iso_or_equiv
_atom_site_adp_type
_atom_site_occupancy
_atom_site_site_symmetry_order
_atom_site_calc_flag
_atom_site_refinement_flags_posn
_atom_site_refinement_flags_adp
S1 S 0.77658(6) 0.09693(3) 0.08231(6) 0.01911(16) Uani 1 1 d . .
S2 S 0.58576(6) 0.18527(3) 0.38959(6) 0.01880(16) Uani 1 1 d . .
Cl1 Cl 0.47280(6) -0.01544(3) 0.26056(6) 0.02032(16) Uani 1 1 d . .
P1 P 0.52641(6) 0.11239(3) 0.15855(7) 0.01803(16) Uani 1 1 d . .
C5 C 1.0480(3) 0.14280(13) 0.6181(3) 0.0180(4) Uani 1 1 d . .
C2 C 0.8818(3) 0.11114(13) 0.2910(3) 0.0173(4) Uani 1 1 d . .
C6 C 1.1315(3) 0.10173(14) 0.4791(3) 0.0197(4) Uani 1 1 d . .
H6 H 1.2462 0.0846 0.4965 0.024 Uiso 1 1 calc R U
C1 C 1.0506(3) 0.08547(14) 0.3163(3) 0.0200(4) Uani 1 1 d . .
H1 H 1.1090 0.0573 0.2233 0.024 Uiso 1 1 calc R U
C4 C 0.8792(3) 0.16580(13) 0.5926(3) 0.0177(4) Uani 1 1 d . .
H4 H 0.8195 0.1919 0.6871 0.021 Uiso 1 1 calc R U
C3 C 0.7973(2) 0.15080(13) 0.4295(3) 0.0162(4) Uani 1 1 d . .
C10 C 1.1392(3) 0.16089(16) 0.7935(3) 0.0253(5) Uani 1 1 d . .
H10A H 1.0715 0.2013 0.8647 0.038 Uiso 1 1 calc R U
H10B H 1.2488 0.1885 0.7718 0.038 Uiso 1 1 calc R U
H10C H 1.1566 0.1047 0.8577 0.038 Uiso 1 1 calc R U
loop_
_atom_site_aniso_label
_atom_site_aniso_U_11
_atom_site_aniso_U_22
_atom_site_aniso_U_33
_atom_site_aniso_U_23
_atom_site_aniso_U_13
_atom_site_aniso_U_12
S1 0.0185(3) 0.0242(3) 0.0147(3) -0.00100(18) 0.00148(19) -0.00133(19)
S2 0.0161(3) 0.0183(3) 0.0220(3) -0.00412(18) -0.00013(19) 0.00243(17)
Cl1 0.0203(3) 0.0199(3) 0.0207(3) -0.00077(18) 0.00091(19) -0.00277(17)
P1 0.0167(3) 0.0192(3) 0.0181(3) 0.00012(18) -0.0023(2) 0.00084(18)
C5 0.0202(10) 0.0149(9) 0.0188(9) 0.0012(8) 0.0000(8) -0.0016(8)
C2 0.0186(10) 0.0175(10) 0.0160(9) 0.0011(7) 0.0012(8) -0.0007(7)
C6 0.0160(9) 0.0212(10) 0.0220(10) 0.0008(8) -0.0005(8) 0.0006(8)
C1 0.0183(10) 0.0210(10) 0.0211(10) -0.0007(8) 0.0047(8) 0.0008(8)
C4 0.0215(10) 0.0138(9) 0.0179(9) -0.0005(7) 0.0026(8) 0.0004(7)
C3 0.0153(9) 0.0127(9) 0.0206(9) 0.0009(7) 0.0014(8) 0.0000(7)
C10 0.0243(11) 0.0279(11) 0.0234(10) -0.0030(9) -0.0035(9) 0.0031(9)
loop_
_atom_type_symbol
_atom_type_description
_atom_type_scat_dispersion_real
_atom_type_scat_dispersion_imag
_atom_type_scat_source
C C 0.0181 0.0091 'International Tables Vol C Tables 4.2.6.8 and 6.1.1.4'
H H 0.0000 0.0000 'International Tables Vol C Tables 4.2.6.8 and 6.1.1.4'
P P 0.2955 0.4335 'International Tables Vol C Tables 4.2.6.8 and 6.1.1.4'
S S 0.3331 0.5567 'International Tables Vol C Tables 4.2.6.8 and 6.1.1.4'
Cl Cl 0.3639 0.7018 'International Tables Vol C Tables 4.2.6.8 and 6.1.1.4'
loop_
_geom_angle_atom_site_label_1
_geom_angle_atom_site_label_2
_geom_angle_atom_site_label_3
_geom_angle
C2 S1 P1 99.69(7)
C3 S2 P1 100.13(7)
S1 P1 S2 95.43(3)
S1 P1 Cl1 101.63(3)
S2 P1 Cl1 102.38(3)
C4 C5 C6 118.79(19)
C4 C5 C10 120.64(18)
C6 C5 C10 120.57(19)
C3 C2 C1 119.72(19)
C3 C2 S1 119.52(16)
C1 C2 S1 120.74(16)
C1 C6 C5 121.47(19)
C1 C6 H6 119.3
C5 C6 H6 119.3
C6 C1 C2 119.11(19)
C6 C1 H1 120.4
C2 C1 H1 120.4
C5 C4 C3 120.24(18)
C5 C4 H4 119.9
C3 C4 H4 119.9
C4 C3 C2 120.64(18)
C4 C3 S2 121.11(15)
C2 C3 S2 118.21(16)
C5 C10 H10A 109.5
C5 C10 H10B 109.5
H10A C10 H10B 109.5
C5 C10 H10C 109.5
H10A C10 H10C 109.5
H10B C10 H10C 109.5
loop_
_geom_bond_atom_site_label_1
_geom_bond_atom_site_label_2
_geom_bond_distance
S1 C2 1.769(2)
S1 P1 2.0935(7)
S2 C3 1.772(2)
S2 P1 2.0954(7)
Cl1 P1 2.1134(7)
C5 C4 1.389(3)
C5 C6 1.398(3)
C5 C10 1.510(3)
C2 C3 1.390(3)
C2 C1 1.399(3)
C6 C1 1.387(3)
C6 H6 0.9500
C1 H1 0.9500
C4 C3 1.389(3)
C4 H4 0.9500
C10 H10A 0.9800
C10 H10B 0.9800
C10 H10C 0.9800
