#------------------------------------------------------------------------------
#$Date: 2019-11-07 23:29:51 +0200 (Thu, 07 Nov 2019) $
#$Revision: 224029 $
#$URL: file:///home/coder/svn-repositories/cod/cif/7/70/13/7701347.cif $
#------------------------------------------------------------------------------
#
# This file is available in the Crystallography Open Database (COD),
# http://www.crystallography.net/
#
# All data on this site have been placed in the public domain by the
# contributors.
#
data_7701347
loop_
_publ_author_name
'Bette, Sebastian'
'M\"uller, Michael X'
'Eggert, Gerhard'
'Schleid, Thomas'
'Dinnebier, Robert E.'
_publ_section_title
;
 Efflorescence on calcareous objects in museums: crystallisation, phase
 characterisation and crystal structures of calcium acetate formate
 phases.
;
_journal_issue                   42
_journal_name_full
'Dalton transactions (Cambridge, England : 2003)'
_journal_page_first              16062
_journal_page_last               16073
_journal_paper_doi               10.1039/c9dt03558c
_journal_volume                  48
_journal_year                    2019
_chemical_formula_moiety         '(C2 H3 O2), (C H O2), (O H2), (Ca)'
_chemical_formula_sum            'C3 H6 Ca O5'
_chemical_formula_weight         162.15
_chemical_name_common            Ca(CH3-COO)(HCOO)*H2O
_chemical_properties_physical    Efflorescent,Heat-sensitive
_space_group_IT_number           14
_space_group_name_Hall           '-P 2ybc'
_space_group_name_H-M_alt        'P 1 21/c 1'
_symmetry_cell_setting           monoclinic
_symmetry_Int_Tables_number      14
_symmetry_space_group_name_Hall  '-P 2ybc'
_symmetry_space_group_name_H-M   'P 1 21/c 1'
_audit_creation_method           TOPAS
_audit_update_record
;
2019-08-22 deposited with the CCDC.    2019-10-09 downloaded from the CCDC.
;
_cell_angle_alpha                90
_cell_angle_beta                 121.2320(8)
_cell_angle_gamma                90
_cell_formula_units_Z            4
_cell_length_a                   9.27289(9)
_cell_length_b                   6.80022(7)
_cell_length_c                   11.22194(17)
_cell_measurement_temperature    298
_cell_volume                     605.076(14)
_diffrn_ambient_temperature      298
_diffrn_detector
; 
 multi MYTHEN II (Dectris)   
;
_diffrn_measurement_device_type  Stoe-Stadi-P
_diffrn_radiation_probe          x-ray
_diffrn_radiation_type           'Cu K\a'
_diffrn_radiation_wavelength     1.5406
_diffrn_source_type              Cu-tube
_exptl_absorpt_process_details
;   
 ?
;
_exptl_crystal_colour            white
_exptl_crystal_density_diffrn    1.78
_exptl_crystal_description       'microcrystalline powder'
_pd_calc_method                  'Rietveld Refinement'
_pd_instr_location
; 
'SLS (Swiss Light Source)'
;
_pd_meas_2theta_range_inc        0.001
_pd_meas_2theta_range_max        110.0
_pd_meas_2theta_range_min        2.0
_pd_meas_scan_method             step
_pd_proc_2theta_range_inc        0.001
_pd_proc_2theta_range_max        110.0
_pd_proc_2theta_range_min        10.0
_pd_proc_info_data_reduction     binning
_pd_proc_info_excluded_regions
;
 ?
;
_pd_proc_ls_background_function
;   
'Chebyshev polynomial'
;
_pd_proc_ls_peak_cutoff          0.00100
_pd_proc_ls_profile_function
;
 Fundamental parameters
;
_pd_proc_ls_prof_R_factor        0.0124
_pd_proc_ls_prof_wR_expected     0.0010
_pd_proc_ls_prof_wR_factor       0.0158
_pd_spec_mounting
; 
'0.5 mm glass capillary'
;
_pd_spec_mount_mode              transmission
_pd_spec_shape                   cylinder
_refine_ls_number_parameters     68
_refine_ls_R_Fsqd_factor         0.0085
_cod_data_source_file            c9dt03558c2.cif
_cod_data_source_block           Calciumacetatformatemonohydrate
_cod_depositor_comments
;
The following automatic conversions were performed:

'_diffrn_radiation_probe' value 'X-ray' changed to 'x-ray' according
to
/home/data/users/saulius/crontab/automatic-downloads/rss-feeds/RSC/lib/dictionaries/cif_core.dic
dictionary named 'cif_core.dic' version 2.4.2 from 2011-04-26.

Automatic conversion script
Id: cif_fix_values 4973 2017-02-22 13:04:09Z antanas 

 Adding full bibliography for 7701347--7701348.cif.
;
_cod_original_sg_symbol_H-M      P21/c
_cod_database_code               7701347
loop_
_symmetry_equiv_pos_as_xyz
'x, y, z '
'-x, y+1/2, -z+1/2 '
'x, -y+1/2, z+1/2 '
'-x, -y, -z '
loop_
_atom_site_label
_atom_site_type_symbol
_atom_site_symmetry_multiplicity
_atom_site_Wyckoff_symbol
_atom_site_fract_x
_atom_site_fract_y
_atom_site_fract_z
_atom_site_occupancy
_atom_site_B_iso_or_equiv
Ca1 Ca+2 4 e 0.9102(3) 0.9694(4) 0.6257(2) 1 0.49(8)
O1 O-2 4 e 0.7127(6) 0.9002(10) 0.7019(6) 1 2.9(2)
C1a C 4 e 0.691(2) 1.044(8) 0.3312(16) 1 2.70(11)
C2a C 4 e 0.565(5) 1.103(14) 0.178(3) 1 2.70(11)
O1a O 4 e 0.8412(6) 0.9945(10) 0.3762(7) 1 2.70(11)
O2a O 4 e 0.621(4) 1.052(12) 0.406(3) 1 2.70(11)
C1b C 4 e 1.119(8) 0.9604(18) 0.945(3) 1 2.70(11)
O1b O 4 e 1.1037(9) 1.1360(11) 0.9052(8) 1 2.70(11)
O2b O 4 e 1.084(13) 0.807(3) 0.865(5) 1 2.70(11)
H1b H 4 e 1.160(10) 0.921(4) 1.043(3) 1 1
loop_
_atom_type_symbol
_atom_type_oxidation_number
Ca 2
C 0
O -2
H 1
loop_
_geom_angle_atom_site_label_1
_geom_angle_atom_site_label_2
_geom_angle_atom_site_label_3
_geom_angle
_geom_angle_site_symmetry_1
_geom_angle_site_symmetry_2
_geom_angle_site_symmetry_3
O1a C1a O2a 125(2) 1_555 1_555 1_555
loop_
_geom_bond_atom_site_label_1
_geom_bond_atom_site_label_2
_geom_bond_distance
_geom_bond_multiplicity
C1a C2a 1.55(4) 4
