#------------------------------------------------------------------------------
#$Date: 2019-11-08 00:22:19 +0200 (Fri, 08 Nov 2019) $
#$Revision: 224239 $
#$URL: file:///home/coder/svn-repositories/cod/cif/7/70/11/7701182.cif $
#------------------------------------------------------------------------------
#
# This file is available in the Crystallography Open Database (COD),
# http://www.crystallography.net/
#
# All data on this site have been placed in the public domain by the
# contributors.
#
data_7701182
loop_
_publ_author_name
'Dankhoff, Katja'
'Gold, Madeleine'
'Kober, Luisa'
'Schmitt, Florian'
'Pfeifer, Lena'
'D\"urrmann, Andreas'
'Kostrhunova, Hana'
'Rothemund, Matthias'
'Brabec, Viktor'
'Schobert, Rainer'
'Weber, Birgit'
_publ_section_title
;
 Copper(ii) complexes with tridentate Schiff base-like ligands: solid
 state and solution structures and anticancer activity.
;
_journal_issue                   40
_journal_name_full
'Dalton transactions (Cambridge, England : 2003)'
_journal_page_first              15220
_journal_page_last               15230
_journal_paper_doi               10.1039/c9dt02571e
_journal_volume                  48
_journal_year                    2019
_chemical_formula_moiety         'C13 H14 Br Cu N3 O2'
_chemical_formula_sum            'C13 H14 Br Cu N3 O2'
_chemical_formula_weight         387.72
_chemical_name_common            '[CuL40dBr]'
_space_group_crystal_system      triclinic
_space_group_IT_number           2
_space_group_name_Hall           '-P 1'
_space_group_name_H-M_alt        'P -1'
_symmetry_space_group_name_Hall  '-P 1'
_symmetry_space_group_name_H-M   'P -1'
_atom_sites_solution_hydrogens   geom
_audit_creation_date             2019-01-09
_audit_creation_method           SHELXL-2014/7
_audit_update_record
;
2019-05-13 deposited with the CCDC.    2019-09-18 downloaded from the CCDC.
;
_cell_angle_alpha                107.000(3)
_cell_angle_beta                 96.398(3)
_cell_angle_gamma                102.191(3)
_cell_formula_units_Z            2
_cell_length_a                   7.5494(2)
_cell_length_b                   8.2358(3)
_cell_length_c                   12.3671(4)
_cell_measurement_reflns_used    10057
_cell_measurement_temperature    133(2)
_cell_measurement_theta_max      28.5
_cell_measurement_theta_min      1.8
_cell_volume                     706.31(4)
_computing_cell_refinement       X-AREA-STOE
_computing_data_collection       X-AREA-STOE
_computing_data_reduction        X-AREA-STOE
_computing_molecular_graphics    ORTEP-III
_computing_publication_material  PLATON
_computing_structure_refinement  'SHELXL-2014 (Sheldrick, 2014)'
_computing_structure_solution    SIR97
_diffrn_ambient_temperature      133(2)
_diffrn_detector_area_resol_mean 9
_diffrn_measured_fraction_theta_full 0.998
_diffrn_measured_fraction_theta_max 0.956
_diffrn_measurement_device_type  STOE-STADIVARI
_diffrn_measurement_method       omega-scan
_diffrn_radiation_type           MoK\a
_diffrn_radiation_wavelength     0.71073
_diffrn_reflns_av_R_equivalents  0.0267
_diffrn_reflns_av_unetI/netI     0.0291
_diffrn_reflns_Laue_measured_fraction_full 0.998
_diffrn_reflns_Laue_measured_fraction_max 0.956
_diffrn_reflns_limit_h_max       10
_diffrn_reflns_limit_h_min       -4
_diffrn_reflns_limit_k_max       10
_diffrn_reflns_limit_k_min       -11
_diffrn_reflns_limit_l_max       16
_diffrn_reflns_limit_l_min       -16
_diffrn_reflns_number            10623
_diffrn_reflns_point_group_measured_fraction_full 0.998
_diffrn_reflns_point_group_measured_fraction_max 0.956
_diffrn_reflns_theta_full        25.242
_diffrn_reflns_theta_max         28.458
_diffrn_reflns_theta_min         1.752
_diffrn_source                   'fine-focus sealed tube'
_exptl_absorpt_coefficient_mu    4.378
_exptl_absorpt_correction_type   none
_exptl_crystal_colour            green
_exptl_crystal_density_diffrn    1.823
_exptl_crystal_density_method    'not measured'
_exptl_crystal_description       plate
_exptl_crystal_F_000             386
_exptl_crystal_size_max          0.085
_exptl_crystal_size_mid          0.045
_exptl_crystal_size_min          0.032
_refine_diff_density_max         0.422
_refine_diff_density_min         -0.531
_refine_diff_density_rms         0.081
_refine_ls_extinction_method     none
_refine_ls_goodness_of_fit_ref   1.046
_refine_ls_hydrogen_treatment    constr
_refine_ls_matrix_type           full
_refine_ls_number_parameters     181
_refine_ls_number_reflns         3406
_refine_ls_number_restraints     0
_refine_ls_restrained_S_all      1.046
_refine_ls_R_factor_all          0.0400
_refine_ls_R_factor_gt           0.0272
_refine_ls_shift/su_max          0.001
_refine_ls_shift/su_mean         0.000
_refine_ls_structure_factor_coef Fsqd
_refine_ls_weighting_details
'w=1/[\s^2^(Fo^2^)+(0.0340P)^2^+0.2645P] where P=(Fo^2^+2Fc^2^)/3'
_refine_ls_weighting_scheme      calc
_refine_ls_wR_factor_gt          0.0623
_refine_ls_wR_factor_ref         0.0659
_reflns_Friedel_coverage         0.000
_reflns_number_gt                2770
_reflns_number_total             3406
_reflns_threshold_expression     'I > 2\s(I)'
_cod_data_source_file            c9dt02571e2.cif
_cod_data_source_block           kd057
_cod_depositor_comments
'Adding full bibliography for 7701175--7701183.cif.'
_cod_original_cell_volume        706.30(4)
_cod_database_code               7701182
_shelx_space_group_comment
;
The symmetry employed for this shelxl refinement is uniquely defined
by the following loop, which should always be used as a source of
symmetry information in preference to the above space-group names.
They are only intended as comments.
;
_shelx_res_file
;

    shelx.res created by SHELXL-2014/7

TITL SIR97 run in space group P -1
CELL  0.71073   7.5494   8.2358  12.3671  107.000   96.398  102.191
ZERR     2.00   0.0002   0.0003   0.0004    0.003    0.003    0.003
LATT   1
SFAC  C    H    N    O    CU   BR
UNIT  26 28 6 4 2 2
MERG   2
FMAP   2
PLAN   10
ACTA
BOND   $H
CONF
LIST   4
L.S.  20
TEMP  -140.00
WGHT    0.034000    0.264500
FVAR       0.51978
C1    1    0.875376    0.127375    0.334904    11.00000    0.02316    0.01877 =
         0.02086    0.00549    0.00117    0.00325
AFIX  43
H1    2    0.881321    0.249183    0.362726    11.00000   -1.20000
AFIX   0
C2    1    0.928351    0.061608    0.230624    11.00000    0.01921    0.02346 =
         0.02067    0.00719    0.00145    0.00285
C3    1    0.927141   -0.114787    0.195107    11.00000    0.02519    0.02689 =
         0.01727    0.00386    0.00390    0.00750
AFIX  43
H3    2    0.967711   -0.163896    0.125678    11.00000   -1.20000
AFIX   0
C4    1    0.867391   -0.219936    0.259853    11.00000    0.02692    0.01965 =
         0.02202    0.00321    0.00471    0.00771
AFIX  43
H4    2    0.866963   -0.340656    0.235600    11.00000   -1.20000
AFIX   0
C5    1    0.808155   -0.145964    0.360756    11.00000    0.02015    0.01780 =
         0.02137    0.00432    0.00180    0.00618
C6    1    0.724547   -0.255204    0.429040    11.00000    0.02784    0.01454 =
         0.02185    0.00409    0.00487    0.00633
AFIX  23
H6A   2    0.608542   -0.340053    0.382568    11.00000   -1.20000
H6B   2    0.810429   -0.322313    0.448742    11.00000   -1.20000
AFIX   0
C7    1    0.620911   -0.216419    0.606127    11.00000    0.02044    0.01554 =
         0.02291    0.00544    0.00066    0.00448
AFIX  43
H7    2    0.601597   -0.340255    0.584948    11.00000   -1.20000
AFIX   0
C8    1    0.575925   -0.131603    0.711659    11.00000    0.02244    0.01841 =
         0.02141    0.00794    0.00351    0.00437
C12   1    0.503984   -0.238072    0.777695    11.00000    0.03170    0.02411 =
         0.02368    0.00602    0.00727    0.01072
C9    1    0.592600    0.052007    0.750582    11.00000    0.01930    0.02193 =
         0.01885    0.00407    0.00116    0.00525
C10   1    0.566570    0.304497    0.895955    11.00000    0.02820    0.01966 =
         0.02448    0.00206    0.00743    0.00696
AFIX  23
H11A  2    0.493820    0.329327    0.957909    11.00000   -1.20000
H11B  2    0.513162    0.340104    0.832417    11.00000   -1.20000
AFIX   0
C11   1    0.763614    0.411199    0.941414    11.00000    0.02880    0.02481 =
         0.03008    0.00231    0.00292    0.00590
AFIX 133
H12A  2    0.819337    0.371255    1.001055    11.00000   -1.50000
H12B  2    0.766378    0.535560    0.974312    11.00000   -1.50000
H12C  2    0.833187    0.396127    0.878419    11.00000   -1.50000
AFIX   0
C13   1    0.980534    0.177175    0.158531    11.00000    0.03836    0.02718 =
         0.02513    0.01084    0.01039    0.00681
AFIX 133
H13A  2    0.872316    0.164789    0.102143    11.00000   -1.50000
H13B  2    1.077949    0.141978    0.118241    11.00000   -1.50000
H13C  2    1.025264    0.299894    0.208338    11.00000   -1.50000
AFIX   0
N1    3    0.815605    0.026880    0.399111    11.00000    0.01896    0.01733 =
         0.01945    0.00463    0.00208    0.00329
N2    3    0.686530   -0.141777    0.534494    11.00000    0.02260    0.01533 =
         0.01835    0.00491    0.00308    0.00399
N3    3    0.445291   -0.331367    0.825905    11.00000    0.05215    0.02866 =
         0.03378    0.01377    0.01752    0.01048
O1    4    0.640466    0.153227    0.694140    11.00000    0.02824    0.01779 =
         0.02052    0.00602    0.00700    0.00634
O2    4    0.552931    0.116537    0.854212    11.00000    0.03302    0.01868 =
         0.01999    0.00468    0.00810    0.00594
CU1   5    0.735139    0.104481    0.550955    11.00000    0.02237    0.01427 =
         0.01847    0.00457    0.00474    0.00437
BR1   6    0.812283    0.408966    0.580261    11.00000    0.02973    0.01515 =
         0.02665    0.00669    0.00836    0.00553
HKLF    4

REM  SIR97 run in space group P -1
REM R1 =  0.0272 for    2770 Fo > 4sig(Fo)  and  0.0400 for all    3406 data
REM    181 parameters refined using      0 restraints

END

WGHT      0.0340      0.2645

REM Highest difference peak  0.422,  deepest hole -0.531,  1-sigma level  0.081
Q1    1   0.5810 -0.0603  0.7202  11.00000  0.05    0.42
Q2    1   0.6032 -0.1555  0.6626  11.00000  0.05    0.39
Q3    1   0.8086 -0.0477  0.3761  11.00000  0.05    0.36
Q4    1   0.8513  0.0769  0.3755  11.00000  0.05    0.36
Q5    1   0.8888 -0.0255  0.2017  11.00000  0.05    0.36
Q6    1   0.8655 -0.1631  0.2228  11.00000  0.05    0.35
Q7    1   0.9595  0.1237  0.1999  11.00000  0.05    0.34
Q8    1   0.6914 -0.1613  0.5851  11.00000  0.05    0.34
Q9    1   0.8623  0.0856  0.2673  11.00000  0.05    0.34
Q10   1   0.8198 -0.1759  0.3045  11.00000  0.05    0.34
;
_shelx_res_checksum              53053
loop_
_space_group_symop_operation_xyz
'x, y, z'
'-x, -y, -z'
loop_
_atom_site_label
_atom_site_type_symbol
_atom_site_fract_x
_atom_site_fract_y
_atom_site_fract_z
_atom_site_U_iso_or_equiv
_atom_site_adp_type
_atom_site_occupancy
_atom_site_site_symmetry_order
_atom_site_calc_flag
_atom_site_refinement_flags_posn
_atom_site_refinement_flags_adp
C1 C 0.8754(3) 0.1274(3) 0.3349(2) 0.0217(5) Uani 1 1 d . .
H1 H 0.8813 0.2492 0.3627 0.026 Uiso 1 1 calc R U
C2 C 0.9284(3) 0.0616(3) 0.2306(2) 0.0217(5) Uani 1 1 d . .
C3 C 0.9271(3) -0.1148(3) 0.1951(2) 0.0237(5) Uani 1 1 d . .
H3 H 0.9677 -0.1639 0.1257 0.028 Uiso 1 1 calc R U
C4 C 0.8674(3) -0.2199(3) 0.2599(2) 0.0234(5) Uani 1 1 d . .
H4 H 0.8670 -0.3407 0.2356 0.028 Uiso 1 1 calc R U
C5 C 0.8082(3) -0.1460(3) 0.3608(2) 0.0202(5) Uani 1 1 d . .
C6 C 0.7245(4) -0.2552(3) 0.4290(2) 0.0217(5) Uani 1 1 d . .
H6A H 0.6085 -0.3401 0.3826 0.026 Uiso 1 1 calc R U
H6B H 0.8104 -0.3223 0.4487 0.026 Uiso 1 1 calc R U
C7 C 0.6209(3) -0.2164(3) 0.6061(2) 0.0201(5) Uani 1 1 d . .
H7 H 0.6016 -0.3403 0.5849 0.024 Uiso 1 1 calc R U
C8 C 0.5759(3) -0.1316(3) 0.7117(2) 0.0206(5) Uani 1 1 d . .
C12 C 0.5040(4) -0.2381(3) 0.7777(2) 0.0261(5) Uani 1 1 d . .
C9 C 0.5926(3) 0.0520(3) 0.7506(2) 0.0208(5) Uani 1 1 d . .
C10 C 0.5666(4) 0.3045(3) 0.8960(2) 0.0249(5) Uani 1 1 d . .
H11A H 0.4938 0.3293 0.9579 0.030 Uiso 1 1 calc R U
H11B H 0.5132 0.3401 0.8324 0.030 Uiso 1 1 calc R U
C11 C 0.7636(4) 0.4112(3) 0.9414(2) 0.0297(6) Uani 1 1 d . .
H12A H 0.8193 0.3713 1.0011 0.045 Uiso 1 1 calc R U
H12B H 0.7664 0.5356 0.9743 0.045 Uiso 1 1 calc R U
H12C H 0.8332 0.3961 0.8784 0.045 Uiso 1 1 calc R U
C13 C 0.9805(4) 0.1772(4) 0.1585(2) 0.0296(6) Uani 1 1 d . .
H13A H 0.8723 0.1648 0.1021 0.044 Uiso 1 1 calc R U
H13B H 1.0779 0.1420 0.1182 0.044 Uiso 1 1 calc R U
H13C H 1.0253 0.2999 0.2083 0.044 Uiso 1 1 calc R U
N1 N 0.8156(3) 0.0269(3) 0.39911(17) 0.0192(4) Uani 1 1 d . .
N2 N 0.6865(3) -0.1418(3) 0.53449(17) 0.0191(4) Uani 1 1 d . .
N3 N 0.4453(4) -0.3314(3) 0.8259(2) 0.0366(6) Uani 1 1 d . .
O1 O 0.6405(2) 0.1532(2) 0.69414(14) 0.0220(4) Uani 1 1 d . .
O2 O 0.5529(2) 0.1165(2) 0.85421(15) 0.0241(4) Uani 1 1 d . .
Cu1 Cu 0.73514(4) 0.10448(3) 0.55095(2) 0.01851(8) Uani 1 1 d . .
Br1 Br 0.81228(3) 0.40897(3) 0.58026(2) 0.02365(8) Uani 1 1 d . .
loop_
_atom_site_aniso_label
_atom_site_aniso_U_11
_atom_site_aniso_U_22
_atom_site_aniso_U_33
_atom_site_aniso_U_23
_atom_site_aniso_U_13
_atom_site_aniso_U_12
C1 0.0232(12) 0.0188(12) 0.0209(12) 0.0055(9) 0.0012(10) 0.0032(10)
C2 0.0192(12) 0.0235(12) 0.0207(12) 0.0072(10) 0.0015(9) 0.0029(10)
C3 0.0252(13) 0.0269(13) 0.0173(12) 0.0039(10) 0.0039(10) 0.0075(10)
C4 0.0269(13) 0.0196(12) 0.0220(13) 0.0032(9) 0.0047(10) 0.0077(10)
C5 0.0202(12) 0.0178(12) 0.0214(12) 0.0043(9) 0.0018(9) 0.0062(9)
C6 0.0278(13) 0.0145(11) 0.0218(12) 0.0041(9) 0.0049(10) 0.0063(9)
C7 0.0204(12) 0.0155(11) 0.0229(12) 0.0054(9) 0.0007(9) 0.0045(9)
C8 0.0224(12) 0.0184(11) 0.0214(12) 0.0079(9) 0.0035(9) 0.0044(9)
C12 0.0317(14) 0.0241(13) 0.0237(13) 0.0060(10) 0.0073(11) 0.0107(11)
C9 0.0193(12) 0.0219(12) 0.0189(12) 0.0041(9) 0.0012(9) 0.0052(9)
C10 0.0282(14) 0.0197(12) 0.0245(13) 0.0021(10) 0.0074(10) 0.0070(10)
C11 0.0288(14) 0.0248(14) 0.0301(15) 0.0023(11) 0.0029(11) 0.0059(11)
C13 0.0384(15) 0.0272(14) 0.0251(14) 0.0108(11) 0.0104(11) 0.0068(12)
N1 0.0190(10) 0.0173(10) 0.0194(10) 0.0046(8) 0.0021(8) 0.0033(8)
N2 0.0226(10) 0.0153(9) 0.0184(10) 0.0049(8) 0.0031(8) 0.0040(8)
N3 0.0521(16) 0.0287(13) 0.0338(14) 0.0138(11) 0.0175(12) 0.0105(11)
O1 0.0282(9) 0.0178(8) 0.0205(9) 0.0060(7) 0.0070(7) 0.0063(7)
O2 0.0330(10) 0.0187(9) 0.0200(9) 0.0047(7) 0.0081(7) 0.0059(7)
Cu1 0.02237(16) 0.01427(15) 0.01847(16) 0.00457(11) 0.00474(12) 0.00437(12)
Br1 0.02973(15) 0.01515(13) 0.02665(14) 0.00669(9) 0.00836(10) 0.00553(10)
loop_
_atom_type_symbol
_atom_type_description
_atom_type_scat_dispersion_real
_atom_type_scat_dispersion_imag
_atom_type_scat_source
C C 0.0033 0.0016 'International Tables Vol C Tables 4.2.6.8 and 6.1.1.4'
H H 0.0000 0.0000 'International Tables Vol C Tables 4.2.6.8 and 6.1.1.4'
N N 0.0061 0.0033 'International Tables Vol C Tables 4.2.6.8 and 6.1.1.4'
O O 0.0106 0.0060 'International Tables Vol C Tables 4.2.6.8 and 6.1.1.4'
Cu Cu 0.3201 1.2651 'International Tables Vol C Tables 4.2.6.8 and 6.1.1.4'
Br Br -0.2901 2.4595 'International Tables Vol C Tables 4.2.6.8 and 6.1.1.4'
loop_
_geom_angle_atom_site_label_1
_geom_angle_atom_site_label_2
_geom_angle_atom_site_label_3
_geom_angle
N1 C1 C2 123.2(2)
N1 C1 H1 118.4
C2 C1 H1 118.4
C1 C2 C3 117.0(2)
C1 C2 C13 120.9(2)
C3 C2 C13 122.1(2)
C4 C3 C2 120.6(2)
C4 C3 H3 119.7
C2 C3 H3 119.7
C3 C4 C5 118.8(2)
C3 C4 H4 120.6
C5 C4 H4 120.6
N1 C5 C4 121.3(2)
N1 C5 C6 116.9(2)
C4 C5 C6 121.7(2)
N2 C6 C5 109.82(19)
N2 C6 H6A 109.7
C5 C6 H6A 109.7
N2 C6 H6B 109.7
C5 C6 H6B 109.7
H6A C6 H6B 108.2
N2 C7 C8 126.3(2)
N2 C7 H7 116.8
C8 C7 H7 116.8
C7 C8 C9 122.0(2)
C7 C8 C12 117.7(2)
C9 C8 C12 120.3(2)
N3 C12 C8 176.4(3)
O1 C9 O2 119.6(2)
O1 C9 C8 124.6(2)
O2 C9 C8 115.8(2)
O2 C10 C11 111.9(2)
O2 C10 H11A 109.2
C11 C10 H11A 109.2
O2 C10 H11B 109.2
C11 C10 H11B 109.2
H11A C10 H11B 107.9
C10 C11 H12A 109.5
C10 C11 H12B 109.5
H12A C11 H12B 109.5
C10 C11 H12C 109.5
H12A C11 H12C 109.5
H12B C11 H12C 109.5
C2 C13 H13A 109.5
C2 C13 H13B 109.5
H13A C13 H13B 109.5
C2 C13 H13C 109.5
H13A C13 H13C 109.5
H13B C13 H13C 109.5
C5 N1 C1 118.8(2)
C5 N1 Cu1 113.80(16)
C1 N1 Cu1 127.39(16)
C7 N2 C6 117.4(2)
C7 N2 Cu1 126.75(17)
C6 N2 Cu1 115.85(15)
C9 O1 Cu1 128.97(16)
C9 O2 C10 117.05(19)
N2 Cu1 O1 90.87(8)
N2 Cu1 N1 83.29(8)
O1 Cu1 N1 173.65(8)
N2 Cu1 Br1 176.18(6)
O1 Cu1 Br1 88.32(5)
N1 Cu1 Br1 97.66(6)
loop_
_geom_bond_atom_site_label_1
_geom_bond_atom_site_label_2
_geom_bond_distance
C1 N1 1.351(3)
C1 C2 1.384(3)
C1 H1 0.9500
C2 C3 1.387(4)
C2 C13 1.507(3)
C3 C4 1.384(4)
C3 H3 0.9500
C4 C5 1.387(3)
C4 H4 0.9500
C5 N1 1.349(3)
C5 C6 1.498(3)
C6 N2 1.463(3)
C6 H6A 0.9900
C6 H6B 0.9900
C7 N2 1.302(3)
C7 C8 1.404(3)
C7 H7 0.9500
C8 C9 1.419(3)
C8 C12 1.431(3)
C12 N3 1.151(3)
C9 O1 1.258(3)
C9 O2 1.330(3)
C10 O2 1.458(3)
C10 C11 1.508(4)
C10 H11A 0.9900
C10 H11B 0.9900
C11 H12A 0.9800
C11 H12B 0.9800
C11 H12C 0.9800
C13 H13A 0.9800
C13 H13B 0.9800
C13 H13C 0.9800
N1 Cu1 2.005(2)
N2 Cu1 1.9280(19)
O1 Cu1 1.9481(17)
Cu1 Br1 2.3587(4)
loop_
_geom_torsion_atom_site_label_1
_geom_torsion_atom_site_label_2
_geom_torsion_atom_site_label_3
_geom_torsion_atom_site_label_4
_geom_torsion
N1 C1 C2 C3 -3.2(4)
N1 C1 C2 C13 175.5(2)
C1 C2 C3 C4 2.7(4)
C13 C2 C3 C4 -175.9(2)
C2 C3 C4 C5 0.2(4)
C3 C4 C5 N1 -3.0(4)
C3 C4 C5 C6 173.9(2)
N1 C5 C6 N2 -6.7(3)
C4 C5 C6 N2 176.2(2)
N2 C7 C8 C9 2.3(4)
N2 C7 C8 C12 179.6(2)
C7 C8 C9 O1 3.1(4)
C12 C8 C9 O1 -174.2(2)
C7 C8 C9 O2 -177.2(2)
C12 C8 C9 O2 5.6(3)
C4 C5 N1 C1 2.6(4)
C6 C5 N1 C1 -174.4(2)
C4 C5 N1 Cu1 -176.84(18)
C6 C5 N1 Cu1 6.1(3)
C2 C1 N1 C5 0.5(4)
C2 C1 N1 Cu1 179.96(18)
C8 C7 N2 C6 179.8(2)
C8 C7 N2 Cu1 -1.5(4)
C5 C6 N2 C7 -177.0(2)
C5 C6 N2 Cu1 4.2(3)
O2 C9 O1 Cu1 171.64(15)
C8 C9 O1 Cu1 -8.7(4)
O1 C9 O2 C10 0.5(3)
C8 C9 O2 C10 -179.3(2)
C11 C10 O2 C9 -78.9(3)
