#------------------------------------------------------------------------------
#$Date: 2019-11-05 05:41:22 +0200 (Tue, 05 Nov 2019) $
#$Revision: 223275 $
#$URL: file:///home/coder/svn-repositories/cod/cif/7/70/14/7701482.cif $
#------------------------------------------------------------------------------
#
# This file is available in the Crystallography Open Database (COD),
# http://www.crystallography.net/
#
# All data on this site have been placed in the public domain by the
# contributors.
#
data_7701482
loop_
_publ_author_name
'Ould, Darren'
'Tran, Thao Thi-Phuong'
'Rawson, Jeremy Michael'
'Melen, Rebecca'
_publ_section_title
;
 Structure-property-reactivity studies on dithiaphospholes
;
_journal_name_full               'Dalton Transactions'
_journal_paper_doi               10.1039/C9DT03577J
_journal_year                    2019
_chemical_formula_moiety         'C7 H6 I P S2'
_chemical_formula_sum            'C7 H6 I P S2'
_chemical_formula_weight         312.11
_space_group_crystal_system      monoclinic
_space_group_IT_number           14
_space_group_name_Hall           '-P 2ybc'
_space_group_name_H-M_alt        'P 1 21/c 1'
_atom_sites_solution_hydrogens   geom
_atom_sites_solution_primary     Drect
_audit_creation_method           SHELXL-2013
_audit_update_record
;
2019-09-03 deposited with the CCDC.	2019-09-25 downloaded from the CCDC.
;
_cell_angle_alpha                90
_cell_angle_beta                 102.702(8)
_cell_angle_gamma                90
_cell_formula_units_Z            4
_cell_length_a                   9.6874(7)
_cell_length_b                   12.2726(9)
_cell_length_c                   8.3795(7)
_cell_measurement_reflns_used    2169
_cell_measurement_temperature    423(2)
_cell_measurement_theta_max      28.3430
_cell_measurement_theta_min      3.9560
_cell_volume                     971.85(13)
_computing_cell_refinement       'CrysAlisPro 1.171.39.45b (Rigaku OD, 2018)'
_computing_data_collection       'CrysAlisPro 1.171.39.45b (Rigaku OD, 2018)'
_computing_data_reduction        'CrysAlisPro 1.171.39.45b (Rigaku OD, 2018)'
_computing_molecular_graphics    'XShell and Mercury'
_computing_publication_material  Xcif
_computing_structure_refinement  'SHELXL-2013 (Sheldrick, 2013)'
_computing_structure_solution    ShelXS
_diffrn_ambient_temperature      423(2)
_diffrn_measured_fraction_theta_full 0.998
_diffrn_measured_fraction_theta_max 0.836
_diffrn_measurement_device_type
'Agilent Supernova Dual Atlas with CCD Detector'
_diffrn_measurement_method       'Omega scans'
_diffrn_radiation_type           MoK\a
_diffrn_radiation_wavelength     0.71073
_diffrn_reflns_av_R_equivalents  0.0303
_diffrn_reflns_av_unetI/netI     0.0442
_diffrn_reflns_Laue_measured_fraction_full 0.998
_diffrn_reflns_Laue_measured_fraction_max 0.836
_diffrn_reflns_limit_h_max       12
_diffrn_reflns_limit_h_min       -13
_diffrn_reflns_limit_k_max       11
_diffrn_reflns_limit_k_min       -16
_diffrn_reflns_limit_l_max       8
_diffrn_reflns_limit_l_min       -11
_diffrn_reflns_number            5189
_diffrn_reflns_point_group_measured_fraction_full 0.998
_diffrn_reflns_point_group_measured_fraction_max 0.836
_diffrn_reflns_theta_full        25.242
_diffrn_reflns_theta_max         29.684
_diffrn_reflns_theta_min         3.320
_diffrn_source                   'Sealed tube'
_exptl_absorpt_coefficient_mu    3.823
_exptl_absorpt_correction_T_max  1.000
_exptl_absorpt_correction_T_min  0.917
_exptl_absorpt_correction_type   gaussian
_exptl_absorpt_process_details
;   
CrysAlisPro 1.171.39.45b (Rigaku Oxford Diffraction, 2018)
Numerical absorption correction based on gaussian integration over
			a multifaceted crystal model
Empirical absorption correction using spherical harmonics,
 implemented in SCALE3 ABSPACK scaling algorithm. 
;
_exptl_crystal_colour            Yellow
_exptl_crystal_density_diffrn    2.133
_exptl_crystal_description       Block
_exptl_crystal_F_000             592
_exptl_crystal_size_max          0.186
_exptl_crystal_size_mid          0.127
_exptl_crystal_size_min          0.054
_refine_diff_density_max         1.536
_refine_diff_density_min         -1.097
_refine_diff_density_rms         0.132
_refine_ls_extinction_method     none
_refine_ls_goodness_of_fit_ref   1.050
_refine_ls_hydrogen_treatment    constr
_refine_ls_matrix_type           full
_refine_ls_number_parameters     101
_refine_ls_number_reflns         2301
_refine_ls_number_restraints     0
_refine_ls_restrained_S_all      1.050
_refine_ls_R_factor_all          0.0446
_refine_ls_R_factor_gt           0.0327
_refine_ls_shift/su_max          0.001
_refine_ls_shift/su_mean         0.000
_refine_ls_structure_factor_coef Fsqd
_refine_ls_weighting_details
'w=1/[\s^2^(Fo^2^)+(0.0238P)^2^+1.0629P] where P=(Fo^2^+2Fc^2^)/3'
_refine_ls_weighting_scheme      calc
_refine_ls_wR_factor_gt          0.0641
_refine_ls_wR_factor_ref         0.0715
_reflns_Friedel_coverage         0.000
_reflns_number_gt                1900
_reflns_number_total             2301
_reflns_threshold_expression     'I > 2\s(I)'
_cod_data_source_file            c9dt03577j2.cif
_cod_data_source_block           rm1905d
_cod_depositor_comments
;
The following automatic conversions were performed:

data item '_exptl_absorpt_correction_type' value 'Gaussian' was
changed to 'gaussian' in accordance with the
/home/data/users/saulius/crontab/automatic-downloads/rss-feeds/RSC/lib/dictionaries/cif_core.dic
dictionary named 'cif_core.dic' version 2.4.2 last updated on
2011-04-26.

Automatic conversion script
Id: cif_fix_values 6909 2019-04-08 15:41:33Z antanas 
;
_cod_original_sg_symbol_H-M      'P 21/c'
_cod_database_code               7701482
_shelx_space_group_comment
;
The symmetry employed for this shelxl refinement is uniquely defined
by the following loop, which should always be used as a source of
symmetry information in preference to the above space-group names.
They are only intended as comments.
;
_shelx_estimated_absorpt_t_min   0.537
_shelx_estimated_absorpt_t_max   0.820
_shelxl_version_number           2013-3
_shelx_res_file
;
TITL rm1905 in P2(1)/c
CELL 0.71073   9.68736  12.27261   8.37949  90.0000 102.7017  90.0000
ZERR    4.00   0.00069   0.00087   0.00066   0.0000   0.0075   0.0000
LATT 1
SYMM -X, 0.5+Y, 0.5-Z
SFAC C  H  P  S  I
UNIT 28  24  4  8  4
L.S. 4
ACTA
BOND $H
FMAP 2
PLAN 20
SIZE  0.186   0.127    0.054
TEMP 150
WGHT    0.023800    1.062900
FVAR       0.22852
MOLE 1
S2    4    0.803166    0.480420    0.079170    11.00000    0.02573    0.02067 =
         0.02860   -0.00067    0.00920   -0.00081
P1    3    0.678831    0.597721   -0.066553    11.00000    0.02646    0.02587 =
         0.02392   -0.00142    0.00436   -0.00177
S1    4    0.841469    0.711386   -0.058253    11.00000    0.02933    0.02434 =
         0.02793    0.00540    0.00820    0.00088
C1    1    0.968542    0.662720    0.110349    11.00000    0.02330    0.02218 =
         0.01964    0.00031    0.00815    0.00354
C6    1    0.951132    0.559565    0.173424    11.00000    0.02312    0.02020 =
         0.02460   -0.00107    0.01266    0.00007
C4    1    1.176979    0.576598    0.364679    11.00000    0.02540    0.03044 =
         0.02232   -0.00416    0.01030    0.00275
C3    1    1.192196    0.680016    0.302290    11.00000    0.02461    0.03303 =
         0.02636   -0.00835    0.00763    0.00071
AFIX  43
H3    2    1.272706    0.720710    0.345587    11.00000   -1.20000
AFIX   0
C2    1    1.089287    0.723289    0.176698    11.00000    0.03298    0.02160 =
         0.03086   -0.00498    0.01529   -0.00041
AFIX  43
H2    2    1.100780    0.792627    0.136760    11.00000   -1.20000
AFIX   0
C5    1    1.054439    0.517736    0.301305    11.00000    0.03256    0.02556 =
         0.02302    0.00305    0.01172    0.00465
AFIX  43
H5    2    1.041340    0.449760    0.344749    11.00000   -1.20000
AFIX   0
C7    1    1.291632    0.528158    0.497311    11.00000    0.03634    0.04243 =
         0.03271    0.00400    0.00601    0.00196
AFIX 137
H7A   2    1.299795    0.569670    0.596050    11.00000   -1.50000
H7B   2    1.380047    0.529894    0.463429    11.00000   -1.50000
H7C   2    1.267957    0.454107    0.516789    11.00000   -1.50000
AFIX   0
I1    5    0.532631    0.677490    0.127482    11.00000    0.02375    0.03633 =
         0.03629   -0.00357    0.00759    0.00361
HKLF 4

REM  rm1905 in P2(1)/c
REM R1 =  0.0327 for    1900 Fo > 4sig(Fo)  and  0.0446 for all    2301 data
REM    101 parameters refined using      0 restraints

END

WGHT      0.0223      1.0315

REM Highest difference peak  1.536,  deepest hole -1.097,  1-sigma level  0.132
Q1    1   0.5760  0.6405  0.2030  11.00000  0.05    1.54
Q2    1   1.4203  0.6771  0.6261  11.00000  0.05    0.59
Q3    1   0.4483  0.5370  0.1735  11.00000  0.05    0.52
Q4    1   1.4662  0.4652  0.3724  11.00000  0.05    0.52
Q5    1   1.3385  0.4473  0.4394  11.00000  0.05    0.48
Q6    1   0.6213  0.6682  0.0732  11.00000  0.05    0.47
Q7    1   1.2352  0.5063  0.5630  11.00000  0.05    0.47
Q8    1   0.5337  0.5774  0.1224  11.00000  0.05    0.47
Q9    1   1.1309  0.5231  0.3516  11.00000  0.05    0.46
Q10   1   0.5181  0.6758 -0.0232  11.00000  0.05    0.45
Q11   1   0.9815  0.5991  0.1095  11.00000  0.05    0.45
Q12   1   1.3860  0.6013  0.5922  11.00000  0.05    0.44
Q13   1   0.7354  0.4140  0.1864  11.00000  0.05    0.43
Q14   1   0.9374  0.6215  0.1927  11.00000  0.05    0.43
Q15   1   0.7401  0.6046 -0.2025  11.00000  0.05    0.43
Q16   1   0.5555  0.5355  0.2048  11.00000  0.05    0.43
Q17   1   1.3704  0.7425  0.5206  11.00000  0.05    0.43
Q18   1   0.6759  0.7131  0.3136  11.00000  0.05    0.42
Q19   1   0.4384  0.7298  0.0438  11.00000  0.05    0.41
Q20   1   1.0517  0.5034  0.0481  11.00000  0.05    0.39
;
_shelx_res_checksum              29400
loop_
_space_group_symop_operation_xyz
'x, y, z'
'-x, y+1/2, -z+1/2'
'-x, -y, -z'
'x, -y-1/2, z-1/2'
loop_
_atom_site_label
_atom_site_type_symbol
_atom_site_fract_x
_atom_site_fract_y
_atom_site_fract_z
_atom_site_U_iso_or_equiv
_atom_site_adp_type
_atom_site_occupancy
_atom_site_site_symmetry_order
_atom_site_calc_flag
_atom_site_refinement_flags_posn
_atom_site_refinement_flags_adp
S2 S 0.80317(10) 0.48042(8) 0.07917(13) 0.0245(2) Uani 1 1 d . .
P1 P 0.67883(11) 0.59772(8) -0.06655(13) 0.0256(2) Uani 1 1 d . .
S1 S 0.84147(11) 0.71139(8) -0.05825(13) 0.0269(2) Uani 1 1 d . .
C1 C 0.9685(4) 0.6627(3) 0.1103(5) 0.0212(8) Uani 1 1 d . .
C6 C 0.9511(4) 0.5596(3) 0.1734(5) 0.0215(8) Uani 1 1 d . .
C4 C 1.1770(4) 0.5766(3) 0.3647(5) 0.0253(9) Uani 1 1 d . .
C3 C 1.1922(4) 0.6800(3) 0.3023(5) 0.0277(9) Uani 1 1 d . .
H3 H 1.2727 0.7207 0.3456 0.033 Uiso 1 1 calc R U
C2 C 1.0893(4) 0.7233(3) 0.1767(5) 0.0272(9) Uani 1 1 d . .
H2 H 1.1008 0.7926 0.1368 0.033 Uiso 1 1 calc R U
C5 C 1.0544(4) 0.5177(3) 0.3013(5) 0.0262(9) Uani 1 1 d . .
H5 H 1.0413 0.4498 0.3447 0.031 Uiso 1 1 calc R U
C7 C 1.2916(5) 0.5282(4) 0.4973(5) 0.0374(11) Uani 1 1 d . .
H7A H 1.2998 0.5697 0.5961 0.056 Uiso 1 1 calc R U
H7B H 1.3800 0.5299 0.4634 0.056 Uiso 1 1 calc R U
H7C H 1.2680 0.4541 0.5168 0.056 Uiso 1 1 calc R U
I1 I 0.53263(3) 0.67749(2) 0.12748(3) 0.03197(11) Uani 1 1 d . .
loop_
_atom_site_aniso_label
_atom_site_aniso_U_11
_atom_site_aniso_U_22
_atom_site_aniso_U_33
_atom_site_aniso_U_23
_atom_site_aniso_U_13
_atom_site_aniso_U_12
S2 0.0257(5) 0.0207(5) 0.0286(6) -0.0007(4) 0.0092(4) -0.0008(4)
P1 0.0265(5) 0.0259(5) 0.0239(6) -0.0014(4) 0.0044(4) -0.0018(4)
S1 0.0293(5) 0.0243(5) 0.0279(6) 0.0054(4) 0.0082(4) 0.0009(4)
C1 0.0233(19) 0.0222(19) 0.020(2) 0.0003(15) 0.0082(16) 0.0035(15)
C6 0.0231(19) 0.0202(18) 0.025(2) -0.0011(16) 0.0127(16) 0.0001(15)
C4 0.025(2) 0.030(2) 0.022(2) -0.0042(17) 0.0103(17) 0.0027(16)
C3 0.025(2) 0.033(2) 0.026(2) -0.0083(18) 0.0076(18) 0.0007(17)
C2 0.033(2) 0.0216(19) 0.031(2) -0.0050(17) 0.0153(19) -0.0004(17)
C5 0.033(2) 0.026(2) 0.023(2) 0.0030(17) 0.0117(17) 0.0047(17)
C7 0.036(2) 0.042(3) 0.033(3) 0.004(2) 0.006(2) 0.002(2)
I1 0.02375(16) 0.03633(17) 0.03629(19) -0.00357(12) 0.00759(12) 0.00361(11)
loop_
_atom_type_symbol
_atom_type_description
_atom_type_scat_dispersion_real
_atom_type_scat_dispersion_imag
_atom_type_scat_source
C C 0.0033 0.0016 'International Tables Vol C Tables 4.2.6.8 and 6.1.1.4'
H H 0.0000 0.0000 'International Tables Vol C Tables 4.2.6.8 and 6.1.1.4'
P P 0.1023 0.0942 'International Tables Vol C Tables 4.2.6.8 and 6.1.1.4'
S S 0.1246 0.1234 'International Tables Vol C Tables 4.2.6.8 and 6.1.1.4'
I I -0.4742 1.8119 'International Tables Vol C Tables 4.2.6.8 and 6.1.1.4'
loop_
_geom_angle_atom_site_label_1
_geom_angle_atom_site_label_2
_geom_angle_atom_site_label_3
_geom_angle
C6 S2 P1 100.90(13)
S2 P1 S1 96.13(6)
S2 P1 I1 102.68(5)
S1 P1 I1 103.90(5)
C1 S1 P1 100.88(14)
C2 C1 C6 119.5(4)
C2 C1 S1 121.1(3)
C6 C1 S1 119.3(3)
C5 C6 C1 119.9(3)
C5 C6 S2 121.1(3)
C1 C6 S2 118.9(3)
C5 C4 C3 118.8(4)
C5 C4 C7 120.3(4)
C3 C4 C7 120.9(4)
C2 C3 C4 121.1(4)
C2 C3 H3 119.5
C4 C3 H3 119.5
C3 C2 C1 119.9(4)
C3 C2 H2 120.0
C1 C2 H2 120.0
C4 C5 C6 120.7(4)
C4 C5 H5 119.7
C6 C5 H5 119.7
C4 C7 H7A 109.5
C4 C7 H7B 109.5
H7A C7 H7B 109.5
C4 C7 H7C 109.5
H7A C7 H7C 109.5
H7B C7 H7C 109.5
loop_
_geom_bond_atom_site_label_1
_geom_bond_atom_site_label_2
_geom_bond_distance
S2 C6 1.767(4)
S2 P1 2.0898(14)
P1 S1 2.0940(15)
P1 I1 2.5730(12)
S1 C1 1.762(4)
C1 C2 1.394(6)
C1 C6 1.396(5)
C6 C5 1.393(5)
C4 C5 1.391(5)
C4 C3 1.393(6)
C4 C7 1.510(5)
C3 C2 1.386(6)
C3 H3 0.9300
C2 H2 0.9300
C5 H5 0.9300
C7 H7A 0.9600
C7 H7B 0.9600
C7 H7C 0.9600
