#------------------------------------------------------------------------------
#$Date: 2019-11-05 05:41:22 +0200 (Tue, 05 Nov 2019) $
#$Revision: 223275 $
#$URL: file:///home/coder/svn-repositories/cod/cif/7/70/14/7701481.cif $
#------------------------------------------------------------------------------
#
# This file is available in the Crystallography Open Database (COD),
# http://www.crystallography.net/
#
# All data on this site have been placed in the public domain by the
# contributors.
#
data_7701481
loop_
_publ_author_name
'Ould, Darren'
'Tran, Thao Thi-Phuong'
'Rawson, Jeremy Michael'
'Melen, Rebecca'
_publ_section_title
;
 Structure-property-reactivity studies on dithiaphospholes
;
_journal_name_full               'Dalton Transactions'
_journal_paper_doi               10.1039/C9DT03577J
_journal_year                    2019
_chemical_formula_moiety         'C6 H4 Cl P S2'
_chemical_formula_sum            'C6 H4 Cl P S2'
_chemical_formula_weight         206.63
_space_group_crystal_system      monoclinic
_space_group_IT_number           14
_space_group_name_Hall           '-P 2yn'
_space_group_name_H-M_alt        'P 1 21/n 1'
_atom_sites_solution_hydrogens   geom
_atom_sites_solution_primary     direct
_audit_creation_method           SHELXL-2013
_audit_update_record
;
2019-09-03 deposited with the CCDC.	2019-09-25 downloaded from the CCDC.
;
_cell_angle_alpha                90
_cell_angle_beta                 97.205(7)
_cell_angle_gamma                90
_cell_formula_units_Z            4
_cell_length_a                   5.9973(4)
_cell_length_b                   17.0236(15)
_cell_length_c                   7.9817(5)
_cell_measurement_reflns_used    1581
_cell_measurement_temperature    423(2)
_cell_measurement_theta_max      29.1010
_cell_measurement_theta_min      3.9920
_cell_volume                     808.46(10)
_computing_cell_refinement       'CrysAlisPro 1.171.40.50a (Rigaku OD, 2019)'
_computing_data_collection       'CrysAlisPro 1.171.40.50a (Rigaku OD, 2019)'
_computing_data_reduction        'CrysAlisPro 1.171.40.50a (Rigaku OD, 2019)'
_computing_molecular_graphics    'XShell and Mercury'
_computing_publication_material  Xcif
_computing_structure_refinement  'SHELXL-2013 (Sheldrick, 2013)'
_computing_structure_solution    ShelXS
_diffrn_ambient_temperature      423(2)
_diffrn_measured_fraction_theta_full 0.998
_diffrn_measured_fraction_theta_max 0.865
_diffrn_measurement_device_type
'Agilent Supernova Dual Atlas with CCD Detector'
_diffrn_measurement_method       'Omega scans'
_diffrn_radiation_type           MoK\a
_diffrn_radiation_wavelength     0.71073
_diffrn_reflns_av_R_equivalents  0.0253
_diffrn_reflns_av_unetI/netI     0.0440
_diffrn_reflns_Laue_measured_fraction_full 0.998
_diffrn_reflns_Laue_measured_fraction_max 0.865
_diffrn_reflns_limit_h_max       8
_diffrn_reflns_limit_h_min       -6
_diffrn_reflns_limit_k_max       23
_diffrn_reflns_limit_k_min       -17
_diffrn_reflns_limit_l_max       9
_diffrn_reflns_limit_l_min       -10
_diffrn_reflns_number            4133
_diffrn_reflns_point_group_measured_fraction_full 0.998
_diffrn_reflns_point_group_measured_fraction_max 0.865
_diffrn_reflns_theta_full        25.242
_diffrn_reflns_theta_max         29.530
_diffrn_reflns_theta_min         3.514
_diffrn_source                   'Sealed tube'
_exptl_absorpt_coefficient_mu    1.100
_exptl_absorpt_correction_T_max  1.000
_exptl_absorpt_correction_T_min  0.858
_exptl_absorpt_correction_type   gaussian
_exptl_absorpt_process_details
;
CrysAlisPro 1.171.40.50a (Rigaku Oxford Diffraction, 2019)
Numerical absorption correction based on gaussian integration over
			a multifaceted crystal model
Empirical absorption correction using spherical harmonics,
 implemented in SCALE3 ABSPACK scaling algorithm.
;
_exptl_crystal_colour            Colourless
_exptl_crystal_density_diffrn    1.698
_exptl_crystal_description       Block
_exptl_crystal_F_000             416
_exptl_crystal_size_max          0.638
_exptl_crystal_size_mid          0.199
_exptl_crystal_size_min          0.103
_refine_diff_density_max         0.385
_refine_diff_density_min         -0.304
_refine_diff_density_rms         0.070
_refine_ls_extinction_method     none
_refine_ls_goodness_of_fit_ref   1.017
_refine_ls_hydrogen_treatment    constr
_refine_ls_matrix_type           full
_refine_ls_number_parameters     91
_refine_ls_number_reflns         1952
_refine_ls_number_restraints     0
_refine_ls_restrained_S_all      1.017
_refine_ls_R_factor_all          0.0517
_refine_ls_R_factor_gt           0.0342
_refine_ls_shift/su_max          0.001
_refine_ls_shift/su_mean         0.000
_refine_ls_structure_factor_coef Fsqd
_refine_ls_weighting_details
'w=1/[\s^2^(Fo^2^)+(0.0305P)^2^] where P=(Fo^2^+2Fc^2^)/3'
_refine_ls_weighting_scheme      calc
_refine_ls_wR_factor_gt          0.0653
_refine_ls_wR_factor_ref         0.0701
_reflns_Friedel_coverage         0.000
_reflns_number_gt                1538
_reflns_number_total             1952
_reflns_threshold_expression     'I > 2\s(I)'
_cod_data_source_file            c9dt03577j2.cif
_cod_data_source_block           rm1922b
_cod_depositor_comments
;
The following automatic conversions were performed:

data item '_atom_sites_solution_primary' value 'Direct' was changed
to 'direct' in accordance with the
/home/data/users/saulius/crontab/automatic-downloads/rss-feeds/RSC/lib/dictionaries/cif_core.dic
dictionary named 'cif_core.dic' version 2.4.2 last updated on
2011-04-26.

data item '_exptl_absorpt_correction_type' value 'Gaussian' was
changed to 'gaussian' in accordance with the
/home/data/users/saulius/crontab/automatic-downloads/rss-feeds/RSC/lib/dictionaries/cif_core.dic
dictionary named 'cif_core.dic' version 2.4.2 last updated on
2011-04-26.

Automatic conversion script
Id: cif_fix_values 6909 2019-04-08 15:41:33Z antanas 
;
_cod_original_cell_volume        808.47(11)
_cod_original_sg_symbol_H-M      'P 21/n'
_cod_database_code               7701481
_shelx_space_group_comment
;
The symmetry employed for this shelxl refinement is uniquely defined
by the following loop, which should always be used as a source of
symmetry information in preference to the above space-group names.
They are only intended as comments.
;
_shelx_estimated_absorpt_t_min   0.540
_shelx_estimated_absorpt_t_max   0.895
_shelxl_version_number           2013-3
_shelx_res_file
;
TITL rm1922b in P2(1)/n
CELL 0.71073   5.99734  17.02360   7.98173  90.0000  97.2055  90.0000
ZERR    4.00   0.00043   0.00147   0.00052   0.0000   0.0067   0.0000
LATT 1
SYMM 0.5-X, 0.5+Y, 0.5-Z
SFAC C  H  P  S  Cl
UNIT 24  16  4  8  4
L.S. 4
ACTA
BOND $H
FMAP 2
PLAN 20
SIZE  0.638 0.199 0.103
TEMP 150
WGHT    0.030500
FVAR       0.61251
MOLE 1
S1    4    0.065537    0.161453    0.197475    11.00000    0.01782    0.03192 =
         0.02137   -0.00477    0.00372   -0.00054
S2    4    0.476980    0.212853    0.027827    11.00000    0.02328    0.02648 =
         0.02335    0.00147    0.00288   -0.00775
P1    3    0.399942    0.192434    0.271816    11.00000    0.02278    0.03138 =
         0.02109   -0.00522    0.00130   -0.00667
CL1   5    0.548318    0.081798    0.325329    11.00000    0.02233    0.04479 =
         0.03885    0.01623   -0.00241    0.00030
C4    1    0.087578    0.129010   -0.009463    11.00000    0.01791    0.01723 =
         0.01740    0.00084   -0.00041    0.00277
C5    1    0.273934    0.151690   -0.086123    11.00000    0.02030    0.01618 =
         0.01971    0.00256   -0.00027    0.00320
C6    1    0.290639    0.130068   -0.251898    11.00000    0.02779    0.02340 =
         0.02210    0.00301    0.00593    0.00322
AFIX  43
H6    2    0.415846    0.144326   -0.302866    11.00000   -1.20000
AFIX   0
C3    1   -0.082624    0.084781   -0.098393    11.00000    0.01794    0.02016 =
         0.02729    0.00228    0.00020    0.00091
AFIX  43
H3    2   -0.206204    0.068957   -0.047188    11.00000   -1.20000
AFIX   0
C2    1   -0.065528    0.064600   -0.264466    11.00000    0.03123    0.02191 =
         0.02604   -0.00153   -0.00796   -0.00197
AFIX  43
H2    2   -0.179447    0.035597   -0.325581    11.00000   -1.20000
AFIX   0
C1    1    0.119221    0.087187   -0.339990    11.00000    0.04137    0.02371 =
         0.01762   -0.00212    0.00022    0.00491
AFIX  43
H1    2    0.128202    0.073318   -0.451643    11.00000   -1.20000
AFIX   0
HKLF 4

REM  rm1922b in P2(1)/n
REM R1 =  0.0342 for    1538 Fo > 4sig(Fo)  and  0.0517 for all    1952 data
REM     91 parameters refined using      0 restraints

END

WGHT      0.0305      0.0000

REM Highest difference peak  0.385,  deepest hole -0.304,  1-sigma level  0.070
Q1    1   0.3976  0.2587  0.0632  11.00000  0.05    0.39
Q2    1   0.0240  0.1142  0.2525  11.00000  0.05    0.34
Q3    1   0.3669  0.1736 -0.0464  11.00000  0.05    0.32
Q4    1   0.4859  0.1267  0.3313  11.00000  0.05    0.28
Q5    1   0.4991  0.1514  0.2406  11.00000  0.05    0.28
Q6    1   0.2085  0.1250 -0.0486  11.00000  0.05    0.28
Q7    1   0.4852  0.2014  0.1306  11.00000  0.05    0.27
Q8    1   0.5614  0.0643  0.2277  11.00000  0.05    0.27
Q9    1   0.4453  0.0513  0.3944  11.00000  0.05    0.26
Q10   1   0.2633  0.1520 -0.1754  11.00000  0.05    0.25
Q11   1   0.1429  0.1372  0.0908  11.00000  0.05    0.24
Q12   1   0.0245  0.0928 -0.3013  11.00000  0.05    0.24
Q13   1   0.4609  0.2532  0.3100  11.00000  0.05    0.24
Q14   1  -0.0196  0.2268  0.1282  11.00000  0.05    0.24
Q15   1   0.2330  0.1710  0.2412  11.00000  0.05    0.23
Q16   1   0.2880  0.3038  0.0146  11.00000  0.05    0.23
Q17   1  -0.0745  0.0979 -0.1922  11.00000  0.05    0.23
Q18   1   0.2648  0.1643  0.2781  11.00000  0.05    0.23
Q19   1  -0.1327  0.0640 -0.0630  11.00000  0.05    0.23
Q20   1   0.6589  0.1158  0.2785  11.00000  0.05    0.22
;
_shelx_res_checksum              39615
loop_
_space_group_symop_operation_xyz
'x, y, z'
'-x+1/2, y+1/2, -z+1/2'
'-x, -y, -z'
'x-1/2, -y-1/2, z-1/2'
loop_
_atom_site_label
_atom_site_type_symbol
_atom_site_fract_x
_atom_site_fract_y
_atom_site_fract_z
_atom_site_U_iso_or_equiv
_atom_site_adp_type
_atom_site_occupancy
_atom_site_site_symmetry_order
_atom_site_calc_flag
_atom_site_refinement_flags_posn
_atom_site_refinement_flags_adp
S1 S 0.06554(9) 0.16145(3) 0.19747(6) 0.02360(14) Uani 1 1 d . .
S2 S 0.47698(9) 0.21285(3) 0.02783(7) 0.02437(15) Uani 1 1 d . .
P1 P 0.39994(10) 0.19243(4) 0.27182(7) 0.02521(15) Uani 1 1 d . .
Cl1 Cl 0.54832(9) 0.08180(4) 0.32533(7) 0.03585(17) Uani 1 1 d . .
C4 C 0.0876(3) 0.12901(11) -0.0095(2) 0.0177(4) Uani 1 1 d . .
C5 C 0.2739(3) 0.15169(12) -0.0861(2) 0.0190(4) Uani 1 1 d . .
C6 C 0.2906(4) 0.13007(12) -0.2519(2) 0.0242(5) Uani 1 1 d . .
H6 H 0.4158 0.1443 -0.3029 0.029 Uiso 1 1 calc R U
C3 C -0.0826(4) 0.08478(12) -0.0984(3) 0.0220(5) Uani 1 1 d . .
H3 H -0.2062 0.0690 -0.0472 0.026 Uiso 1 1 calc R U
C2 C -0.0655(4) 0.06460(12) -0.2645(3) 0.0274(5) Uani 1 1 d . .
H2 H -0.1794 0.0356 -0.3256 0.033 Uiso 1 1 calc R U
C1 C 0.1192(4) 0.08719(12) -0.3400(3) 0.0279(5) Uani 1 1 d . .
H1 H 0.1282 0.0733 -0.4516 0.033 Uiso 1 1 calc R U
loop_
_atom_site_aniso_label
_atom_site_aniso_U_11
_atom_site_aniso_U_22
_atom_site_aniso_U_33
_atom_site_aniso_U_23
_atom_site_aniso_U_13
_atom_site_aniso_U_12
S1 0.0178(3) 0.0319(3) 0.0214(3) -0.0048(2) 0.0037(2) -0.0005(2)
S2 0.0233(3) 0.0265(3) 0.0233(3) 0.0015(2) 0.0029(2) -0.0077(2)
P1 0.0228(3) 0.0314(3) 0.0211(3) -0.0052(2) 0.0013(2) -0.0067(3)
Cl1 0.0223(3) 0.0448(4) 0.0388(3) 0.0162(3) -0.0024(2) 0.0003(3)
C4 0.0179(10) 0.0172(10) 0.0174(10) 0.0008(8) -0.0004(8) 0.0028(9)
C5 0.0203(11) 0.0162(10) 0.0197(10) 0.0026(8) -0.0003(8) 0.0032(9)
C6 0.0278(12) 0.0234(11) 0.0221(11) 0.0030(9) 0.0059(9) 0.0032(10)
C3 0.0179(11) 0.0202(11) 0.0273(11) 0.0023(9) 0.0002(9) 0.0009(9)
C2 0.0312(13) 0.0219(11) 0.0260(11) -0.0015(9) -0.0080(9) -0.0020(10)
C1 0.0414(14) 0.0237(11) 0.0176(11) -0.0021(9) 0.0002(9) 0.0049(11)
loop_
_atom_type_symbol
_atom_type_description
_atom_type_scat_dispersion_real
_atom_type_scat_dispersion_imag
_atom_type_scat_source
C C 0.0033 0.0016 'International Tables Vol C Tables 4.2.6.8 and 6.1.1.4'
H H 0.0000 0.0000 'International Tables Vol C Tables 4.2.6.8 and 6.1.1.4'
P P 0.1023 0.0942 'International Tables Vol C Tables 4.2.6.8 and 6.1.1.4'
S S 0.1246 0.1234 'International Tables Vol C Tables 4.2.6.8 and 6.1.1.4'
Cl Cl 0.1484 0.1585 'International Tables Vol C Tables 4.2.6.8 and 6.1.1.4'
loop_
_geom_angle_atom_site_label_1
_geom_angle_atom_site_label_2
_geom_angle_atom_site_label_3
_geom_angle
C4 S1 P1 99.40(7)
C5 S2 P1 99.41(7)
S2 P1 S1 95.40(3)
S2 P1 Cl1 101.60(3)
S1 P1 Cl1 101.45(3)
C3 C4 C5 120.25(18)
C3 C4 S1 120.79(15)
C5 C4 S1 118.88(15)
C6 C5 C4 120.14(19)
C6 C5 S2 121.30(16)
C4 C5 S2 118.45(15)
C1 C6 C5 119.2(2)
C1 C6 H6 120.4
C5 C6 H6 120.4
C2 C3 C4 119.0(2)
C2 C3 H3 120.5
C4 C3 H3 120.5
C1 C2 C3 120.6(2)
C1 C2 H2 119.7
C3 C2 H2 119.7
C6 C1 C2 120.8(2)
C6 C1 H1 119.6
C2 C1 H1 119.6
loop_
_geom_bond_atom_site_label_1
_geom_bond_atom_site_label_2
_geom_bond_distance
S1 C4 1.7622(19)
S1 P1 2.0866(8)
S2 C5 1.765(2)
S2 P1 2.0863(8)
P1 Cl1 2.1039(9)
C4 C3 1.390(3)
C4 C5 1.394(3)
C5 C6 1.389(3)
C6 C1 1.379(3)
C6 H6 0.9300
C3 C2 1.386(3)
C3 H3 0.9300
C2 C1 1.381(3)
C2 H2 0.9300
C1 H1 0.9300
