#------------------------------------------------------------------------------
#$Date: 2019-11-05 11:56:17 +0200 (Tue, 05 Nov 2019) $
#$Revision: 223320 $
#$URL: file:///home/coder/svn-repositories/cod/cif/7/70/16/7701617.cif $
#------------------------------------------------------------------------------
#
# This file is available in the Crystallography Open Database (COD),
# http://www.crystallography.net/
#
# All data on this site have been placed in the public domain by the
# contributors.
#
data_7701617
loop_
_publ_author_name
'Pammer, Frank'
'Schepper, Jonas'
'Gl\"ockler, Johannes'
'Sun, Yu'
'Orthaber, Andreas'
_publ_section_title
;
 Expansion of the scope of alkylboryl-bridged N \\rightarrow B-ladder
 boranes: new substituents and alternative substrates.
;
_journal_issue                   27
_journal_name_full
'Dalton transactions (Cambridge, England : 2003)'
_journal_page_first              10298
_journal_page_last               10312
_journal_paper_doi               10.1039/c9dt01555h
_journal_volume                  48
_journal_year                    2019
_chemical_formula_sum            'C15 H16 B F2 N'
_chemical_formula_weight         259.10
_space_group_crystal_system      triclinic
_space_group_IT_number           2
_space_group_name_Hall           '-P 1'
_space_group_name_H-M_alt        'P -1'
_atom_sites_solution_hydrogens   geom
_atom_sites_solution_primary     direct
_atom_sites_solution_secondary   difmap
_audit_creation_method           SHELXL-2014/7
_audit_update_record
;
2019-02-27 deposited with the CCDC.	2019-06-10 downloaded from the CCDC.
;
_cell_angle_alpha                80.677(7)
_cell_angle_beta                 78.126(8)
_cell_angle_gamma                67.404(9)
_cell_formula_units_Z            2
_cell_length_a                   7.5560(7)
_cell_length_b                   7.8873(7)
_cell_length_c                   12.0635(11)
_cell_measurement_reflns_used    2492
_cell_measurement_temperature    150(2)
_cell_measurement_theta_max      28.6740
_cell_measurement_theta_min      3.4330
_cell_volume                     646.81(11)
_computing_cell_refinement       'CrysAlisPro 1.171.38.46 (Rigaku OD, 2015)'
_computing_data_collection       'CrysAlisPro 1.171.38.46 (Rigaku OD, 2015)'
_computing_data_reduction        'CrysAlisPro 1.171.38.46 (Rigaku OD, 2015)'
_computing_structure_refinement  'SHELXL-2014/7 (Sheldrick, 2014)'
_computing_structure_solution    'SHELXS-2014/7 (Sheldrick, 2014)'
_diffrn_ambient_temperature      150(2)
_diffrn_detector_area_resol_mean 10.3385
_diffrn_measured_fraction_theta_full 1.000
_diffrn_measured_fraction_theta_max 0.843
_diffrn_measurement_device_type  'SuperNova, Dual, Cu at zero, Atlas'
_diffrn_measurement_method       '\w scans'
_diffrn_radiation_type           'Mo K\a'
_diffrn_radiation_wavelength     0.71073
_diffrn_reflns_av_R_equivalents  0.0276
_diffrn_reflns_av_unetI/netI     0.0447
_diffrn_reflns_Laue_measured_fraction_full 1.000
_diffrn_reflns_Laue_measured_fraction_max 0.843
_diffrn_reflns_limit_h_max       10
_diffrn_reflns_limit_h_min       -9
_diffrn_reflns_limit_k_max       10
_diffrn_reflns_limit_k_min       -9
_diffrn_reflns_limit_l_max       16
_diffrn_reflns_limit_l_min       -13
_diffrn_reflns_number            6224
_diffrn_reflns_point_group_measured_fraction_full 1.000
_diffrn_reflns_point_group_measured_fraction_max 0.843
_diffrn_reflns_theta_full        25.242
_diffrn_reflns_theta_max         29.465
_diffrn_reflns_theta_min         2.809
_diffrn_source                   'micro-focus sealed X-ray tube'
_exptl_absorpt_coefficient_mu    0.096
_exptl_absorpt_correction_T_max  1.00000
_exptl_absorpt_correction_T_min  0.90459
_exptl_absorpt_correction_type   multi-scan
_exptl_absorpt_process_details
;
CrysAlisPro 1.171.38.46 (Rigaku Oxford Diffraction, 2015)
Empirical absorption correction using spherical harmonics,
 implemented in SCALE3 ABSPACK scaling algorithm.
;
_exptl_crystal_colour            colorless
_exptl_crystal_density_diffrn    1.330
_exptl_crystal_description       'transparent prism'
_exptl_crystal_F_000             272
_exptl_crystal_size_max          0.267
_exptl_crystal_size_mid          0.143
_exptl_crystal_size_min          0.099
_refine_diff_density_max         0.351
_refine_diff_density_min         -0.254
_refine_diff_density_rms         0.048
_refine_ls_extinction_method     none
_refine_ls_goodness_of_fit_ref   1.051
_refine_ls_hydrogen_treatment    constr
_refine_ls_matrix_type           full
_refine_ls_number_parameters     174
_refine_ls_number_reflns         3026
_refine_ls_number_restraints     0
_refine_ls_restrained_S_all      1.051
_refine_ls_R_factor_all          0.0618
_refine_ls_R_factor_gt           0.0455
_refine_ls_shift/su_max          0.000
_refine_ls_shift/su_mean         0.000
_refine_ls_structure_factor_coef Fsqd
_refine_ls_weighting_details
'w=1/[\s^2^(Fo^2^)+(0.0353P)^2^+0.2351P] where P=(Fo^2^+2Fc^2^)/3'
_refine_ls_weighting_scheme      calc
_refine_ls_wR_factor_gt          0.0970
_refine_ls_wR_factor_ref         0.1085
_reflns_Friedel_coverage         0.000
_reflns_number_gt                2379
_reflns_number_total             3026
_reflns_threshold_expression     'I > 2\s(I)'
_cod_data_source_file            c9dt01555h2.cif
_cod_data_source_block           shelx
_cod_database_code               7701617
_shelx_shelxl_version_number     2014/7
_shelx_space_group_comment
;
The symmetry employed for this shelxl refinement is uniquely defined
by the following loop, which should always be used as a source of
symmetry information in preference to the above space-group names.
They are only intended as comments.
;
_shelx_estimated_absorpt_t_min   0.975
_shelx_estimated_absorpt_t_max   0.991
_shelx_res_file
;

    shelx.res created by SHELXL-2014/7

TITL JGL17012(Pammer) in P-1
CELL  0.71073   7.5560   7.8873  12.0635   80.677   78.126   67.404
ZERR     2.00   0.0007   0.0007   0.0011    0.007    0.008    0.009
LATT   1
SFAC  C    H    B    N    F
UNIT  30 32 2 2 4
MERG   2
MORE -1
FMAP   2
PLAN   20
SIZE     0.099   0.143   0.267
ACTA
BOND   $H
L.S.  10
TEMP  -123.00
WGHT    0.035300    0.235100
FVAR       8.87181
C1    1    0.674337    0.193237    0.413707    11.00000    0.02098    0.02123 =
         0.02099   -0.00081   -0.00387   -0.00670
AFIX  43
H1    2    0.696095    0.066680    0.436473    11.00000   -1.20000
AFIX   0
C2    1    0.803022    0.265567    0.432878    11.00000    0.01953    0.02897 =
         0.02448   -0.00223   -0.00593   -0.00736
AFIX  43
H2    2    0.912142    0.190635    0.468473    11.00000   -1.20000
AFIX   0
C3    1    0.770365    0.449580    0.399293    11.00000    0.02037    0.03061 =
         0.02622   -0.00809   -0.00134   -0.01357
AFIX  43
H3    2    0.856689    0.503287    0.411954    11.00000   -1.20000
AFIX   0
C4    1    0.610769    0.555116    0.347021    11.00000    0.02362    0.01907 =
         0.02673   -0.00340   -0.00245   -0.00978
AFIX  43
H4    2    0.588210    0.681556    0.323293    11.00000   -1.20000
AFIX   0
C5    1    0.483353    0.477629    0.328986    11.00000    0.01947    0.01829 =
         0.01867   -0.00365   -0.00143   -0.00831
C6    1    0.309131    0.585465    0.274143    11.00000    0.02017    0.01779 =
         0.01895   -0.00220   -0.00248   -0.00639
C7    1    0.238875    0.778415    0.269468    11.00000    0.02675    0.01913 =
         0.02583   -0.00479   -0.00439   -0.00943
AFIX  43
H7    2    0.304390    0.836996    0.300180    11.00000   -1.20000
AFIX   0
C8    1    0.075890    0.884655    0.220905    11.00000    0.03041    0.01654 =
         0.03152   -0.00336   -0.00668   -0.00324
AFIX  43
H8    2    0.030198    1.015318    0.218079    11.00000   -1.20000
AFIX   0
C9    1   -0.020533    0.800413    0.176443    11.00000    0.02476    0.02393 =
         0.03084    0.00054   -0.01155   -0.00241
AFIX  43
H9    2   -0.133131    0.872701    0.143269    11.00000   -1.20000
AFIX   0
C10   1    0.047902    0.610347    0.180552    11.00000    0.02586    0.02536 =
         0.02624   -0.00303   -0.00939   -0.00918
AFIX  43
H10   2   -0.019166    0.553740    0.149512    11.00000   -1.20000
AFIX   0
C11   1    0.212338    0.498665    0.228798    11.00000    0.02100    0.01939 =
         0.01931   -0.00180   -0.00326   -0.00763
C12   1    0.282404    0.290953    0.233711    11.00000    0.02435    0.01758 =
         0.02617   -0.00279   -0.00771   -0.00998
AFIX  13
H12   2    0.163785    0.260209    0.240272    11.00000   -1.20000
AFIX   0
C13   1    0.416074    0.210792    0.123717    11.00000    0.04042    0.01817 =
         0.02631   -0.00480   -0.00677   -0.00716
AFIX  13
H13   2    0.459871    0.073474    0.138119    11.00000   -1.20000
AFIX   0
C14   1    0.598463    0.258251    0.093221    11.00000    0.03470    0.02906 =
         0.02713   -0.00399   -0.00042   -0.00279
AFIX 137
H14A  2    0.561865    0.392550    0.082686    11.00000   -1.50000
H14B  2    0.674493    0.205136    0.022611    11.00000   -1.50000
H14C  2    0.676436    0.207615    0.154737    11.00000   -1.50000
AFIX   0
C15   1    0.306580    0.265782    0.021905    11.00000    0.05841    0.03865 =
         0.02894   -0.00926   -0.01284   -0.01826
AFIX 137
H15A  2    0.260417    0.400071    0.005034    11.00000   -1.50000
H15B  2    0.195496    0.225474    0.040144    11.00000   -1.50000
H15C  2    0.393843    0.206950   -0.044536    11.00000   -1.50000
AFIX   0
B1    3    0.370210    0.201539    0.348502    11.00000    0.02395    0.01779 =
         0.02523    0.00103   -0.00624   -0.01109
N1    4    0.517898    0.296421    0.363514    11.00000    0.01945    0.01799 =
         0.01792   -0.00245   -0.00266   -0.00791
F1    5    0.477926    0.012114    0.349483    11.00000    0.03463    0.01584 =
         0.04043    0.00157   -0.01632   -0.01039
F2    5    0.228639    0.234970    0.446149    11.00000    0.02625    0.03482 =
         0.02592    0.00210   -0.00457   -0.01727
HKLF    4

REM  JGL17012(Pammer) in P-1
REM R1 =  0.0455 for    2379 Fo > 4sig(Fo)  and  0.0618 for all    3026 data
REM    174 parameters refined using      0 restraints

END

WGHT      0.0353      0.2351

REM Highest difference peak  0.351,  deepest hole -0.254,  1-sigma level  0.048
Q1    1   0.3525  0.2456  0.2856  11.00000  0.05    0.35
Q2    1   0.3904  0.5306  0.2978  11.00000  0.05    0.31
Q3    1   0.2344  0.4007  0.2405  11.00000  0.05    0.23
Q4    1   0.2924  0.6754  0.2560  11.00000  0.05    0.23
Q5    1   0.4578  0.2468  0.3486  11.00000  0.05    0.22
Q6    1   0.1202  0.5555  0.2157  11.00000  0.05    0.21
Q7    1   0.3691  0.2661  0.1832  11.00000  0.05    0.20
Q8    1   0.6522  0.5178  0.4029  11.00000  0.05    0.20
Q9    1   0.2765  0.5416  0.2453  11.00000  0.05    0.19
Q10   1   0.8231  0.3395  0.3845  11.00000  0.05    0.18
Q11   1   0.7052  0.5022  0.3590  11.00000  0.05    0.18
Q12   1   0.5035  0.2266  0.1170  11.00000  0.05    0.18
Q13   1   0.7565  0.2395  0.3995  11.00000  0.05    0.17
Q14   1   0.3568  0.2479  0.0823  11.00000  0.05    0.17
Q15   1   0.6194  0.2408  0.3654  11.00000  0.05    0.16
Q16   1   0.7048  0.2435  0.4634  11.00000  0.05    0.15
Q17   1   0.1708  0.8237  0.2358  11.00000  0.05    0.15
Q18   1   0.6444  0.0592  0.4175  11.00000  0.05    0.15
Q19   1   0.4955  0.3902  0.3404  11.00000  0.05    0.15
Q20   1   0.8616  0.2253  0.4599  11.00000  0.05    0.14
;
_shelx_res_checksum              58051
loop_
_space_group_symop_operation_xyz
'x, y, z'
'-x, -y, -z'
loop_
_atom_site_label
_atom_site_type_symbol
_atom_site_fract_x
_atom_site_fract_y
_atom_site_fract_z
_atom_site_U_iso_or_equiv
_atom_site_adp_type
_atom_site_occupancy
_atom_site_site_symmetry_order
_atom_site_calc_flag
_atom_site_refinement_flags_posn
_atom_site_refinement_flags_adp
C1 C 0.6743(2) 0.1932(2) 0.41371(12) 0.0214(3) Uani 1 1 d . .
H1 H 0.6961 0.0667 0.4365 0.026 Uiso 1 1 calc R U
C2 C 0.8030(2) 0.2656(2) 0.43288(13) 0.0244(3) Uani 1 1 d . .
H2 H 0.9121 0.1906 0.4685 0.029 Uiso 1 1 calc R U
C3 C 0.7704(2) 0.4496(2) 0.39929(13) 0.0241(3) Uani 1 1 d . .
H3 H 0.8567 0.5033 0.4120 0.029 Uiso 1 1 calc R U
C4 C 0.6108(2) 0.5551(2) 0.34702(13) 0.0226(3) Uani 1 1 d . .
H4 H 0.5882 0.6816 0.3233 0.027 Uiso 1 1 calc R U
C5 C 0.4834(2) 0.47763(19) 0.32899(12) 0.0184(3) Uani 1 1 d . .
C6 C 0.3091(2) 0.58546(19) 0.27414(12) 0.0192(3) Uani 1 1 d . .
C7 C 0.2389(2) 0.7784(2) 0.26947(13) 0.0232(3) Uani 1 1 d . .
H7 H 0.3044 0.8370 0.3002 0.028 Uiso 1 1 calc R U
C8 C 0.0759(2) 0.8847(2) 0.22090(14) 0.0274(4) Uani 1 1 d . .
H8 H 0.0302 1.0153 0.2181 0.033 Uiso 1 1 calc R U
C9 C -0.0205(2) 0.8004(2) 0.17644(14) 0.0277(4) Uani 1 1 d . .
H9 H -0.1331 0.8727 0.1433 0.033 Uiso 1 1 calc R U
C10 C 0.0479(2) 0.6103(2) 0.18055(13) 0.0250(3) Uani 1 1 d . .
H10 H -0.0192 0.5537 0.1495 0.030 Uiso 1 1 calc R U
C11 C 0.2123(2) 0.4987(2) 0.22880(12) 0.0198(3) Uani 1 1 d . .
C12 C 0.2824(2) 0.29095(19) 0.23371(12) 0.0213(3) Uani 1 1 d . .
H12 H 0.1638 0.2602 0.2403 0.026 Uiso 1 1 calc R U
C13 C 0.4161(3) 0.2108(2) 0.12372(13) 0.0288(4) Uani 1 1 d . .
H13 H 0.4599 0.0735 0.1381 0.035 Uiso 1 1 calc R U
C14 C 0.5985(3) 0.2583(2) 0.09322(14) 0.0335(4) Uani 1 1 d . .
H14A H 0.5619 0.3926 0.0827 0.050 Uiso 1 1 calc R U
H14B H 0.6745 0.2051 0.0226 0.050 Uiso 1 1 calc R U
H14C H 0.6764 0.2076 0.1547 0.050 Uiso 1 1 calc R U
C15 C 0.3066(3) 0.2658(3) 0.02191(15) 0.0401(5) Uani 1 1 d . .
H15A H 0.2604 0.4001 0.0050 0.060 Uiso 1 1 calc R U
H15B H 0.1955 0.2255 0.0401 0.060 Uiso 1 1 calc R U
H15C H 0.3938 0.2069 -0.0445 0.060 Uiso 1 1 calc R U
B1 B 0.3702(3) 0.2015(2) 0.34850(14) 0.0212(4) Uani 1 1 d . .
N1 N 0.51790(17) 0.29642(16) 0.36351(10) 0.0181(3) Uani 1 1 d . .
F1 F 0.47793(14) 0.01211(11) 0.34948(8) 0.0288(2) Uani 1 1 d . .
F2 F 0.22864(13) 0.23497(12) 0.44615(7) 0.0276(2) Uani 1 1 d . .
loop_
_atom_site_aniso_label
_atom_site_aniso_U_11
_atom_site_aniso_U_22
_atom_site_aniso_U_33
_atom_site_aniso_U_23
_atom_site_aniso_U_13
_atom_site_aniso_U_12
C1 0.0210(7) 0.0212(7) 0.0210(7) -0.0008(6) -0.0039(6) -0.0067(6)
C2 0.0195(7) 0.0290(8) 0.0245(8) -0.0022(6) -0.0059(6) -0.0074(6)
C3 0.0204(7) 0.0306(8) 0.0262(8) -0.0081(6) -0.0013(6) -0.0136(6)
C4 0.0236(8) 0.0191(7) 0.0267(8) -0.0034(6) -0.0024(6) -0.0098(6)
C5 0.0195(7) 0.0183(7) 0.0187(7) -0.0037(5) -0.0014(6) -0.0083(6)
C6 0.0202(7) 0.0178(7) 0.0190(7) -0.0022(5) -0.0025(6) -0.0064(6)
C7 0.0267(8) 0.0191(7) 0.0258(8) -0.0048(6) -0.0044(7) -0.0094(6)
C8 0.0304(9) 0.0165(7) 0.0315(8) -0.0034(6) -0.0067(7) -0.0032(6)
C9 0.0248(8) 0.0239(8) 0.0308(8) 0.0005(6) -0.0116(7) -0.0024(6)
C10 0.0259(8) 0.0254(8) 0.0262(8) -0.0030(6) -0.0094(7) -0.0092(6)
C11 0.0210(7) 0.0194(7) 0.0193(7) -0.0018(5) -0.0033(6) -0.0076(6)
C12 0.0244(8) 0.0176(7) 0.0262(7) -0.0028(6) -0.0077(6) -0.0100(6)
C13 0.0404(10) 0.0182(8) 0.0263(8) -0.0048(6) -0.0068(7) -0.0072(7)
C14 0.0347(9) 0.0291(9) 0.0271(8) -0.0040(7) -0.0004(7) -0.0028(7)
C15 0.0584(13) 0.0386(10) 0.0289(9) -0.0093(7) -0.0128(9) -0.0183(9)
B1 0.0240(9) 0.0178(8) 0.0252(8) 0.0010(6) -0.0062(7) -0.0111(7)
N1 0.0194(6) 0.0180(6) 0.0179(6) -0.0025(5) -0.0027(5) -0.0079(5)
F1 0.0346(5) 0.0158(4) 0.0404(5) 0.0016(4) -0.0163(4) -0.0104(4)
F2 0.0262(5) 0.0348(5) 0.0259(5) 0.0021(4) -0.0046(4) -0.0173(4)
loop_
_atom_type_symbol
_atom_type_description
_atom_type_scat_dispersion_real
_atom_type_scat_dispersion_imag
_atom_type_scat_source
C C 0.0033 0.0016 'International Tables Vol C Tables 4.2.6.8 and 6.1.1.4'
H H 0.0000 0.0000 'International Tables Vol C Tables 4.2.6.8 and 6.1.1.4'
B B 0.0013 0.0007 'International Tables Vol C Tables 4.2.6.8 and 6.1.1.4'
N N 0.0061 0.0033 'International Tables Vol C Tables 4.2.6.8 and 6.1.1.4'
F F 0.0171 0.0103 'International Tables Vol C Tables 4.2.6.8 and 6.1.1.4'
loop_
_geom_angle_atom_site_label_1
_geom_angle_atom_site_label_2
_geom_angle_atom_site_label_3
_geom_angle
N1 C1 C2 122.03(13)
N1 C1 H1 119.0
C2 C1 H1 119.0
C1 C2 C3 118.56(14)
C1 C2 H2 120.7
C3 C2 H2 120.7
C2 C3 C4 119.43(14)
C2 C3 H3 120.3
C4 C3 H3 120.3
C3 C4 C5 120.53(14)
C3 C4 H4 119.7
C5 C4 H4 119.7
N1 C5 C4 118.94(13)
N1 C5 C6 118.49(13)
C4 C5 C6 122.57(13)
C7 C6 C11 119.55(13)
C7 C6 C5 118.80(13)
C11 C6 C5 121.64(13)
C8 C7 C6 121.01(14)
C8 C7 H7 119.5
C6 C7 H7 119.5
C7 C8 C9 119.82(14)
C7 C8 H8 120.1
C9 C8 H8 120.1
C10 C9 C8 119.54(14)
C10 C9 H9 120.2
C8 C9 H9 120.2
C9 C10 C11 122.19(15)
C9 C10 H10 118.9
C11 C10 H10 118.9
C10 C11 C6 117.89(13)
C10 C11 C12 121.11(13)
C6 C11 C12 121.00(13)
C11 C12 C13 113.66(12)
C11 C12 B1 109.64(12)
C13 C12 B1 114.76(13)
C11 C12 H12 106.0
C13 C12 H12 106.0
B1 C12 H12 106.0
C14 C13 C15 110.08(14)
C14 C13 C12 113.92(13)
C15 C13 C12 112.02(14)
C14 C13 H13 106.8
C15 C13 H13 106.8
C12 C13 H13 106.8
C13 C14 H14A 109.5
C13 C14 H14B 109.5
H14A C14 H14B 109.5
C13 C14 H14C 109.5
H14A C14 H14C 109.5
H14B C14 H14C 109.5
C13 C15 H15A 109.5
C13 C15 H15B 109.5
H15A C15 H15B 109.5
C13 C15 H15C 109.5
H15A C15 H15C 109.5
H15B C15 H15C 109.5
F1 B1 F2 109.16(12)
F1 B1 C12 113.87(13)
F2 B1 C12 112.92(13)
F1 B1 N1 106.02(12)
F2 B1 N1 105.27(12)
C12 B1 N1 109.02(11)
C1 N1 C5 120.51(13)
C1 N1 B1 118.60(12)
C5 N1 B1 120.87(11)
loop_
_geom_bond_atom_site_label_1
_geom_bond_atom_site_label_2
_geom_bond_distance
C1 N1 1.3498(18)
C1 C2 1.373(2)
C1 H1 0.9500
C2 C3 1.381(2)
C2 H2 0.9500
C3 C4 1.384(2)
C3 H3 0.9500
C4 C5 1.389(2)
C4 H4 0.9500
C5 N1 1.3600(18)
C5 C6 1.487(2)
C6 C7 1.402(2)
C6 C11 1.405(2)
C7 C8 1.381(2)
C7 H7 0.9500
C8 C9 1.381(2)
C8 H8 0.9500
C9 C10 1.381(2)
C9 H9 0.9500
C10 C11 1.396(2)
C10 H10 0.9500
C11 C12 1.511(2)
C12 C13 1.552(2)
C12 B1 1.599(2)
C12 H12 1.0000
C13 C14 1.522(3)
C13 C15 1.533(2)
C13 H13 1.0000
C14 H14A 0.9800
C14 H14B 0.9800
C14 H14C 0.9800
C15 H15A 0.9800
C15 H15B 0.9800
C15 H15C 0.9800
B1 F1 1.3995(19)
B1 F2 1.402(2)
B1 N1 1.615(2)
