#------------------------------------------------------------------------------
#$Date: 2019-11-23 20:00:29 +0200 (Sat, 23 Nov 2019) $
#$Revision: 234753 $
#$URL: file:///home/coder/svn-repositories/cod/cif/7/70/21/7702107.cif $
#------------------------------------------------------------------------------
#
# This file is available in the Crystallography Open Database (COD),
# http://www.crystallography.net/
#
# All data on this site have been placed in the public domain by the
# contributors.
#
data_7702107
loop_
_publ_author_name
'Chang, Yao-Pang'
'Levason, William'
'Light, Mark E.'
'Reid, Gillian'
_publ_section_title
;
 Niobium tetrachloride complexes with thio-, seleno- and telluro-ether
 coordination - synthesis and structures.
;
_journal_issue                   41
_journal_name_full
'Dalton transactions (Cambridge, England : 2003)'
_journal_page_first              16262
_journal_page_last               16274
_journal_paper_doi               10.1039/c6dt02979e
_journal_volume                  45
_journal_year                    2016
_chemical_formula_moiety         'C4 H10 Cl3 Nb O S2'
_chemical_formula_sum            'C4 H10 Cl3 Nb O S2'
_chemical_formula_weight         337.50
_chemical_properties_physical    ', Air-sensitive,Moisture-sensitive'
_space_group_crystal_system      triclinic
_space_group_IT_number           1
_space_group_name_Hall           'P 1'
_space_group_name_H-M_alt        'P 1'
_atom_sites_solution_hydrogens   geom
_audit_creation_method           SHELXL-2014/7
_audit_update_record
;
2016-07-18 deposited with the CCDC.
2016-09-13 downloaded from the CCDC.
;
_cell_angle_alpha                108.917(4)
_cell_angle_beta                 99.404(4)
_cell_angle_gamma                113.677(4)
_cell_formula_units_Z            1
_cell_length_a                   6.7898(3)
_cell_length_b                   6.9745(3)
_cell_length_c                   7.2523(4)
_cell_measurement_reflns_used    6549
_cell_measurement_temperature    100(2)
_cell_measurement_theta_max      32.1680
_cell_measurement_theta_min      3.1020
_cell_volume                     279.93(3)
_computing_cell_refinement       'Bruker FRAMBO'
_computing_data_collection       'Bruker FRAMBO'
_computing_data_reduction        'Bruker SAINT'
_computing_molecular_graphics    'Bruker SHELXTL'
_computing_publication_material  'Bruker SHELXTL'
_computing_structure_refinement  'SHELXL-2014/7 (Sheldrick, 2014)'
_computing_structure_solution    'Bruker SHELXTL'
_diffrn_ambient_temperature      100(2)
_diffrn_detector_area_resol_mean 28.5714
_diffrn_measured_fraction_theta_full 0.999
_diffrn_measured_fraction_theta_max 0.999
_diffrn_measurement_device_type  'Rigaku AFC12 (Right)'
_diffrn_measurement_method       'profile data from \w-scans'
_diffrn_radiation_type           MoK\a
_diffrn_radiation_wavelength     0.71073
_diffrn_reflns_av_R_equivalents  0.0328
_diffrn_reflns_av_unetI/netI     0.0279
_diffrn_reflns_Laue_measured_fraction_full 0.999
_diffrn_reflns_Laue_measured_fraction_max 0.999
_diffrn_reflns_limit_h_max       8
_diffrn_reflns_limit_h_min       -8
_diffrn_reflns_limit_k_max       8
_diffrn_reflns_limit_k_min       -8
_diffrn_reflns_limit_l_max       8
_diffrn_reflns_limit_l_min       -8
_diffrn_reflns_number            6650
_diffrn_reflns_point_group_measured_fraction_full 0.998
_diffrn_reflns_point_group_measured_fraction_max 0.998
_diffrn_reflns_theta_full        25.242
_diffrn_reflns_theta_max         25.995
_diffrn_reflns_theta_min         3.156
_diffrn_source                   'Rotating Anode'
_exptl_absorpt_coefficient_mu    2.112
_exptl_absorpt_correction_T_max  1.00000
_exptl_absorpt_correction_T_min  0.66440
_exptl_absorpt_correction_type   multi-scan
_exptl_absorpt_process_details
; 
CrysAlisPro 1.171.38.41 (Rigaku Oxford Diffraction, 2015) 
Empirical absorption correction using spherical harmonics, 
 implemented in SCALE3 ABSPACK scaling algorithm. 
;
_exptl_crystal_colour            'Pale Green'
_exptl_crystal_density_diffrn    2.002
_exptl_crystal_description       Chip
_exptl_crystal_F_000             166
_exptl_crystal_size_max          0.020
_exptl_crystal_size_mid          0.020
_exptl_crystal_size_min          0.020
_refine_diff_density_max         0.695
_refine_diff_density_min         -0.331
_refine_diff_density_rms         0.093
_refine_ls_abs_structure_details
; 
 Flack x determined using 1030 quotients [(I+)-(I-)]/[(I+)+(I-)] 
 (Parsons, Flack and Wagner, Acta Cryst. B69 (2013) 249-259). 
;
_refine_ls_abs_structure_Flack   0.03(6)
_refine_ls_extinction_method     none
_refine_ls_goodness_of_fit_ref   1.072
_refine_ls_hydrogen_treatment    constr
_refine_ls_matrix_type           full
_refine_ls_number_parameters     102
_refine_ls_number_reflns         2205
_refine_ls_number_restraints     3
_refine_ls_restrained_S_all      1.071
_refine_ls_R_factor_all          0.0266
_refine_ls_R_factor_gt           0.0252
_refine_ls_shift/su_max          0.000
_refine_ls_shift/su_mean         0.000
_refine_ls_structure_factor_coef Fsqd
_refine_ls_weighting_details
'w=1/[\s^2^(Fo^2^)+(0.0459P)^2^] where P=(Fo^2^+2Fc^2^)/3'
_refine_ls_weighting_scheme      calc
_refine_ls_wR_factor_gt          0.0624
_refine_ls_wR_factor_ref         0.0628
_reflns_Friedel_coverage         0.997
_reflns_Friedel_fraction_full    0.996
_reflns_Friedel_fraction_max     0.996
_reflns_number_gt                2156
_reflns_number_total             2205
_reflns_threshold_expression     'I > 2\s(I)'
_cod_data_source_file            c6dt02979e2.cif
_cod_data_source_block           2016_1405r3
_cod_database_code               7702107
_shelx_shelxl_version_number     2014/7
_shelx_space_group_comment
; 
The symmetry employed for this shelxl refinement is uniquely defined 
by the following loop, which should always be used as a source of 
symmetry information in preference to the above space-group names. 
They are only intended as comments. 
;
_shelx_estimated_absorpt_t_min   0.959
_shelx_estimated_absorpt_t_max   0.959
_shelx_res_file
; 
  
    2016_1405r3.res created by SHELXL-2014/7 
  
  
TITL 2016_1405r3 in P1 
CELL 0.71073   6.7898   6.9745   7.2523 108.917  99.404 113.677 
ZERR    1.00   0.0003   0.0003   0.0004   0.004   0.004   0.004 
LATT -1 
SFAC C  H  O  S  Cl Nb 
UNIT 4 10 1 2 3 1 
OMIT  0  -1   3 
OMIT   0   1   4 
OMIT  0   1  -3 
OMIT  -4.00  52.00 
L.S. 4 
ACTA 
BOND $H 
FMAP 2 
PLAN 5 
CONF 
SIZE 0.02 0.02 0.02 
TEMP -173 
WGHT    0.045900 
FVAR       0.66795 
MOLE 1 
NB1   6    0.473259    0.875911    0.743296    11.00000    0.01569    0.01579 = 
         0.01358    0.00615    0.00353    0.00765 
CL1   5    0.295182    0.495003    0.472445    11.00000    0.02438    0.01856 = 
         0.01592    0.00636    0.00654    0.01214 
CL2   5    0.287253    1.004685    0.552098    11.00000    0.02548    0.01968 = 
         0.01797    0.00736    0.00363    0.01311 
CL3   5    0.575504    1.171989    1.074938    11.00000    0.02498    0.01772 = 
         0.01550    0.00343    0.00115    0.00967 
S1    4    0.534875    0.633094    0.942845    11.00000    0.01640    0.02051 = 
         0.01537    0.00854    0.00476    0.01103 
S2    4    0.066371    0.715988    0.845501    11.00000    0.01530    0.01844 = 
         0.01679    0.00586    0.00436    0.00899 
O1    3    0.741026    0.974108    0.722851    11.00000    0.01774    0.02642 = 
         0.01798    0.00818    0.00481    0.01058 
C1    1    0.691651    0.813907    1.215647    11.00000    0.02100    0.02918 = 
         0.01666    0.00820   -0.00196    0.01131 
AFIX 137 
H1A   2    0.615113    0.898920    1.274657    11.00000   -1.50000 
H1B   2    0.847423    0.924441    1.234689    11.00000   -1.50000 
H1C   2    0.697595    0.716596    1.285812    11.00000   -1.50000 
AFIX   0 
C2    1    0.253359    0.453701    0.941736    11.00000    0.01762    0.01717 = 
         0.01740    0.00932    0.00493    0.00771 
AFIX  23 
H2A   2    0.160877    0.328705    0.799911    11.00000   -1.20000 
H2B   2    0.269423    0.379341    1.034413    11.00000   -1.20000 
AFIX   0 
C3    1    0.124776    0.583180    1.009775    11.00000    0.02060    0.02272 = 
         0.01901    0.01005    0.00979    0.01104 
AFIX  23 
H3A   2    0.215204    0.705671    1.152941    11.00000   -1.20000 
H3B   2   -0.022057    0.473641    1.012115    11.00000   -1.20000 
AFIX   0 
C4    1   -0.158202    0.468121    0.617259    11.00000    0.01500    0.02561 = 
         0.01850    0.00158   -0.00074    0.00702 
AFIX 137 
H4A   2   -0.107521    0.354235    0.564808    11.00000   -1.50000 
H4B   2   -0.194187    0.518002    0.510573    11.00000   -1.50000 
H4C   2   -0.294859    0.397510    0.652439    11.00000   -1.50000 
AFIX   0 
HKLF 4 
  
REM  2016_1405r3 in P1 
REM R1 =  0.0252 for    2156 Fo > 4sig(Fo)  and  0.0266 for all    2205 data 
REM    102 parameters refined using      3 restraints 
  
END 
  
WGHT      0.0459      0.0000 
  
REM Highest difference peak  0.695,  deepest hole -0.331,  1-sigma level  0.093 
Q1    1   0.3433  0.8140  0.7826  11.00000  0.05    0.69 
Q2    1   0.6117  0.9277  0.7066  11.00000  0.05    0.59 
Q3    1   0.5897  0.9973  0.8531  11.00000  0.05    0.48 
Q4    1   0.2005  0.7777  0.8138  11.00000  0.05    0.44 
Q5    1   0.3960  0.7633  0.6047  11.00000  0.05    0.42 
;
_shelx_res_checksum              1063
loop_
_space_group_symop_operation_xyz
'x, y, z'
loop_
_atom_site_label
_atom_site_type_symbol
_atom_site_fract_x
_atom_site_fract_y
_atom_site_fract_z
_atom_site_U_iso_or_equiv
_atom_site_adp_type
_atom_site_occupancy
_atom_site_site_symmetry_order
_atom_site_calc_flag
_atom_site_refinement_flags_posn
_atom_site_refinement_flags_adp
Nb1 Nb 0.47326(3) 0.87591(3) 0.74330(3) 0.01528(14) Uani 1 1 d . .
Cl1 Cl 0.2952(2) 0.4950(2) 0.4724(2) 0.0193(3) Uani 1 1 d . .
Cl2 Cl 0.2873(2) 1.0047(2) 0.5521(2) 0.0210(3) Uani 1 1 d . .
Cl3 Cl 0.5755(2) 1.1720(2) 1.0749(2) 0.0216(3) Uani 1 1 d . .
S1 S 0.5349(2) 0.6331(2) 0.9428(2) 0.0165(3) Uani 1 1 d . .
S2 S 0.0664(2) 0.7160(2) 0.8455(2) 0.0172(3) Uani 1 1 d . .
O1 O 0.7410(7) 0.9741(7) 0.7229(6) 0.0214(9) Uani 1 1 d . .
C1 C 0.6917(11) 0.8139(11) 1.2156(10) 0.0243(13) Uani 1 1 d . .
H1A H 0.6151 0.8989 1.2747 0.036 Uiso 1 1 calc R U
H1B H 0.8474 0.9244 1.2347 0.036 Uiso 1 1 calc R U
H1C H 0.6976 0.7166 1.2858 0.036 Uiso 1 1 calc R U
C2 C 0.2534(9) 0.4537(9) 0.9417(9) 0.0173(11) Uani 1 1 d . .
H2A H 0.1609 0.3287 0.7999 0.021 Uiso 1 1 calc R U
H2B H 0.2694 0.3793 1.0344 0.021 Uiso 1 1 calc R U
C3 C 0.1248(10) 0.5832(10) 1.0098(10) 0.0198(12) Uani 1 1 d . .
H3A H 0.2152 0.7057 1.1529 0.024 Uiso 1 1 calc R U
H3B H -0.0221 0.4736 1.0121 0.024 Uiso 1 1 calc R U
C4 C -0.1582(10) 0.4681(10) 0.6173(9) 0.0240(13) Uani 1 1 d . .
H4A H -0.1075 0.3542 0.5648 0.036 Uiso 1 1 calc R U
H4B H -0.1942 0.5180 0.5106 0.036 Uiso 1 1 calc R U
H4C H -0.2949 0.3975 0.6524 0.036 Uiso 1 1 calc R U
loop_
_atom_site_aniso_label
_atom_site_aniso_U_11
_atom_site_aniso_U_22
_atom_site_aniso_U_33
_atom_site_aniso_U_23
_atom_site_aniso_U_13
_atom_site_aniso_U_12
Nb1 0.0157(2) 0.0158(2) 0.0136(2) 0.00615(17) 0.00353(18) 0.00765(18)
Cl1 0.0244(7) 0.0186(6) 0.0159(7) 0.0064(5) 0.0065(6) 0.0121(5)
Cl2 0.0255(7) 0.0197(6) 0.0180(7) 0.0074(5) 0.0036(6) 0.0131(6)
Cl3 0.0250(7) 0.0177(6) 0.0155(7) 0.0034(5) 0.0011(6) 0.0097(6)
S1 0.0164(7) 0.0205(6) 0.0154(7) 0.0085(5) 0.0048(5) 0.0110(5)
S2 0.0153(6) 0.0184(6) 0.0168(7) 0.0059(5) 0.0044(5) 0.0090(5)
O1 0.018(2) 0.026(2) 0.018(2) 0.0082(17) 0.0048(17) 0.0106(17)
C1 0.021(3) 0.029(3) 0.017(3) 0.008(2) -0.002(2) 0.011(3)
C2 0.018(3) 0.017(3) 0.017(3) 0.009(2) 0.005(2) 0.008(2)
C3 0.021(3) 0.023(3) 0.019(3) 0.010(2) 0.010(2) 0.011(2)
C4 0.015(3) 0.026(3) 0.018(3) 0.002(2) -0.001(2) 0.007(2)
loop_
_atom_type_symbol
_atom_type_description
_atom_type_scat_dispersion_real
_atom_type_scat_dispersion_imag
_atom_type_scat_source
C C 0.0033 0.0016 'International Tables Vol C Tables 4.2.6.8 and 6.1.1.4'
H H 0.0000 0.0000 'International Tables Vol C Tables 4.2.6.8 and 6.1.1.4'
O O 0.0106 0.0060 'International Tables Vol C Tables 4.2.6.8 and 6.1.1.4'
S S 0.1246 0.1234 'International Tables Vol C Tables 4.2.6.8 and 6.1.1.4'
Cl Cl 0.1484 0.1585 'International Tables Vol C Tables 4.2.6.8 and 6.1.1.4'
Nb Nb -2.0727 0.6215 'International Tables Vol C Tables 4.2.6.8 and 6.1.1.4'
loop_
_geom_angle_atom_site_label_1
_geom_angle_atom_site_label_2
_geom_angle_atom_site_label_3
_geom_angle
O1 Nb1 Cl2 105.17(15)
O1 Nb1 Cl3 97.22(14)
Cl2 Nb1 Cl3 97.03(5)
O1 Nb1 Cl1 98.34(14)
Cl2 Nb1 Cl1 93.59(5)
Cl3 Nb1 Cl1 158.15(5)
O1 Nb1 S1 93.95(14)
Cl2 Nb1 S1 159.99(5)
Cl3 Nb1 S1 86.16(4)
Cl1 Nb1 S1 77.56(4)
O1 Nb1 S2 169.79(14)
Cl2 Nb1 S2 83.98(5)
Cl3 Nb1 S2 76.86(5)
Cl1 Nb1 S2 85.38(4)
S1 Nb1 S2 77.50(4)
C1 S1 C2 102.4(3)
C1 S1 Nb1 111.9(2)
C2 S1 Nb1 105.04(18)
C4 S2 C3 102.2(3)
C4 S2 Nb1 107.7(2)
C3 S2 Nb1 102.4(2)
S1 C1 H1A 109.5
S1 C1 H1B 109.5
H1A C1 H1B 109.5
S1 C1 H1C 109.5
H1A C1 H1C 109.5
H1B C1 H1C 109.5
C3 C2 S1 114.6(4)
C3 C2 H2A 108.6
S1 C2 H2A 108.6
C3 C2 H2B 108.6
S1 C2 H2B 108.6
H2A C2 H2B 107.6
C2 C3 S2 114.1(4)
C2 C3 H3A 108.7
S2 C3 H3A 108.7
C2 C3 H3B 108.7
S2 C3 H3B 108.7
H3A C3 H3B 107.6
S2 C4 H4A 109.5
S2 C4 H4B 109.5
H4A C4 H4B 109.5
S2 C4 H4C 109.5
H4A C4 H4C 109.5
H4B C4 H4C 109.5
loop_
_geom_bond_atom_site_label_1
_geom_bond_atom_site_label_2
_geom_bond_distance
Nb1 O1 1.718(4)
Nb1 Cl2 2.3389(13)
Nb1 Cl3 2.3693(13)
Nb1 Cl1 2.3746(13)
Nb1 S1 2.6642(13)
Nb1 S2 2.8559(14)
S1 C1 1.804(6)
S1 C2 1.813(6)
S2 C4 1.804(6)
S2 C3 1.814(6)
C1 H1A 0.9800
C1 H1B 0.9800
C1 H1C 0.9800
C2 C3 1.519(8)
C2 H2A 0.9900
C2 H2B 0.9900
C3 H3A 0.9900
C3 H3B 0.9900
C4 H4A 0.9800
C4 H4B 0.9800
C4 H4C 0.9800
loop_
_geom_torsion_atom_site_label_1
_geom_torsion_atom_site_label_2
_geom_torsion_atom_site_label_3
_geom_torsion_atom_site_label_4
_geom_torsion
C1 S1 C2 C3 68.3(5)
Nb1 S1 C2 C3 -48.8(5)
S1 C2 C3 S2 61.7(5)
C4 S2 C3 C2 73.6(5)
Nb1 S2 C3 C2 -37.9(5)
