#------------------------------------------------------------------------------
#$Date: 2020-02-04 22:42:09 +0200 (Tue, 04 Feb 2020) $
#$Revision: 247750 $
#$URL: file:///home/coder/svn-repositories/cod/cif/7/70/30/7703096.cif $
#------------------------------------------------------------------------------
#
# This file is available in the Crystallography Open Database (COD),
# http://www.crystallography.net/
#
# All data on this site have been placed in the public domain by the
# contributors.
#
data_7703096
loop_
_publ_author_name
'Thu\'ery, Pierre'
'Atoini, Youssef'
'Harrowfield, Jack'
_publ_section_title
;
 Zero-, mono- and diperiodic uranyl ion complexes with the diphenate
 dianion: influences of transition metal ion coordination and differential
 U<sup>VI</sup> chelation.
;
_journal_issue                   3
_journal_name_full
'Dalton transactions (Cambridge, England : 2003)'
_journal_page_first              817
_journal_page_last               828
_journal_paper_doi               10.1039/c9dt04126e
_journal_volume                  49
_journal_year                    2020
_chemical_formula_sum            'C14 H8 O6 U'
_chemical_formula_weight         510.23
_space_group_crystal_system      triclinic
_space_group_IT_number           2
_space_group_name_Hall           '-P 1'
_space_group_name_H-M_alt        'P -1'
_atom_sites_solution_hydrogens   geom
_atom_sites_solution_primary     dual
_atom_sites_solution_secondary   difmap
_audit_creation_method           SHELXL-2014
_audit_update_record
;
2019-10-11 deposited with the CCDC.	2019-12-11 downloaded from the CCDC.
;
_cell_angle_alpha                92.354(7)
_cell_angle_beta                 116.196(5)
_cell_angle_gamma                111.110(6)
_cell_formula_units_Z            2
_cell_length_a                   9.3038(10)
_cell_length_b                   9.3958(8)
_cell_length_c                   9.9840(15)
_cell_measurement_reflns_used    32551
_cell_measurement_temperature    100(2)
_cell_measurement_theta_max      25.68
_cell_measurement_theta_min      3.73
_cell_volume                     709.40(16)
_computing_cell_refinement       'HKL2000 (Otwinowski & Minor, 1997)'
_computing_data_collection       'COLLECT (Nonius, 1998)'
_computing_data_reduction        'HKL2000 (Otwinowski & Minor, 1997)'
_computing_molecular_graphics    'SHELXTL (Sheldrick, 2008)'
_computing_publication_material
'SHELXTL (Sheldrick, 2008); PLATON (Spek, 2003)'
_computing_structure_refinement  'SHELXL (Sheldrick, 2015)'
_computing_structure_solution    'SHELXT (Sheldrick, 2015)'
_diffrn_ambient_temperature      100(2)
_diffrn_measured_fraction_theta_full 0.997
_diffrn_measured_fraction_theta_max 0.997
_diffrn_measurement_device_type
'Nonius Kappa-CCD area-detector diffractometer'
_diffrn_measurement_method
'two \f and ten \w scans with 2\% steps (734 frames)'
_diffrn_radiation_monochromator  graphite
_diffrn_radiation_source         'fine-focus sealed tube'
_diffrn_radiation_type           MoK\a
_diffrn_radiation_wavelength     0.71073
_diffrn_reflns_av_R_equivalents  0.0909
_diffrn_reflns_av_unetI/netI     0.1059
_diffrn_reflns_Laue_measured_fraction_full 0.997
_diffrn_reflns_Laue_measured_fraction_max 0.997
_diffrn_reflns_limit_h_max       11
_diffrn_reflns_limit_h_min       -11
_diffrn_reflns_limit_k_max       11
_diffrn_reflns_limit_k_min       -11
_diffrn_reflns_limit_l_max       12
_diffrn_reflns_limit_l_min       -12
_diffrn_reflns_number            32551
_diffrn_reflns_point_group_measured_fraction_full 0.997
_diffrn_reflns_point_group_measured_fraction_max 0.997
_diffrn_reflns_theta_full        25.242
_diffrn_reflns_theta_max         25.680
_diffrn_reflns_theta_min         3.728
_diffrn_standards_decay_%        0
_diffrn_standards_interval_time  0
_diffrn_standards_number         0
_exptl_absorpt_coefficient_mu    11.464
_exptl_absorpt_correction_T_max  0.632
_exptl_absorpt_correction_T_min  0.303
_exptl_absorpt_correction_type   multi-scan
_exptl_absorpt_process_details   'SCALEPACK (Otwinowski & Minor, 1997)'
_exptl_crystal_colour            'translucent light yellow'
_exptl_crystal_density_diffrn    2.389
_exptl_crystal_description       platelet
_exptl_crystal_F_000             464
_exptl_crystal_size_max          0.14
_exptl_crystal_size_mid          0.11
_exptl_crystal_size_min          0.04
_refine_diff_density_max         2.095
_refine_diff_density_min         -1.329
_refine_diff_density_rms         0.279
_refine_ls_extinction_method     none
_refine_ls_goodness_of_fit_ref   0.916
_refine_ls_hydrogen_treatment    constr
_refine_ls_matrix_type           full
_refine_ls_number_parameters     190
_refine_ls_number_reflns         2687
_refine_ls_number_restraints     0
_refine_ls_restrained_S_all      0.916
_refine_ls_R_factor_all          0.0504
_refine_ls_R_factor_gt           0.0316
_refine_ls_shift/su_max          0.001
_refine_ls_shift/su_mean         0.000
_refine_ls_structure_factor_coef Fsqd
_refine_ls_weighting_details     'w=1/[\s^2^(Fo^2^)] where P=(Fo^2^+2Fc^2^)/3'
_refine_ls_weighting_scheme      calc
_refine_ls_wR_factor_gt          0.0494
_refine_ls_wR_factor_ref         0.0529
_reflns_Friedel_coverage         0.000
_reflns_number_gt                2207
_reflns_number_total             2687
_reflns_threshold_expression     'I > 2\s(I)'
_cod_data_source_file            c9dt04126e1.cif
_cod_data_source_block           1
_cod_depositor_comments
'Adding full bibliography for 7703096--7703104.cif.'
_cod_database_code               7703096
_shelx_space_group_comment
;
The symmetry employed for this shelxl refinement is uniquely defined
by the following loop, which should always be used as a source of
symmetry information in preference to the above space-group names.
They are only intended as comments.
;
_shelxl_version_number           2014-3
_shelx_res_file
;
TITL pt828 in P-1
CELL  0.71073   9.3038   9.3958   9.9840   92.354  116.196  111.110
ZERR    2.000   0.0010   0.0008   0.0015    0.007    0.005    0.006
LATT  1
SFAC C H O U
UNIT 28 16 12 2
L.S. 10
ACTA
SHEL 100 .82
BOND $H
TEMP -173
FMAP 2
PLAN 10
OMIT    -1   0   1
OMIT     0  -1   1
OMIT    -1   2   0
OMIT     0   0   1
OMIT     1   0   0
OMIT    -1   1   1
OMIT     0   1   0
OMIT    -1   1   0
WGHT    0.000000
FVAR       0.20311
U1    4    0.522239    1.223223    0.959421    11.00000    0.02352    0.01795 =
         0.02232    0.00493    0.01060    0.00816
O1    3    0.296081    1.163174    0.895530    11.00000    0.01518    0.02111 =
         0.02345    0.00113    0.00898    0.00216
O2    3    0.749572    1.280189    1.028568    11.00000    0.01817    0.02100 =
         0.02561    0.00450    0.01119    0.00699
O3    3    0.416939    1.089496    0.696145    11.00000    0.03982    0.01571 =
         0.02242    0.00534    0.01664    0.00817
O4    3    0.469374    0.944324    0.861361    11.00000    0.03033    0.02146 =
         0.01260    0.00820    0.00676    0.00895
O5    3    0.419366    0.578038    0.854585    11.00000    0.02010    0.02452 =
         0.02423    0.00450    0.01023    0.00889
O6    3    0.544901    0.423518    0.828797    11.00000    0.03372    0.02200 =
         0.02506    0.00830    0.01657    0.01213
C1    1    0.300965    0.812764    0.592439    11.00000    0.01791    0.01639 =
         0.01866    0.00671    0.00838    0.00480
C2    1    0.380855    0.716856    0.582764    11.00000    0.01983    0.02796 =
         0.01545    0.00897    0.00779    0.00922
C3    1    0.279329    0.579181    0.465445    11.00000    0.02710    0.02685 =
         0.02596    0.00218    0.01377    0.00766
AFIX  43
H3    2    0.332310    0.512539    0.455990    11.00000   -1.20000
AFIX   0
C4    1    0.101280    0.537792    0.361800    11.00000    0.03998    0.01756 =
         0.02708    0.00141    0.01667    0.00751
AFIX  43
H4    2    0.032050    0.441948    0.285078    11.00000   -1.20000
AFIX   0
C5    1    0.027223    0.640211    0.373326    11.00000    0.02442    0.02608 =
         0.02395    0.00453    0.00959    0.00199
AFIX  43
H5    2   -0.092091    0.616089    0.301041    11.00000   -1.20000
AFIX   0
C6    1    0.125417    0.775216    0.488135    11.00000    0.02528    0.02725 =
         0.02496    0.01511    0.01282    0.01633
AFIX  43
H6    2    0.073369    0.843168    0.496380    11.00000   -1.20000
AFIX   0
C7    1    0.574995    0.765369    0.681856    11.00000    0.02537    0.02560 =
         0.02198    0.00972    0.01426    0.01473
C8    1    0.642471    0.677661    0.781339    11.00000    0.02907    0.01863 =
         0.02146    0.00178    0.01892    0.00994
C9    1    0.822783    0.715824    0.860553    11.00000    0.03369    0.02932 =
         0.02400    0.01020    0.01729    0.01989
AFIX  43
H9    2    0.865183    0.650833    0.922750    11.00000   -1.20000
AFIX   0
C10   1    0.939327    0.848318    0.848239    11.00000    0.02070    0.03347 =
         0.02755    0.00256    0.00976    0.01147
AFIX  43
H10   2    1.062906    0.877636    0.904740    11.00000   -1.20000
AFIX   0
C11   1    0.873472    0.939276    0.751443    11.00000    0.01757    0.01974 =
         0.02969    0.00518    0.01036   -0.00109
AFIX  43
H11   2    0.952945    1.031129    0.742718    11.00000   -1.20000
AFIX   0
C12   1    0.693533    0.896282    0.668478    11.00000    0.03175    0.01910 =
         0.01467    0.00491    0.01083    0.00809
AFIX  43
H12   2    0.650681    0.957616    0.601257    11.00000   -1.20000
AFIX   0
C13   1    0.402078    0.958331    0.720656    11.00000    0.01425    0.02899 =
         0.02562    0.00853    0.00955    0.00825
C14   1    0.527316    0.549371    0.823869    11.00000    0.01400    0.02246 =
         0.02280    0.00836    0.00335    0.00781

HKLF 4

REM  pt828 in P-1
REM R1 =  0.0316 for    2207 Fo > 4sig(Fo)  and  0.0504 for all    2687 data
REM    190 parameters refined using      0 restraints

END

WGHT      0.0000      0.0000

REM Highest difference peak  2.095,  deepest hole -1.329,  1-sigma level  0.279
Q1    1   0.5649  0.6678  0.8745  11.00000  0.05    2.10
Q2    1   0.3746  0.2983  0.8224  11.00000  0.05    1.01
Q3    1   0.4822  0.8836  0.9389  11.00000  0.05    0.99
Q4    1   0.3739  0.4804  0.5619  11.00000  0.05    0.86
Q5    1   0.8154  0.8382  0.7434  11.00000  0.05    0.85
Q6    1   0.2333  0.6822  0.3272  11.00000  0.05    0.83
Q7    1   0.3335  0.5979  0.9465  11.00000  0.05    0.82
Q8    1   1.1050  1.1407  0.8795  11.00000  0.05    0.82
Q9    1   0.6873  0.8374  0.7039  11.00000  0.05    0.81
Q10   1   0.6310  0.4570  0.8711  11.00000  0.05    0.80
;
_shelx_res_checksum              31625
loop_
_space_group_symop_operation_xyz
'x, y, z'
'-x, -y, -z'
loop_
_atom_site_label
_atom_site_type_symbol
_atom_site_fract_x
_atom_site_fract_y
_atom_site_fract_z
_atom_site_U_iso_or_equiv
_atom_site_adp_type
_atom_site_occupancy
_atom_site_site_symmetry_order
_atom_site_calc_flag
_atom_site_refinement_flags_posn
_atom_site_refinement_flags_adp
U1 U 0.52224(3) 1.22322(3) 0.95942(2) 0.02171(9) Uani 1 1 d . .
O1 O 0.2961(5) 1.1632(5) 0.8955(4) 0.0220(11) Uani 1 1 d . .
O2 O 0.7496(5) 1.2802(5) 1.0286(4) 0.0218(11) Uani 1 1 d . .
O3 O 0.4169(5) 1.0895(5) 0.6961(4) 0.0265(11) Uani 1 1 d . .
O4 O 0.4694(5) 0.9443(5) 0.8614(4) 0.0235(11) Uani 1 1 d . .
O5 O 0.4194(5) 0.5780(5) 0.8546(4) 0.0234(11) Uani 1 1 d . .
O6 O 0.5449(5) 0.4235(5) 0.8288(4) 0.0258(11) Uani 1 1 d . .
C1 C 0.3010(7) 0.8128(7) 0.5924(6) 0.0186(14) Uani 1 1 d . .
C2 C 0.3809(8) 0.7169(8) 0.5828(6) 0.0216(15) Uani 1 1 d . .
C3 C 0.2793(8) 0.5792(8) 0.4654(6) 0.0277(17) Uani 1 1 d . .
H3 H 0.3323 0.5125 0.4560 0.033 Uiso 1 1 calc R U
C4 C 0.1013(9) 0.5378(8) 0.3618(7) 0.0297(17) Uani 1 1 d . .
H4 H 0.0321 0.4419 0.2851 0.036 Uiso 1 1 calc R U
C5 C 0.0272(8) 0.6402(8) 0.3733(7) 0.0286(18) Uani 1 1 d . .
H5 H -0.0921 0.6161 0.3010 0.034 Uiso 1 1 calc R U
C6 C 0.1254(8) 0.7752(8) 0.4881(6) 0.0236(15) Uani 1 1 d . .
H6 H 0.0734 0.8432 0.4964 0.028 Uiso 1 1 calc R U
C7 C 0.5750(8) 0.7654(8) 0.6819(6) 0.0218(15) Uani 1 1 d . .
C8 C 0.6425(8) 0.6777(7) 0.7813(6) 0.0205(15) Uani 1 1 d . .
C9 C 0.8228(8) 0.7158(8) 0.8606(6) 0.0254(16) Uani 1 1 d . .
H9 H 0.8652 0.6508 0.9227 0.030 Uiso 1 1 calc R U
C10 C 0.9393(8) 0.8483(8) 0.8482(7) 0.0282(17) Uani 1 1 d . .
H10 H 1.0629 0.8776 0.9047 0.034 Uiso 1 1 calc R U
C11 C 0.8735(8) 0.9393(8) 0.7514(6) 0.0258(17) Uani 1 1 d . .
H11 H 0.9529 1.0311 0.7427 0.031 Uiso 1 1 calc R U
C12 C 0.6935(8) 0.8963(7) 0.6685(6) 0.0229(16) Uani 1 1 d . .
H12 H 0.6507 0.9576 0.6013 0.027 Uiso 1 1 calc R U
C13 C 0.4021(7) 0.9583(8) 0.7207(7) 0.0233(16) Uani 1 1 d . .
C14 C 0.5273(8) 0.5494(8) 0.8239(6) 0.0220(15) Uani 1 1 d . .
loop_
_atom_site_aniso_label
_atom_site_aniso_U_11
_atom_site_aniso_U_22
_atom_site_aniso_U_33
_atom_site_aniso_U_23
_atom_site_aniso_U_13
_atom_site_aniso_U_12
U1 0.02352(14) 0.01795(15) 0.02232(13) 0.00493(10) 0.01060(10) 0.00816(11)
O1 0.015(2) 0.021(3) 0.023(2) 0.0011(19) 0.0090(18) 0.002(2)
O2 0.018(2) 0.021(3) 0.026(2) 0.005(2) 0.0112(18) 0.007(2)
O3 0.040(3) 0.016(3) 0.022(2) 0.005(2) 0.017(2) 0.008(2)
O4 0.030(2) 0.021(3) 0.013(2) 0.0082(19) 0.0068(18) 0.009(2)
O5 0.020(2) 0.025(3) 0.024(2) 0.005(2) 0.0102(19) 0.009(2)
O6 0.034(3) 0.022(3) 0.025(2) 0.008(2) 0.017(2) 0.012(2)
C1 0.018(3) 0.016(4) 0.019(3) 0.007(3) 0.008(3) 0.005(3)
C2 0.020(3) 0.028(4) 0.015(3) 0.009(3) 0.008(3) 0.009(3)
C3 0.027(4) 0.027(4) 0.026(3) 0.002(3) 0.014(3) 0.008(3)
C4 0.040(4) 0.018(4) 0.027(3) 0.001(3) 0.017(3) 0.008(4)
C5 0.024(4) 0.026(5) 0.024(3) 0.005(3) 0.010(3) 0.002(3)
C6 0.025(4) 0.027(4) 0.025(3) 0.015(3) 0.013(3) 0.016(3)
C7 0.025(4) 0.026(4) 0.022(3) 0.010(3) 0.014(3) 0.015(3)
C8 0.029(4) 0.019(4) 0.021(3) 0.002(3) 0.019(3) 0.010(3)
C9 0.034(4) 0.029(4) 0.024(3) 0.010(3) 0.017(3) 0.020(3)
C10 0.021(4) 0.033(5) 0.028(3) 0.003(3) 0.010(3) 0.011(3)
C11 0.018(3) 0.020(4) 0.030(3) 0.005(3) 0.010(3) -0.001(3)
C12 0.032(4) 0.019(4) 0.015(3) 0.005(3) 0.011(3) 0.008(3)
C13 0.014(3) 0.029(4) 0.026(3) 0.009(3) 0.010(3) 0.008(3)
C14 0.014(3) 0.022(4) 0.023(3) 0.008(3) 0.003(3) 0.008(3)
loop_
_atom_type_symbol
_atom_type_description
_atom_type_scat_dispersion_real
_atom_type_scat_dispersion_imag
_atom_type_scat_source
C C 0.0033 0.0016 'International Tables Vol C Tables 4.2.6.8 and 6.1.1.4'
H H 0.0000 0.0000 'International Tables Vol C Tables 4.2.6.8 and 6.1.1.4'
O O 0.0106 0.0060 'International Tables Vol C Tables 4.2.6.8 and 6.1.1.4'
U U -9.6767 9.6646 'International Tables Vol C Tables 4.2.6.8 and 6.1.1.4'
loop_
_geom_angle_atom_site_label_1
_geom_angle_atom_site_label_2
_geom_angle_atom_site_label_3
_geom_angle
_geom_angle_site_symmetry_1
_geom_angle_site_symmetry_3
O1 U1 O2 178.06(17) . .
O1 U1 O5 88.39(17) . 2_677
O2 U1 O5 91.27(16) . 2_677
O1 U1 O6 94.72(17) . 1_565
O2 U1 O6 87.11(17) . 1_565
O5 U1 O6 81.53(15) 2_677 1_565
O1 U1 O4 88.79(16) . 2_677
O2 U1 O4 89.29(16) . 2_677
O5 U1 O4 88.25(14) 2_677 2_677
O6 U1 O4 169.08(14) 1_565 2_677
O1 U1 O3 83.54(16) . .
O2 U1 O3 97.54(15) . .
O5 U1 O3 154.87(16) 2_677 .
O6 U1 O3 75.50(15) 1_565 .
O4 U1 O3 115.22(15) 2_677 .
O1 U1 O4 91.11(17) . .
O2 U1 O4 88.31(17) . .
O5 U1 O4 152.56(13) 2_677 .
O6 U1 O4 125.82(13) 1_565 .
O4 U1 O4 64.31(14) 2_677 .
O3 U1 O4 51.74(13) . .
C13 O3 U1 97.0(4) . .
C13 O4 U1 148.7(4) . 2_677
C13 O4 U1 90.9(4) . .
U1 O4 U1 115.69(14) 2_677 .
C14 O5 U1 129.0(4) . 2_677
C14 O6 U1 140.5(4) . 1_545
C2 C1 C6 121.3(6) . .
C2 C1 C13 120.2(5) . .
C6 C1 C13 118.5(6) . .
C1 C2 C3 118.1(6) . .
C1 C2 C7 121.8(6) . .
C3 C2 C7 119.7(6) . .
C4 C3 C2 121.2(7) . .
C4 C3 H3 119.4 . .
C2 C3 H3 119.4 . .
C5 C4 C3 118.7(6) . .
C5 C4 H4 120.7 . .
C3 C4 H4 120.7 . .
C6 C5 C4 120.5(6) . .
C6 C5 H5 119.7 . .
C4 C5 H5 119.7 . .
C5 C6 C1 120.1(7) . .
C5 C6 H6 120.0 . .
C1 C6 H6 120.0 . .
C12 C7 C8 118.0(6) . .
C12 C7 C2 119.4(6) . .
C8 C7 C2 122.5(5) . .
C9 C8 C7 121.5(6) . .
C9 C8 C14 116.3(6) . .
C7 C8 C14 121.7(5) . .
C10 C9 C8 119.7(6) . .
C10 C9 H9 120.2 . .
C8 C9 H9 120.2 . .
C9 C10 C11 119.2(6) . .
C9 C10 H10 120.4 . .
C11 C10 H10 120.4 . .
C12 C11 C10 120.5(6) . .
C12 C11 H11 119.8 . .
C10 C11 H11 119.8 . .
C11 C12 C7 121.0(6) . .
C11 C12 H12 119.5 . .
C7 C12 H12 119.5 . .
O3 C13 O4 119.2(6) . .
O3 C13 C1 122.1(5) . .
O4 C13 C1 118.6(6) . .
O6 C14 O5 124.1(6) . .
O6 C14 C8 118.4(6) . .
O5 C14 C8 117.5(6) . .
loop_
_geom_bond_atom_site_label_1
_geom_bond_atom_site_label_2
_geom_bond_distance
_geom_bond_site_symmetry_2
U1 O1 1.756(4) .
U1 O2 1.761(4) .
U1 O5 2.307(4) 2_677
U1 O6 2.334(4) 1_565
U1 O4 2.425(4) 2_677
U1 O3 2.453(4) .
U1 O4 2.550(5) .
O3 C13 1.237(8) .
O4 C13 1.296(6) .
O4 U1 2.425(4) 2_677
O5 C14 1.279(7) .
O5 U1 2.307(4) 2_677
O6 C14 1.251(8) .
O6 U1 2.334(4) 1_545
C1 C2 1.383(9) .
C1 C6 1.389(8) .
C1 C13 1.503(8) .
C2 C3 1.399(9) .
C2 C7 1.497(8) .
C3 C4 1.398(8) .
C3 H3 0.9500 .
C4 C5 1.397(9) .
C4 H4 0.9500 .
C5 C6 1.371(9) .
C5 H5 0.9500 .
C6 H6 0.9500 .
C7 C12 1.383(8) .
C7 C8 1.396(8) .
C8 C9 1.393(8) .
C8 C14 1.515(8) .
C9 C10 1.378(8) .
C9 H9 0.9500 .
C10 C11 1.401(9) .
C10 H10 0.9500 .
C11 C12 1.383(8) .
C11 H11 0.9500 .
C12 H12 0.9500 .
