#------------------------------------------------------------------------------
#$Date: 2020-03-05 02:01:06 +0200 (Thu, 05 Mar 2020) $
#$Revision: 248909 $
#$URL: file:///home/coder/svn-repositories/cod/cif/7/70/33/7703374.cif $
#------------------------------------------------------------------------------
#
# This file is available in the Crystallography Open Database (COD),
# http://www.crystallography.net/
#
# All data on this site have been placed in the public domain by the
# contributors.
#
data_7703374
loop_
_publ_author_name
'Smith, Danielle E.'
'Greenacre, Victoria K.'
'Hector, Andrew L.'
'Huang, Ruomeng'
'Levason, William'
'Reid, Gillian'
'Robinson, Fred'
'Thomas, Shibin'
_publ_section_title
;
 Thioether complexes of WSCl<sub>4</sub>, WOCl<sub>4</sub> and
 WSCl<sub>3</sub> and evaluation of thiochloride complexes as CVD
 precursors for WS<sub>2</sub> thin films.
;
_journal_issue                   8
_journal_name_full
'Dalton transactions (Cambridge, England : 2003)'
_journal_page_first              2496
_journal_page_last               2504
_journal_paper_doi               10.1039/d0dt00068j
_journal_volume                  49
_journal_year                    2020
_chemical_formula_moiety         'C5 H12 Cl3 O S2 W'
_chemical_formula_sum            'C5 H12 Cl3 O S2 W'
_chemical_formula_weight         442.47
_space_group_crystal_system      triclinic
_space_group_IT_number           2
_space_group_name_Hall           '-P 1'
_space_group_name_H-M_alt        'P -1'
_atom_sites_solution_hydrogens   geom
_audit_creation_date             2019-08-19
_audit_creation_method
;
Olex2 1.2
(compiled 2018.05.29 svn.r3508 for OlexSys, GUI svn.r5506)
;
_audit_update_record
;
2019-08-28 deposited with the CCDC.	2020-01-28 downloaded from the CCDC.
;
_cell_angle_alpha                78.514(4)
_cell_angle_beta                 81.724(4)
_cell_angle_gamma                72.508(5)
_cell_formula_units_Z            2
_cell_length_a                   6.7576(4)
_cell_length_b                   7.3941(4)
_cell_length_c                   12.4200(5)
_cell_measurement_reflns_used    6925
_cell_measurement_temperature    100.00(10)
_cell_measurement_theta_max      29.9440
_cell_measurement_theta_min      3.6040
_cell_volume                     577.68(5)
_computing_cell_refinement       'CrysAlisPro 1.171.40.47a (Rigaku OD, 2019)'
_computing_data_collection       'CrysAlisPro 1.171.40.47a (Rigaku OD, 2019)'
_computing_data_reduction        'CrysAlisPro 1.171.40.47a (Rigaku OD, 2019)'
_computing_molecular_graphics    'Olex2 (Dolomanov et al., 2009)'
_computing_publication_material  'Olex2 (Dolomanov et al., 2009)'
_computing_structure_refinement  'ShelXL (Sheldrick, 2015)'
_computing_structure_solution    'SHELXT 2018/2 (Sheldrick, 2018)'
_diffrn_ambient_environment      N~2~
_diffrn_ambient_temperature      100.00(10)
_diffrn_detector                 'CCD plate'
_diffrn_measured_fraction_theta_full 1.000
_diffrn_measured_fraction_theta_max 0.911
_diffrn_measurement_details
;
List of Runs (angles in degrees, time in seconds):

  # Type    Start    End  Width  t~exp~   \w     \q     \k     \f   Frames
#--------------------------------------------------------------------------
  1  \w    -19.00  94.00   1.00    1.00    --    5.00  38.00  60.00  113
  2  \w   -101.00  18.00   1.00    1.00    --  -12.10 -60.00 -30.00  119
  3  \w   -101.00  17.00   1.00    1.00    --  -12.10 -57.00  90.00  118
  4  \w    -36.00  77.00   1.00    1.00    --  -12.10  38.00 -90.00  113
  5  \w   -101.00  18.00   1.00    1.00    --  -12.10 -60.00-180.00  119
  6  \w    -42.00  34.00   1.00    1.00    --  -12.10  60.00   0.00   76
  7  \w    -42.00  77.00   1.00    1.00    --  -12.10  60.00  90.00  119
;
_diffrn_measurement_device       'four-circle diffractometer'
_diffrn_measurement_device_type  'XtaLAB AFC12 (RCD3): Kappa single'
_diffrn_measurement_method       '\w scans'
_diffrn_orient_matrix_type
'CrysAlisPro convention (1999,Acta A55,543-557)'
_diffrn_orient_matrix_UB_11      -0.0921703000
_diffrn_orient_matrix_UB_12      0.0651523000
_diffrn_orient_matrix_UB_13      0.0197839000
_diffrn_orient_matrix_UB_21      -0.0453624000
_diffrn_orient_matrix_UB_22      -0.0768566000
_diffrn_orient_matrix_UB_23      0.0190060000
_diffrn_orient_matrix_UB_31      0.0407075000
_diffrn_orient_matrix_UB_32      -0.0157420000
_diffrn_orient_matrix_UB_33      0.0516840000
_diffrn_radiation_monochromator  mirror
_diffrn_radiation_probe          x-ray
_diffrn_radiation_type           MoK\a
_diffrn_radiation_wavelength     0.71073
_diffrn_reflns_av_R_equivalents  0.0692
_diffrn_reflns_av_unetI/netI     0.0624
_diffrn_reflns_Laue_measured_fraction_full 1.000
_diffrn_reflns_Laue_measured_fraction_max 0.911
_diffrn_reflns_limit_h_max       9
_diffrn_reflns_limit_h_min       -9
_diffrn_reflns_limit_k_max       10
_diffrn_reflns_limit_k_min       -10
_diffrn_reflns_limit_l_max       17
_diffrn_reflns_limit_l_min       -17
_diffrn_reflns_number            15495
_diffrn_reflns_point_group_measured_fraction_full 1.000
_diffrn_reflns_point_group_measured_fraction_max 0.911
_diffrn_reflns_theta_full        25.242
_diffrn_reflns_theta_max         31.368
_diffrn_reflns_theta_min         2.929
_diffrn_source                   'Rotating-anode X-ray tube'
_diffrn_source_type              'Rigaku (Mo) X-ray Source'
_exptl_absorpt_coefficient_mu    11.008
_exptl_absorpt_correction_T_max  1.00000
_exptl_absorpt_correction_T_min  0.55711
_exptl_absorpt_correction_type   multi-scan
_exptl_absorpt_process_details
;
CrysAlisPro 1.171.40.47a (Rigaku Oxford Diffraction, 2019)
Empirical absorption correction using spherical harmonics,
 implemented in SCALE3 ABSPACK scaling algorithm.
;
_exptl_crystal_colour            'light green'
_exptl_crystal_colour_modifier   light
_exptl_crystal_colour_primary    green
_exptl_crystal_density_diffrn    2.544
_exptl_crystal_description       plate
_exptl_crystal_F_000             414
_exptl_crystal_preparation       'Slow Evporation from DCM'
_exptl_crystal_recrystallization_method 'Slow Evporation from DCM'
_exptl_crystal_size_max          0.03
_exptl_crystal_size_mid          0.02
_exptl_crystal_size_min          0.02
_refine_diff_density_max         4.933
_refine_diff_density_min         -3.100
_refine_diff_density_rms         0.380
_refine_ls_extinction_method     none
_refine_ls_goodness_of_fit_ref   1.097
_refine_ls_hydrogen_treatment    constr
_refine_ls_matrix_type           full
_refine_ls_number_parameters     111
_refine_ls_number_reflns         3459
_refine_ls_number_restraints     0
_refine_ls_restrained_S_all      1.097
_refine_ls_R_factor_all          0.0558
_refine_ls_R_factor_gt           0.0500
_refine_ls_shift/su_max          0.001
_refine_ls_shift/su_mean         0.000
_refine_ls_structure_factor_coef Fsqd
_refine_ls_weighting_details
'w=1/[\s^2^(Fo^2^)+(0.0684P)^2^+0.0903P] where P=(Fo^2^+2Fc^2^)/3'
_refine_ls_weighting_scheme      calc
_refine_ls_wR_factor_gt          0.1168
_refine_ls_wR_factor_ref         0.1207
_reflns_Friedel_coverage         0.000
_reflns_number_gt                3219
_reflns_number_total             3459
_reflns_threshold_expression     'I > 2\s(I)'
_cod_data_source_file            d0dt00068j2.cif
_cod_data_source_block           wocl3-mes(ch2)3sme
_cod_depositor_comments
'Adding full bibliography for 7703371--7703377.cif.'
_cod_database_code               7703374
_shelx_shelxl_version_number     2018/3
_chemical_oxdiff_formula         WS3Cl3C5H12
_chemical_oxdiff_usercomment     'Yellow Plate'
_shelx_space_group_comment
;
The symmetry employed for this shelxl refinement is uniquely defined
by the following loop, which should always be used as a source of
symmetry information in preference to the above space-group names.
They are only intended as comments.
;
_shelx_estimated_absorpt_t_max   0.810
_shelx_estimated_absorpt_t_min   0.734
_reflns_odcompleteness_completeness 99.97
_reflns_odcompleteness_iscentric 1
_reflns_odcompleteness_theta     28.64
_olex2_refinement_description
;
1. Fixed Uiso
 At 1.2 times of:
  All C(H,H) groups
 At 1.5 times of:
  All C(H,H,H) groups
2.a Secondary CH2 refined with riding coordinates:
 C4(H4A,H4B), C3(H3A,H3B), C2(H2A,H2B)
2.b Idealised Me refined as rotating group:
 C1(H1A,H1B,H1C), C5(H5A,H5B,H5C)
;
_shelx_res_file
;
TITL wscl3-mesch2ch2sme_a.res in P-1
    wocl3-mes(ch2)3sme.res
    created by SHELXL-2018/3 at 15:58:30 on 19-Aug-2019
REM Old TITL WSCl3-MeSCH2CH2SMe in P1 #1
REM SHELXT solution in P-1: R1 0.057, Rweak 0.011, Alpha 0.034
REM <I/s> 0.000 for 0 systematic absences, Orientation as input
REM Formula found by SHELXT: C6 S2 Cl3 W
CELL 0.71073 6.7576 7.3941 12.42 78.514 81.724 72.508
ZERR 2 0.0004 0.0004 0.0005 0.004 0.004 0.005
LATT 1
SFAC C H Cl O S W
UNIT 10 24 6 2 4 2

L.S. 4 0 0
PLAN  20
SIZE 0.03 0.02 0.02
BOND
list 4
fmap 2 53
acta
REM <olex2.extras>
REM <HklSrc "%.\\WOCl3-MeS(CH2)3SMe.hkl">
REM </olex2.extras>

WGHT    0.068400    0.090300
FVAR       0.39369
W1    6    0.779109    0.379168    0.742750    11.00000    0.01507    0.01725 =
         0.01181   -0.00252   -0.00201   -0.00479
CL3   3    0.846557    0.154869    0.621428    11.00000    0.02139    0.02154 =
         0.01939   -0.00742   -0.00215   -0.00507
CL2   3    0.963717    0.150210    0.877738    11.00000    0.02295    0.02091 =
         0.01659    0.00065   -0.00682   -0.00311
S1    5    0.673602    0.581347    0.893576    11.00000    0.01759    0.02004 =
         0.01306   -0.00304   -0.00216   -0.00725
CL1   3    0.448451    0.313136    0.824720    11.00000    0.01830    0.02229 =
         0.01643   -0.00398   -0.00014   -0.01004
S2    5    0.522566    0.592215    0.609841    11.00000    0.01821    0.01784 =
         0.01134   -0.00146   -0.00301   -0.00394
O1    4    0.954968    0.505516    0.684444    11.00000    0.01951    0.02447 =
         0.01163   -0.00327   -0.00508   -0.00249
C4    1    0.343938    0.786506    0.674259    11.00000    0.01585    0.01896 =
         0.01685   -0.00193   -0.00090   -0.00017
AFIX  23
H4A   2    0.275354    0.883816    0.616244    11.00000   -1.20000
H4B   2    0.237320    0.736122    0.720107    11.00000   -1.20000
AFIX   0
C1    1    0.874108    0.700051    0.883292    11.00000    0.03064    0.03439 =
         0.01651   -0.00486   -0.00218   -0.01922
AFIX 137
H1A   2    1.008179    0.609671    0.872661    11.00000   -1.50000
H1B   2    0.865670    0.750214    0.949922    11.00000   -1.50000
H1C   2    0.855360    0.803546    0.821810    11.00000   -1.50000
AFIX   0
C3    1    0.430571    0.885326    0.744286    11.00000    0.02391    0.01606 =
         0.01177    0.00146    0.00018   -0.00286
AFIX  23
H3A   2    0.567517    0.892854    0.711178    11.00000   -1.20000
H3B   2    0.341640    1.015805    0.743267    11.00000   -1.20000
AFIX   0
C5    1    0.669909    0.719939    0.507131    11.00000    0.02331    0.02647 =
         0.01370    0.00386   -0.00224   -0.00969
AFIX 137
H5A   2    0.725608    0.797161    0.541445    11.00000   -1.50000
H5B   2    0.580756    0.801295    0.452555    11.00000   -1.50000
H5C   2    0.782063    0.629582    0.472534    11.00000   -1.50000
AFIX   0
C2    1    0.448640    0.787116    0.863010    11.00000    0.02229    0.01757 =
         0.01659   -0.00382    0.00396   -0.00395
AFIX  23
H2A   2    0.324330    0.745407    0.888382    11.00000   -1.20000
H2B   2    0.448284    0.882540    0.906554    11.00000   -1.20000
AFIX   0
HKLF 4




REM  wscl3-mesch2ch2sme_a.res in P-1
REM wR2 = 0.1207, GooF = S = 1.097, Restrained GooF = 1.097 for all data
REM R1 = 0.0500 for 3219 Fo > 4sig(Fo) and 0.0558 for all 3459 data
REM 111 parameters refined using 0 restraints

END

WGHT      0.0684      0.0903

REM Highest difference peak  4.933,  deepest hole -3.100,  1-sigma level  0.380
Q1    1   0.7294  0.5056  0.7430  11.00000  0.05    4.93
Q2    1   0.8386  0.2559  0.7413  11.00000  0.05    4.87
Q3    1   0.6933  0.3142  0.7758  11.00000  0.05    3.29
Q4    1   0.8640  0.4582  0.7086  11.00000  0.05    3.09
Q5    1   0.5923  0.2678  0.7968  11.00000  0.05    2.00
Q6    1   0.5159  0.3770  0.7792  11.00000  0.05    1.46
Q7    1   0.3421  0.2983  0.8578  11.00000  0.05    1.37
Q8    1   0.6562  0.8525  0.7801  11.00000  0.05    1.36
Q9    1   0.5803  0.6330  0.8986  11.00000  0.05    1.34
Q10   1   0.9940  0.4485  0.6827  11.00000  0.05    1.26
Q11   1   1.1104  0.4600  0.6598  11.00000  0.05    1.21
Q12   1   1.1577  0.2124  0.8065  11.00000  0.05    1.13
Q13   1   0.5016  0.1614  0.8398  11.00000  0.05    1.08
Q14   1   0.6581  0.4830  0.9392  11.00000  0.05    1.05
Q15   1   0.8471  0.2864  0.6068  11.00000  0.05    1.05
Q16   1   0.7326  0.6336  0.7179  11.00000  0.05    1.04
Q17   1   0.5333  0.4577  0.8378  11.00000  0.05    1.04
Q18   1   0.6616  0.1610  0.7539  11.00000  0.05    1.01
Q19   1   0.4351  0.5213  0.6382  11.00000  0.05    0.97
Q20   1   0.5952  0.7347  0.8971  11.00000  0.05    0.95
;
_shelx_res_checksum              91783
_olex2_submission_special_instructions 'No special instructions were received'
_oxdiff_exptl_absorpt_empirical_details
;
Empirical correction (ABSPACK) includes:
- Absorption correction using spherical harmonics
- Frame scaling
;
_oxdiff_exptl_absorpt_empirical_full_max 1.904
_oxdiff_exptl_absorpt_empirical_full_min 0.563
loop_
_space_group_symop_operation_xyz
'x, y, z'
'-x, -y, -z'
loop_
_atom_site_label
_atom_site_type_symbol
_atom_site_fract_x
_atom_site_fract_y
_atom_site_fract_z
_atom_site_U_iso_or_equiv
_atom_site_adp_type
_atom_site_occupancy
_atom_site_site_symmetry_order
_atom_site_calc_flag
_atom_site_refinement_flags_posn
W1 W 0.77911(4) 0.37917(4) 0.74275(2) 0.01455(11) Uani 1 1 d .
Cl3 Cl 0.8466(3) 0.1549(3) 0.62143(14) 0.0204(3) Uani 1 1 d .
Cl2 Cl 0.9637(3) 0.1502(3) 0.87774(14) 0.0209(3) Uani 1 1 d .
S1 S 0.6736(3) 0.5813(3) 0.89358(13) 0.0163(3) Uani 1 1 d .
Cl1 Cl 0.4485(3) 0.3131(2) 0.82472(13) 0.0181(3) Uani 1 1 d .
S2 S 0.5226(3) 0.5922(3) 0.60984(13) 0.0160(3) Uani 1 1 d .
O1 O 0.9550(8) 0.5055(7) 0.6844(4) 0.0189(10) Uani 1 1 d .
C4 C 0.3439(10) 0.7865(10) 0.6743(5) 0.0185(14) Uani 1 1 d .
H4A H 0.275354 0.883816 0.616244 0.022 Uiso 1 1 calc R
H4B H 0.237320 0.736122 0.720107 0.022 Uiso 1 1 calc R
C1 C 0.8741(12) 0.7001(12) 0.8833(6) 0.0248(16) Uani 1 1 d .
H1A H 1.008179 0.609671 0.872661 0.037 Uiso 1 1 calc GR
H1B H 0.865670 0.750214 0.949922 0.037 Uiso 1 1 calc GR
H1C H 0.855360 0.803546 0.821810 0.037 Uiso 1 1 calc GR
C3 C 0.4306(11) 0.8853(10) 0.7443(5) 0.0186(14) Uani 1 1 d .
H3A H 0.567517 0.892854 0.711178 0.022 Uiso 1 1 calc R
H3B H 0.341640 1.015805 0.743267 0.022 Uiso 1 1 calc R
C5 C 0.6699(11) 0.7199(11) 0.5071(6) 0.0215(15) Uani 1 1 d .
H5A H 0.725608 0.797161 0.541445 0.032 Uiso 1 1 calc GR
H5B H 0.580756 0.801295 0.452555 0.032 Uiso 1 1 calc GR
H5C H 0.782063 0.629582 0.472534 0.032 Uiso 1 1 calc GR
C2 C 0.4486(11) 0.7871(10) 0.8630(6) 0.0196(14) Uani 1 1 d .
H2A H 0.324330 0.745407 0.888382 0.024 Uiso 1 1 calc R
H2B H 0.448284 0.882540 0.906554 0.024 Uiso 1 1 calc R
loop_
_atom_site_aniso_label
_atom_site_aniso_U_11
_atom_site_aniso_U_22
_atom_site_aniso_U_33
_atom_site_aniso_U_23
_atom_site_aniso_U_13
_atom_site_aniso_U_12
W1 0.01507(17) 0.01725(17) 0.01181(16) -0.00252(11) -0.00201(10) -0.00479(11)
Cl3 0.0214(8) 0.0215(8) 0.0194(8) -0.0074(6) -0.0022(6) -0.0051(6)
Cl2 0.0229(8) 0.0209(8) 0.0166(8) 0.0006(6) -0.0068(6) -0.0031(7)
S1 0.0176(8) 0.0200(8) 0.0131(7) -0.0030(6) -0.0022(6) -0.0072(6)
Cl1 0.0183(8) 0.0223(8) 0.0164(7) -0.0040(6) -0.0001(6) -0.0100(6)
S2 0.0182(8) 0.0178(8) 0.0113(7) -0.0015(6) -0.0030(6) -0.0039(6)
O1 0.020(2) 0.024(3) 0.012(2) -0.0033(19) -0.0051(18) -0.002(2)
C4 0.016(3) 0.019(3) 0.017(3) -0.002(3) -0.001(3) 0.000(3)
C1 0.031(4) 0.034(4) 0.017(3) -0.005(3) -0.002(3) -0.019(3)
C3 0.024(4) 0.016(3) 0.012(3) 0.001(2) 0.000(3) -0.003(3)
C5 0.023(4) 0.026(4) 0.014(3) 0.004(3) -0.002(3) -0.010(3)
C2 0.022(4) 0.018(3) 0.017(3) -0.004(3) 0.004(3) -0.004(3)
loop_
_atom_type_symbol
_atom_type_description
_atom_type_scat_dispersion_real
_atom_type_scat_dispersion_imag
_atom_type_scat_source
C C 0.0033 0.0016 'International Tables Vol C Tables 4.2.6.8 and 6.1.1.4'
H H 0.0000 0.0000 'International Tables Vol C Tables 4.2.6.8 and 6.1.1.4'
Cl Cl 0.1484 0.1585 'International Tables Vol C Tables 4.2.6.8 and 6.1.1.4'
O O 0.0106 0.0060 'International Tables Vol C Tables 4.2.6.8 and 6.1.1.4'
S S 0.1246 0.1234 'International Tables Vol C Tables 4.2.6.8 and 6.1.1.4'
W W -0.8490 6.8722 'International Tables Vol C Tables 4.2.6.8 and 6.1.1.4'
loop_
_geom_angle_atom_site_label_1
_geom_angle_atom_site_label_2
_geom_angle_atom_site_label_3
_geom_angle
Cl3 W1 S1 170.11(6)
Cl3 W1 Cl1 93.29(6)
Cl3 W1 S2 85.14(6)
Cl2 W1 Cl3 92.19(6)
Cl2 W1 S1 83.39(6)
Cl2 W1 Cl1 91.62(6)
Cl2 W1 S2 168.30(6)
S1 W1 S2 97.42(6)
Cl1 W1 S1 78.05(5)
Cl1 W1 S2 77.19(6)
O1 W1 Cl3 100.32(17)
O1 W1 Cl2 102.31(16)
O1 W1 S1 89.28(17)
O1 W1 Cl1 160.02(17)
O1 W1 S2 89.38(16)
C1 S1 W1 105.3(3)
C1 S1 C2 100.7(4)
C2 S1 W1 112.1(2)
C4 S2 W1 110.2(2)
C5 S2 W1 105.6(2)
C5 S2 C4 101.6(3)
C3 C4 S2 118.4(5)
C2 C3 C4 114.5(6)
C3 C2 S1 117.9(5)
loop_
_geom_bond_atom_site_label_1
_geom_bond_atom_site_label_2
_geom_bond_distance
W1 Cl3 2.3605(17)
W1 Cl2 2.3314(17)
W1 S1 2.5184(17)
W1 Cl1 2.4639(16)
W1 S2 2.5216(17)
W1 O1 1.720(5)
S1 C1 1.801(7)
S1 C2 1.821(7)
S2 C4 1.816(7)
S2 C5 1.797(7)
C4 C3 1.513(10)
C3 C2 1.513(9)
