#------------------------------------------------------------------------------
#$Date: 2020-05-05 16:18:23 +0300 (Tue, 05 May 2020) $
#$Revision: 251616 $
#$URL: file:///home/coder/svn-repositories/cod/cif/7/70/38/7703844.cif $
#------------------------------------------------------------------------------
#
# This file is available in the Crystallography Open Database (COD),
# http://www.crystallography.net/
#
# All data on this site have been placed in the public domain by the
# contributors.
#
data_7703844
loop_
_publ_author_name
'Hiiuk, Volodymyr M.'
'Shova, Sergiu'
'Rotaru, Aurelian'
'Golub, Alexander A.'
'Fritsky, Igor O.'
'Gural'skiy, Il'ya A.'
_publ_section_title
;
 Spin crossover in 2D iron(ii) phthalazine cyanometallic complexes.
;
_journal_issue                   16
_journal_name_full
'Dalton transactions (Cambridge, England : 2003)'
_journal_page_first              5302
_journal_page_last               5311
_journal_paper_doi               10.1039/d0dt00783h
_journal_volume                  49
_journal_year                    2020
_chemical_formula_moiety         'C20 H12 Fe N8 Pd'
_chemical_formula_sum            'C20 H12 Fe N8 Pd'
_chemical_formula_weight         526.63
_space_group_crystal_system      triclinic
_space_group_IT_number           2
_space_group_name_Hall           '-P 1'
_space_group_name_H-M_alt        'P -1'
_atom_sites_solution_hydrogens   geom
_audit_creation_date             2019-11-12
_audit_creation_method
;
Olex2 1.2
(compiled 2018.05.29 svn.r3508 for OlexSys, GUI svn.r5506)
;
_audit_update_record
;
2020-03-02 deposited with the CCDC.	2020-03-24 downloaded from the CCDC.
;
_cell_angle_alpha                71.083(11)
_cell_angle_beta                 74.381(11)
_cell_angle_gamma                89.881(8)
_cell_formula_units_Z            1
_cell_length_a                   7.0962(7)
_cell_length_b                   7.1676(7)
_cell_length_c                   10.1546(16)
_cell_measurement_reflns_used    206
_cell_measurement_temperature    200.05(10)
_cell_measurement_theta_max      26.3910
_cell_measurement_theta_min      4.1720
_cell_volume                     468.49(11)
_computing_cell_refinement       'CrysAlisPro 1.171.40.53 (Rigaku OD, 2019)'
_computing_data_collection       'CrysAlisPro 1.171.40.53 (Rigaku OD, 2019)'
_computing_data_reduction        'CrysAlisPro 1.171.40.53 (Rigaku OD, 2019)'
_computing_molecular_graphics    'Olex2 (Dolomanov et al., 2009)'
_computing_publication_material  'Olex2 (Dolomanov et al., 2009)'
_computing_structure_refinement  'ShelXL (Sheldrick, 2015)'
_computing_structure_solution    'ShelXT (Sheldrick, 2015)'
_diffrn_ambient_environment      N~2~
_diffrn_ambient_temperature      200.05(10)
_diffrn_detector                 'CCD plate'
_diffrn_detector_area_resol_mean 16.1593
_diffrn_detector_type            Eos
_diffrn_measured_fraction_theta_full 0.997
_diffrn_measured_fraction_theta_max 0.826
_diffrn_measurement_details
;
List of Runs (angles in degrees, time in seconds):

  # Type    Start    End  Width  t~exp~   \w     \q     \k     \f   Frames
#--------------------------------------------------------------------------
  1  \w    -83.00 -33.00   1.00   20.00    --  -15.60 -77.00  60.00   50
;
_diffrn_measurement_device       'four-circle diffractometer'
_diffrn_measurement_device_type  'Xcalibur, Eos'
_diffrn_measurement_method       '\w scans'
_diffrn_orient_matrix_type
'CrysAlisPro convention (1999,Acta A55,543-557)'
_diffrn_orient_matrix_UB_11      0.0031594000
_diffrn_orient_matrix_UB_12      0.0230723000
_diffrn_orient_matrix_UB_13      -0.0737011000
_diffrn_orient_matrix_UB_21      0.0837269000
_diffrn_orient_matrix_UB_22      -0.0528648000
_diffrn_orient_matrix_UB_23      -0.0111156000
_diffrn_orient_matrix_UB_31      -0.0614369000
_diffrn_orient_matrix_UB_32      -0.0874044000
_diffrn_orient_matrix_UB_33      0.0177909000
_diffrn_radiation_monochromator  graphite
_diffrn_radiation_probe          x-ray
_diffrn_radiation_type           MoK\a
_diffrn_radiation_wavelength     0.71073
_diffrn_reflns_av_R_equivalents  0.0360
_diffrn_reflns_av_unetI/netI     0.0775
_diffrn_reflns_Laue_measured_fraction_full 0.997
_diffrn_reflns_Laue_measured_fraction_max 0.826
_diffrn_reflns_limit_h_max       9
_diffrn_reflns_limit_h_min       -6
_diffrn_reflns_limit_k_max       9
_diffrn_reflns_limit_k_min       -7
_diffrn_reflns_limit_l_max       13
_diffrn_reflns_limit_l_min       -8
_diffrn_reflns_number            3684
_diffrn_reflns_point_group_measured_fraction_full 0.997
_diffrn_reflns_point_group_measured_fraction_max 0.826
_diffrn_reflns_theta_full        25.242
_diffrn_reflns_theta_max         29.482
_diffrn_reflns_theta_min         2.211
_diffrn_source                   'fine-focus sealed X-ray tube'
_diffrn_source_type              'Enhance (Mo) X-ray Source'
_exptl_absorpt_coefficient_mu    1.760
_exptl_absorpt_correction_type   none
_exptl_crystal_colour            'clear intense red'
_exptl_crystal_density_diffrn    1.867
_exptl_crystal_description       block
_exptl_crystal_F_000             260
_exptl_crystal_size_max          0.1
_exptl_crystal_size_mid          0.1
_exptl_crystal_size_min          0.05
_refine_diff_density_max         3.699
_refine_diff_density_min         -1.124
_refine_diff_density_rms         0.198
_refine_ls_extinction_method     none
_refine_ls_goodness_of_fit_ref   1.022
_refine_ls_hydrogen_treatment    constr
_refine_ls_matrix_type           full
_refine_ls_number_parameters     139
_refine_ls_number_reflns         2138
_refine_ls_number_restraints     0
_refine_ls_restrained_S_all      1.022
_refine_ls_R_factor_all          0.0699
_refine_ls_R_factor_gt           0.0558
_refine_ls_shift/su_max          0.000
_refine_ls_shift/su_mean         0.000
_refine_ls_structure_factor_coef Fsqd
_refine_ls_weighting_details
'w=1/[\s^2^(Fo^2^)+(0.0755P)^2^] where P=(Fo^2^+2Fc^2^)/3'
_refine_ls_weighting_scheme      calc
_refine_ls_wR_factor_gt          0.1287
_refine_ls_wR_factor_ref         0.1362
_reflns_Friedel_coverage         0.000
_reflns_number_gt                1769
_reflns_number_total             2138
_reflns_threshold_expression     'I > 2\s(I)'
_iucr_refine_instructions_details
;
TITL shi_4441_ilgu_a.res in P-1
    shi_4441_ilgu.res
    created by SHELXL-2017/1 at 15:53:30 on 12-Nov-2019
REM Old TITL shI_4441_IlGu in P1
REM SHELXT solution in P-1: R1 0.216, Rweak 0.034, Alpha 0.050
REM <I/s> 0.000 for 0 systematic absences, Orientation as input
REM Formula found by SHELXT: C14 N2 Fe Pd
CELL 0.71073 7.096239 7.16758 10.154566 71.0832 74.3805 89.8806
ZERR 1 0.0007 0.00065 0.001582 0.0108 0.0108 0.0077
LATT 1
SFAC C H Fe N Pd
UNIT 20 12 1 8 1

L.S. 10 0 0
PLAN  5
SIZE 0.05 0.1 0.1
BOND
list 4
fmap 2 53
acta
OMIT -1 2 1
OMIT -4 3 8
REM <olex2.extras>
REM <HklSrc "%.\\shI_4441_IlGu.hkl">
REM </olex2.extras>

WGHT    0.075500
FVAR       7.30551
PD1   5    0.500000    1.000000    1.000000    10.50000    0.00843    0.01140 =
         0.02180   -0.00762   -0.00563    0.00143
FE1   3    0.000000    0.500000    1.000000    10.50000    0.00886    0.00942 =
         0.01780   -0.00605   -0.00535    0.00186
N2    4    0.193980    0.313154    0.974878    11.00000    0.01726    0.01061 =
         0.01563   -0.00367   -0.00273    0.00116
C1    1    0.319138    0.809726    0.975720    11.00000    0.01149    0.01098 =
         0.02724   -0.00890   -0.00994    0.00393
N3    4    0.020635    0.595693    0.789377    11.00000    0.01480    0.01937 =
         0.02146   -0.00848   -0.00222    0.00007
N1    4    0.204700    0.698171    0.973596    11.00000    0.01645    0.01317 =
         0.01695   -0.00365   -0.00780    0.00182
C3    1    0.220163    0.674297    0.557246    11.00000    0.01864    0.03248 =
         0.02444   -0.00681   -0.00069   -0.00346
AFIX  43
H3    2    0.344144    0.678222    0.494819    11.00000   -1.20000
AFIX   0
N4    4    0.204318    0.613122    0.694560    11.00000    0.01285    0.03037 =
         0.02434   -0.00733   -0.00308   -0.00067
C9    1   -0.118026    0.721075    0.589841    11.00000    0.02059    0.02237 =
         0.02118   -0.00949   -0.00745    0.00094
C8    1   -0.280369    0.781346    0.536650    11.00000    0.02427    0.03657 =
         0.02655   -0.01221   -0.01002    0.00090
AFIX  43
H8    2   -0.405207    0.769130    0.600222    11.00000   -1.20000
AFIX   0
C10   1   -0.131725    0.644363    0.738649    11.00000    0.01804    0.02471 =
         0.02374   -0.00955   -0.00705    0.00157
AFIX  43
H10   2   -0.255169    0.626997    0.804980    11.00000   -1.20000
AFIX   0
C6    1   -0.064697    0.871588    0.291885    11.00000    0.04185    0.02781 =
         0.02326   -0.00065   -0.00889   -0.00596
AFIX  43
H6    2   -0.048464    0.921490    0.192405    11.00000   -1.20000
AFIX   0
C4    1    0.066213    0.736135    0.492560    11.00000    0.02286    0.02592 =
         0.02760   -0.01018   -0.00850   -0.00259
C5    1    0.092027    0.811422    0.342880    11.00000    0.02768    0.03626 =
         0.02283   -0.00612   -0.00472   -0.00204
AFIX  43
H5    2    0.215578    0.820379    0.278459    11.00000   -1.20000
AFIX   0
C7    1   -0.250800    0.858231    0.389594    11.00000    0.03065    0.04450 =
         0.03532   -0.01086   -0.01893   -0.00228
AFIX  43
H7    2   -0.356275    0.902545    0.353689    11.00000   -1.20000
AFIX   0
C2    1    0.310318    0.202141    0.977246    11.00000    0.01642    0.01376 =
         0.01948   -0.00978   -0.00465    0.00185
HKLF 4




REM  shi_4441_ilgu_a.res in P-1
REM R1 =  0.0558 for    1769 Fo > 4sig(Fo)  and  0.0699 for all    2138 data
REM    139 parameters refined using      0 restraints

END  
     
WGHT      0.0755      0.0000 

REM Highest difference peak  3.699,  deepest hole -1.124,  1-sigma level  0.198
Q1    1   0.4909  0.8745  0.9992  11.00000  0.05    3.70
Q2    1  -0.0151  0.3792  1.0025  11.00000  0.05    2.37
Q3    1   0.4877  0.9644  1.0898  11.00000  0.05    1.25
Q4    1   0.4691  0.2612  1.0021  11.00000  0.05    0.88
Q5    1   0.5009  0.9001  1.1977  11.00000  0.05    0.85

  REM The information below was added by Olex2.
  REM
  REM R1 = 0.0558 for 1769 Fo > 4sig(Fo) and 0.0699 for all 3688 data
  REM n/a parameters refined using n/a restraints
  REM Highest difference peak 3.70, deepest hole -1.12
  REM Mean Shift 0, Max Shift 0.000.

  REM +++ Tabular Listing of Refinement Information +++
  REM R1_all = 0.0699
  REM R1_gt = 0.0558
  REM wR_ref = 0.1362
  REM GOOF = 1.022
  REM Shift_max = 0.000
  REM Shift_mean = 0
  REM Reflections_all = 3688
  REM Reflections_gt = 1769
  REM Parameters = n/a
  REM Hole = -1.12
  REM Peak = 3.70
  REM Flack = n/a

  
;
_cod_data_source_file            d0dt00783h2.cif
_cod_data_source_block           shi_4441_ilgu
_cod_depositor_comments
'Adding full bibliography for 7703844--7703847.cif.'
_cod_original_cell_volume        468.49(10)
_cod_database_code               7703844
_shelx_shelxl_version_number     2017/1
_chemical_oxdiff_formula         C8N2H8Pd1Fe1
_chemical_oxdiff_usercomment     HV236
_shelx_space_group_comment
;
The symmetry employed for this shelxl refinement is uniquely defined
by the following loop, which should always be used as a source of
symmetry information in preference to the above space-group names.
They are only intended as comments.
;
_shelx_estimated_absorpt_t_max   0.917
_shelx_estimated_absorpt_t_min   0.844
_reflns_odcompleteness_completeness 22.33
_reflns_odcompleteness_iscentric 1
_reflns_odcompleteness_theta     26.32
_olex2_refinement_description
;
1. Fixed Uiso
 At 1.2 times of:
  All C(H) groups
2.a Aromatic/amide H refined with riding coordinates:
 C3(H3), C8(H8), C10(H10), C6(H6), C5(H5), C7(H7)
;
_olex2_submission_special_instructions 'No special instructions were received'
_oxdiff_exptl_absorpt_empirical_details
;
Empirical correction (ABSPACK) includes:
;
_oxdiff_exptl_absorpt_empirical_full_max 1.000
_oxdiff_exptl_absorpt_empirical_full_min 1.000
loop_
_space_group_symop_operation_xyz
'x, y, z'
'-x, -y, -z'
loop_
_atom_site_label
_atom_site_type_symbol
_atom_site_fract_x
_atom_site_fract_y
_atom_site_fract_z
_atom_site_U_iso_or_equiv
_atom_site_adp_type
_atom_site_occupancy
_atom_site_site_symmetry_order
_atom_site_calc_flag
_atom_site_refinement_flags_posn
_atom_site_refinement_flags_adp
_atom_site_refinement_flags_occupancy
_atom_site_disorder_assembly
_atom_site_disorder_group
Pd1 Pd 0.500000 1.000000 1.000000 0.0131(2) Uani 1 2 d S T P . .
Fe1 Fe 0.000000 0.500000 1.000000 0.0113(2) Uani 1 2 d S T P . .
N2 N 0.1940(6) 0.3132(6) 0.9749(5) 0.0151(9) Uani 1 1 d . . . . .
C1 C 0.3191(7) 0.8097(7) 0.9757(6) 0.0150(11) Uani 1 1 d . . . . .
N3 N 0.0206(6) 0.5957(6) 0.7894(5) 0.0187(10) Uani 1 1 d . . . . .
N1 N 0.2047(6) 0.6982(6) 0.9736(5) 0.0153(9) Uani 1 1 d . . . . .
C3 C 0.2202(8) 0.6743(9) 0.5572(7) 0.0270(13) Uani 1 1 d . . . . .
H3 H 0.344144 0.678222 0.494819 0.032 Uiso 1 1 calc R . . . .
N4 N 0.2043(6) 0.6131(7) 0.6946(6) 0.0234(11) Uani 1 1 d . . . . .
C9 C -0.1180(8) 0.7211(8) 0.5898(6) 0.0205(12) Uani 1 1 d . . . . .
C8 C -0.2804(9) 0.7813(9) 0.5367(7) 0.0281(14) Uani 1 1 d . . . . .
H8 H -0.405207 0.769130 0.600222 0.034 Uiso 1 1 calc R . . . .
C10 C -0.1317(8) 0.6444(8) 0.7386(7) 0.0216(12) Uani 1 1 d . . . . .
H10 H -0.255169 0.626997 0.804980 0.026 Uiso 1 1 calc R . . . .
C6 C -0.0647(10) 0.8716(9) 0.2919(7) 0.0330(15) Uani 1 1 d . . . . .
H6 H -0.048464 0.921490 0.192405 0.040 Uiso 1 1 calc R . . . .
C4 C 0.0662(8) 0.7361(9) 0.4926(7) 0.0249(13) Uani 1 1 d . . . . .
C5 C 0.0920(9) 0.8114(9) 0.3429(7) 0.0304(14) Uani 1 1 d . . . . .
H5 H 0.215578 0.820379 0.278459 0.036 Uiso 1 1 calc R . . . .
C7 C -0.2508(10) 0.8582(10) 0.3896(8) 0.0355(16) Uani 1 1 d . . . . .
H7 H -0.356275 0.902545 0.353689 0.043 Uiso 1 1 calc R . . . .
C2 C 0.3103(8) 0.2021(8) 0.9772(6) 0.0156(11) Uani 1 1 d . . . . .
loop_
_atom_site_aniso_label
_atom_site_aniso_U_11
_atom_site_aniso_U_22
_atom_site_aniso_U_33
_atom_site_aniso_U_23
_atom_site_aniso_U_13
_atom_site_aniso_U_12
Pd1 0.0084(3) 0.0114(3) 0.0218(4) -0.0076(2) -0.0056(2) 0.00143(19)
Fe1 0.0089(5) 0.0094(5) 0.0178(6) -0.0060(4) -0.0053(4) 0.0019(4)
N2 0.017(2) 0.011(2) 0.016(2) -0.0037(18) -0.0027(18) 0.0012(16)
C1 0.011(2) 0.011(2) 0.027(3) -0.009(2) -0.010(2) 0.0039(19)
N3 0.015(2) 0.019(2) 0.021(3) -0.008(2) -0.0022(19) 0.0001(17)
N1 0.016(2) 0.013(2) 0.017(2) -0.0037(18) -0.0078(18) 0.0018(16)
C3 0.019(3) 0.032(3) 0.024(3) -0.007(3) -0.001(2) -0.003(2)
N4 0.013(2) 0.030(3) 0.024(3) -0.007(2) -0.0031(19) -0.0007(18)
C9 0.021(3) 0.022(3) 0.021(3) -0.009(2) -0.007(2) 0.001(2)
C8 0.024(3) 0.037(4) 0.027(4) -0.012(3) -0.010(3) 0.001(2)
C10 0.018(3) 0.025(3) 0.024(3) -0.010(2) -0.007(2) 0.002(2)
C6 0.042(4) 0.028(3) 0.023(4) -0.001(3) -0.009(3) -0.006(3)
C4 0.023(3) 0.026(3) 0.028(3) -0.010(3) -0.009(3) -0.003(2)
C5 0.028(3) 0.036(4) 0.023(3) -0.006(3) -0.005(3) -0.002(3)
C7 0.031(4) 0.045(4) 0.035(4) -0.011(3) -0.019(3) -0.002(3)
C2 0.016(3) 0.014(3) 0.019(3) -0.010(2) -0.005(2) 0.0019(19)
loop_
_atom_type_symbol
_atom_type_description
_atom_type_scat_dispersion_real
_atom_type_scat_dispersion_imag
_atom_type_scat_source
C C 0.0033 0.0016 'International Tables Vol C Tables 4.2.6.8 and 6.1.1.4'
H H 0.0000 0.0000 'International Tables Vol C Tables 4.2.6.8 and 6.1.1.4'
Fe Fe 0.3463 0.8444 'International Tables Vol C Tables 4.2.6.8 and 6.1.1.4'
N N 0.0061 0.0033 'International Tables Vol C Tables 4.2.6.8 and 6.1.1.4'
Pd Pd -0.9988 1.0072 'International Tables Vol C Tables 4.2.6.8 and 6.1.1.4'
loop_
_geom_angle_atom_site_label_1
_geom_angle_atom_site_label_2
_geom_angle_atom_site_label_3
_geom_angle
_geom_angle_site_symmetry_1
_geom_angle_site_symmetry_3
_geom_angle_publ_flag
C1 Pd1 C1 180.0 2_677 . ?
C2 Pd1 C1 89.5(2) 2_667 . ?
C2 Pd1 C1 90.5(2) 2_667 2_677 ?
C2 Pd1 C1 89.5(2) 1_565 2_677 ?
C2 Pd1 C1 90.5(2) 1_565 . ?
C2 Pd1 C2 180.0 2_667 1_565 ?
N2 Fe1 N2 180.0 2_567 . ?
N2 Fe1 N3 91.49(19) . . ?
N2 Fe1 N3 88.50(19) 2_567 . ?
N2 Fe1 N3 88.51(19) . 2_567 ?
N2 Fe1 N3 91.50(19) 2_567 2_567 ?
N3 Fe1 N3 180.0 2_567 . ?
N1 Fe1 N2 89.47(18) . 2_567 ?
N1 Fe1 N2 89.47(18) 2_567 . ?
N1 Fe1 N2 90.53(18) . . ?
N1 Fe1 N2 90.53(18) 2_567 2_567 ?
N1 Fe1 N3 88.08(18) 2_567 . ?
N1 Fe1 N3 91.92(18) . . ?
N1 Fe1 N3 91.92(18) 2_567 2_567 ?
N1 Fe1 N3 88.08(18) . 2_567 ?
N1 Fe1 N1 180.0 . 2_567 ?
C2 N2 Fe1 171.1(5) . . ?
N1 C1 Pd1 174.1(5) . . ?
N4 N3 Fe1 117.2(3) . . ?
C10 N3 Fe1 123.0(4) . . ?
C10 N3 N4 119.8(5) . . ?
C1 N1 Fe1 171.8(5) . . ?
N4 C3 C4 126.2(6) . . ?
C3 N4 N3 118.0(5) . . ?
C10 C9 C8 123.3(6) . . ?
C4 C9 C8 119.5(6) . . ?
C4 C9 C10 117.2(5) . . ?
C7 C8 C9 118.8(6) . . ?
N3 C10 C9 123.7(5) . . ?
C5 C6 C7 120.0(6) . . ?
C9 C4 C3 115.1(6) . . ?
C9 C4 C5 120.7(5) . . ?
C5 C4 C3 124.3(6) . . ?
C6 C5 C4 119.6(6) . . ?
C8 C7 C6 121.4(6) . . ?
N2 C2 Pd1 174.9(5) . 1_545 ?
loop_
_geom_bond_atom_site_label_1
_geom_bond_atom_site_label_2
_geom_bond_distance
_geom_bond_site_symmetry_2
_geom_bond_publ_flag
Pd1 C1 1.991(5) 2_677 ?
Pd1 C1 1.991(5) . ?
Pd1 C2 1.977(5) 2_667 ?
Pd1 C2 1.977(5) 1_565 ?
Fe1 N2 1.944(5) 2_567 ?
Fe1 N2 1.944(5) . ?
Fe1 N3 1.987(5) 2_567 ?
Fe1 N3 1.987(5) . ?
Fe1 N1 1.937(4) . ?
Fe1 N1 1.937(4) 2_567 ?
N2 C2 1.145(7) . ?
C1 N1 1.150(7) . ?
N3 N4 1.374(6) . ?
N3 C10 1.318(7) . ?
C3 N4 1.292(8) . ?
C3 C4 1.420(8) . ?
C9 C8 1.410(8) . ?
C9 C10 1.406(8) . ?
C9 C4 1.390(8) . ?
C8 C7 1.370(9) . ?
C6 C5 1.362(9) . ?
C6 C7 1.404(9) . ?
C4 C5 1.398(9) . ?
