#------------------------------------------------------------------------------
#$Date: 2020-09-06 12:32:17 +0300 (Sun, 06 Sep 2020) $
#$Revision: 256061 $
#$URL: file:///home/coder/svn-repositories/cod/cif/7/70/48/7704879.cif $
#------------------------------------------------------------------------------
#
# This file is available in the Crystallography Open Database (COD),
# http://www.crystallography.net/
#
# All data on this site have been placed in the public domain by the
# contributors.
#
data_7704879
loop_
_publ_author_name
'Mahmoudi, Ghodrat'
'Afkhami, Farhad Akbari'
'Kennedy, Alan R.'
'Zubkov, Fedor I.'
'Zangrando, Ennio'
'Kirillov, Alexander M.'
'Molins, Elies'
'Mitoraj, Mariusz P.'
'Safin, Damir A.'
_publ_section_title
;
 Lead(ii) coordination polymers driven by pyridine-hydrazine donors: from
 anion-guided self-assembly to structural features.
;
_journal_issue                   32
_journal_name_full
'Dalton transactions (Cambridge, England : 2003)'
_journal_page_first              11238
_journal_page_last               11248
_journal_paper_doi               10.1039/d0dt01704c
_journal_volume                  49
_journal_year                    2020
_chemical_formula_moiety         'C8 H5 N4 Pb S2'
_chemical_formula_sum            'C8 H5 N4 Pb S2'
_chemical_formula_weight         428.48
_space_group_crystal_system      triclinic
_space_group_IT_number           2
_space_group_name_Hall           '-P 1'
_space_group_name_H-M_alt        'P -1'
_atom_sites_solution_hydrogens   geom
_audit_creation_method           SHELXL-2014/7
_audit_update_record
;
2020-03-25 deposited with the CCDC.	2020-07-17 downloaded from the CCDC.
;
_cell_angle_alpha                75.4600(10)
_cell_angle_beta                 82.1480(10)
_cell_angle_gamma                77.4340(10)
_cell_formula_units_Z            2
_cell_length_a                   6.7965(5)
_cell_length_b                   7.1870(6)
_cell_length_c                   11.8200(9)
_cell_measurement_reflns_used    2274
_cell_measurement_temperature    293(2)
_cell_measurement_theta_max      26.55
_cell_measurement_theta_min      2.01
_cell_volume                     543.43(7)
_computing_cell_refinement       'Bruker SAINT'
_computing_data_collection       'Bruker SMART'
_computing_data_reduction        'Bruker SAINT'
_computing_molecular_graphics    'Bruker SHELXTL'
_computing_publication_material  'Bruker SHELXTL'
_computing_structure_refinement  'SHELXL-2014/7 (Sheldrick, 2014)'
_computing_structure_solution    'SHELXS-97 (Sheldrick, 1990)'
_diffrn_ambient_temperature      293(2)
_diffrn_measured_fraction_theta_full 0.997
_diffrn_measured_fraction_theta_max 0.976
_diffrn_measurement_device_type  'Bruker SMART1000 CCD'
_diffrn_measurement_method       '\f and \w scans'
_diffrn_radiation_monochromator  graphite
_diffrn_radiation_source         'fine-focus sealed tube'
_diffrn_radiation_type           MoK\a
_diffrn_radiation_wavelength     0.71073
_diffrn_reflns_av_R_equivalents  0.0350
_diffrn_reflns_av_unetI/netI     0.0485
_diffrn_reflns_Laue_measured_fraction_full 0.997
_diffrn_reflns_Laue_measured_fraction_max 0.976
_diffrn_reflns_limit_h_max       9
_diffrn_reflns_limit_h_min       -8
_diffrn_reflns_limit_k_max       9
_diffrn_reflns_limit_k_min       -9
_diffrn_reflns_limit_l_max       15
_diffrn_reflns_limit_l_min       -15
_diffrn_reflns_number            5450
_diffrn_reflns_point_group_measured_fraction_full 0.997
_diffrn_reflns_point_group_measured_fraction_max 0.976
_diffrn_reflns_theta_full        25.242
_diffrn_reflns_theta_max         28.359
_diffrn_reflns_theta_min         1.787
_exptl_absorpt_coefficient_mu    15.876
_exptl_absorpt_correction_T_max  0.1152
_exptl_absorpt_correction_T_min  0.0752
_exptl_absorpt_correction_type   multi-scan
_exptl_absorpt_process_details   'SADABS-2008/1, Bruker'
_exptl_crystal_colour            yellow
_exptl_crystal_density_diffrn    2.619
_exptl_crystal_description       block
_exptl_crystal_F_000             390
_exptl_crystal_size_max          0.400
_exptl_crystal_size_mid          0.350
_exptl_crystal_size_min          0.300
_refine_diff_density_max         1.652
_refine_diff_density_min         -2.625
_refine_diff_density_rms         0.261
_refine_ls_extinction_method     none
_refine_ls_goodness_of_fit_ref   1.104
_refine_ls_hydrogen_treatment    constr
_refine_ls_matrix_type           full
_refine_ls_number_parameters     136
_refine_ls_number_reflns         2662
_refine_ls_number_restraints     0
_refine_ls_restrained_S_all      1.104
_refine_ls_R_factor_all          0.0352
_refine_ls_R_factor_gt           0.0318
_refine_ls_shift/su_max          0.001
_refine_ls_shift/su_mean         0.000
_refine_ls_structure_factor_coef Fsqd
_refine_ls_weighting_details
'w=1/[\s^2^(Fo^2^)+(0.0546P)^2^+0.1990P] where P=(Fo^2^+2Fc^2^)/3'
_refine_ls_weighting_scheme      calc
_refine_ls_wR_factor_gt          0.0897
_refine_ls_wR_factor_ref         0.0928
_reflns_Friedel_coverage         0.000
_reflns_number_gt                2442
_reflns_number_total             2662
_reflns_threshold_expression     'I > 2\s(I)'
_cod_data_source_file            d0dt01704c1.cif
_cod_data_source_block           1
_cod_depositor_comments
'Adding full bibliography for 7704876--7704879.cif.'
_cod_database_code               7704879
_shelx_shelxl_version_number     2014/7
_shelx_space_group_comment
;
The symmetry employed for this shelxl refinement is uniquely defined
by the following loop, which should always be used as a source of
symmetry information in preference to the above space-group names.
They are only intended as comments.
;
_shelx_estimated_absorpt_t_min   0.061
_shelx_estimated_absorpt_t_max   0.087
_shelx_res_file
;

    shelx.res created by SHELXL-2014/7


TITL P-1
CELL  0.71073   6.7965   7.1870  11.8200   75.460   82.148   77.434
ZERR     1.00   0.0005   0.0006   0.0009    0.001    0.001    0.001
LATT   1
SFAC  C    H    N    S    PB   O
UNIT  16   10   8    4    2    0
MERG   2
eqiv  $1 2-x,-y,2-z
eqiv  $2 -1+x,y,z
eqiv  $3 3-x,-1-y,2-z
eqiv  $4 x,-1+y,z
eqiv  $5 3-x,-y,2-z

bind  pb1 n2_$1 pb1 s1_$2 pb1 s1_$3 pb1 s2_$4 pb1 s2_$5
FMAP   2
PLAN   20
SIZE     0.300   0.350   0.400
ACTA
BOND   $H
CONF
L.S.   4
WGHT    0.054600    0.199000
FVAR       0.55755
PB1   5    1.198092   -0.233091    0.919384    11.00000    0.02084    0.02200 =
         0.02569   -0.00375   -0.00338   -0.00237
S1    4    1.930986   -0.455050    0.826292    11.00000    0.02551    0.03269 =
         0.03321   -0.00853   -0.00496   -0.00343
S2    4    1.456126    0.350151    0.890523    11.00000    0.02682    0.02898 =
         0.03119   -0.00537    0.00213   -0.00743
N1    3    1.553498   -0.203872    0.806950    11.00000    0.02726    0.04933 =
         0.03769    0.00538   -0.00633   -0.00997
N2    3    1.189310    0.089988    0.983132    11.00000    0.02504    0.03025 =
         0.05959   -0.01567    0.00313   -0.00812
N3    3    1.105580    0.006884    0.723149    11.00000    0.02729    0.03607 =
         0.02327   -0.00089   -0.00618   -0.00330
N4    3    0.601740    0.454236    0.495401    11.00000    0.03188    0.05627 =
         0.02680    0.00400   -0.00322    0.00990
C1    1    1.710827   -0.304998    0.814323    11.00000    0.02188    0.03491 =
         0.01944    0.00139    0.00011   -0.01031
C2    1    1.303311    0.197357    0.943962    11.00000    0.02201    0.02229 =
         0.03462   -0.01150    0.00166    0.00014
C3    1    1.242657    0.024603    0.629734    11.00000    0.02467    0.05375 =
         0.03869   -0.00553   -0.00466    0.00561
AFIX  43
H3    2    1.373239   -0.047490    0.638486    11.00000   -1.20000
AFIX   0
C4    1    1.199882    0.143782    0.521885    11.00000    0.03516    0.06566 =
         0.03033    0.00371   -0.00039    0.00436
AFIX  43
H4    2    1.300704    0.153124    0.460180    11.00000   -1.20000
AFIX   0
C5    1    1.007493    0.248936    0.505781    11.00000    0.03804    0.04490 =
         0.02312    0.00491   -0.00239    0.00028
AFIX  43
H5    2    0.974265    0.327830    0.433006    11.00000   -1.20000
AFIX   0
C6    1    0.863155    0.233717    0.602157    11.00000    0.02184    0.02904 =
         0.02704    0.00128    0.00172   -0.00018
C7    1    0.917190    0.110348    0.708358    11.00000    0.02886    0.02839 =
         0.02430   -0.00460   -0.00199    0.00006
AFIX  43
H7    2    0.819459    0.098805    0.771657    11.00000   -1.20000
AFIX   0
C8    1    0.653104    0.340496    0.590783    11.00000    0.02937    0.04814 =
         0.02444   -0.00309   -0.00751    0.00596
AFIX  43
H8    2    0.557382    0.323632    0.654842    11.00000   -1.20000
AFIX   0
HKLF    4

REM  P-1
REM R1 =  0.0318 for    2442 Fo > 4sig(Fo)  and  0.0352 for all    2662 data
REM    136 parameters refined using      0 restraints

END

WGHT      0.0550      0.1685

REM Highest difference peak  1.652,  deepest hole -2.625,  1-sigma level  0.261
Q1    1   1.0905 -0.1581  0.8957  11.00000  0.05    1.65
Q2    1   1.3116 -0.3073  0.9437  11.00000  0.05    1.64
Q3    1   1.2924 -0.3674  0.9255  11.00000  0.05    1.50
Q4    1   1.0980 -0.1064  0.9201  11.00000  0.05    1.27
Q5    1   1.3103 -0.1831  0.8455  11.00000  0.05    1.26
Q6    1   1.0853 -0.2715  0.9955  11.00000  0.05    1.07
Q7    1   1.1834 -0.2943  0.8364  11.00000  0.05    0.89
Q8    1   1.1805 -0.0275  0.8637  11.00000  0.05    0.89
Q9    1   0.9362  0.2700  0.5596  11.00000  0.05    0.80
Q10   1   1.0879  0.0167  0.9247  11.00000  0.05    0.79
Q11   1   1.7411 -0.3607  0.9332  11.00000  0.05    0.79
Q12   1   1.3767 -0.4381  0.9835  11.00000  0.05    0.78
Q13   1   1.0713  0.1231  1.0669  11.00000  0.05    0.77
Q14   1   1.3730  0.0672  0.7620  11.00000  0.05    0.75
Q15   1   2.0881 -0.3210  0.7807  11.00000  0.05    0.73
Q16   1   1.2131 -0.4552  0.9746  11.00000  0.05    0.71
Q17   1   1.3179  0.5491  0.8130  11.00000  0.05    0.71
Q18   1   1.0267  0.1466  0.4225  11.00000  0.05    0.71
Q19   1   1.2793 -0.0621  1.0434  11.00000  0.05    0.69
Q20   1   1.7100  0.2575  0.8770  11.00000  0.05    0.69
;
_shelx_res_checksum              26142
loop_
_space_group_symop_operation_xyz
'x, y, z'
'-x, -y, -z'
loop_
_atom_site_label
_atom_site_type_symbol
_atom_site_fract_x
_atom_site_fract_y
_atom_site_fract_z
_atom_site_U_iso_or_equiv
_atom_site_adp_type
_atom_site_occupancy
_atom_site_site_symmetry_order
_atom_site_calc_flag
_atom_site_refinement_flags_posn
_atom_site_refinement_flags_adp
_atom_site_refinement_flags_occupancy
_atom_site_disorder_assembly
_atom_site_disorder_group
Pb1 Pb 1.19809(3) -0.23309(3) 0.91938(2) 0.02329(10) Uani 1 1 d . . . . .
S1 S 1.9310(3) -0.4551(3) 0.82629(17) 0.0304(4) Uani 1 1 d . . . . .
S2 S 1.4561(3) 0.3502(2) 0.89052(16) 0.0294(4) Uani 1 1 d . . . . .
N1 N 1.5535(10) -0.2039(10) 0.8070(6) 0.0401(15) Uani 1 1 d . . . . .
N2 N 1.1893(10) 0.0900(9) 0.9831(7) 0.0375(15) Uani 1 1 d . . . . .
N3 N 1.1056(9) 0.0069(9) 0.7231(5) 0.0300(12) Uani 1 1 d . . . . .
N4 N 0.6017(11) 0.4542(11) 0.4954(6) 0.0436(17) Uani 1 1 d . . . . .
C1 C 1.7108(10) -0.3050(10) 0.8143(6) 0.0262(13) Uani 1 1 d . . . . .
C2 C 1.3033(10) 0.1974(9) 0.9440(6) 0.0265(14) Uani 1 1 d . . . . .
C3 C 1.2427(12) 0.0246(13) 0.6297(8) 0.0418(19) Uani 1 1 d . . . . .
H3 H 1.3732 -0.0475 0.6385 0.050 Uiso 1 1 calc R U . . .
C4 C 1.1999(14) 0.1438(14) 0.5219(8) 0.049(2) Uani 1 1 d . . . . .
H4 H 1.3007 0.1531 0.4602 0.059 Uiso 1 1 calc R U . . .
C5 C 1.0075(13) 0.2489(12) 0.5058(7) 0.0390(17) Uani 1 1 d . . . . .
H5 H 0.9743 0.3278 0.4330 0.047 Uiso 1 1 calc R U . . .
C6 C 0.8632(11) 0.2337(10) 0.6022(6) 0.0285(14) Uani 1 1 d . . . . .
C7 C 0.9172(11) 0.1103(9) 0.7084(6) 0.0283(14) Uani 1 1 d . . . . .
H7 H 0.8195 0.0988 0.7717 0.034 Uiso 1 1 calc R U . . .
C8 C 0.6531(12) 0.3405(12) 0.5908(7) 0.0365(17) Uani 1 1 d . . . . .
H8 H 0.5574 0.3236 0.6548 0.044 Uiso 1 1 calc R U . . .
loop_
_atom_site_aniso_label
_atom_site_aniso_U_11
_atom_site_aniso_U_22
_atom_site_aniso_U_33
_atom_site_aniso_U_23
_atom_site_aniso_U_13
_atom_site_aniso_U_12
Pb1 0.02084(15) 0.02200(14) 0.02569(16) -0.00375(9) -0.00338(10) -0.00237(9)
S1 0.0255(8) 0.0327(8) 0.0332(9) -0.0085(7) -0.0050(7) -0.0034(6)
S2 0.0268(8) 0.0290(7) 0.0312(9) -0.0054(6) 0.0021(7) -0.0074(6)
N1 0.027(3) 0.049(4) 0.038(4) 0.005(3) -0.006(3) -0.010(3)
N2 0.025(3) 0.030(3) 0.060(4) -0.016(3) 0.003(3) -0.008(2)
N3 0.027(3) 0.036(3) 0.023(3) -0.001(2) -0.006(2) -0.003(2)
N4 0.032(4) 0.056(4) 0.027(3) 0.004(3) -0.003(3) 0.010(3)
C1 0.022(3) 0.035(3) 0.019(3) 0.001(2) 0.000(3) -0.010(3)
C2 0.022(3) 0.022(3) 0.035(4) -0.011(3) 0.002(3) 0.000(2)
C3 0.025(4) 0.054(5) 0.039(4) -0.006(4) -0.005(3) 0.006(3)
C4 0.035(5) 0.066(5) 0.030(4) 0.004(4) 0.000(4) 0.004(4)
C5 0.038(4) 0.045(4) 0.023(4) 0.005(3) -0.002(3) 0.000(3)
C6 0.022(3) 0.029(3) 0.027(3) 0.001(3) 0.002(3) 0.000(2)
C7 0.029(4) 0.028(3) 0.024(3) -0.005(3) -0.002(3) 0.000(3)
C8 0.029(4) 0.048(4) 0.024(4) -0.003(3) -0.008(3) 0.006(3)
loop_
_atom_type_symbol
_atom_type_description
_atom_type_scat_dispersion_real
_atom_type_scat_dispersion_imag
_atom_type_scat_source
C C 0.0033 0.0016 'International Tables Vol C Tables 4.2.6.8 and 6.1.1.4'
H H 0.0000 0.0000 'International Tables Vol C Tables 4.2.6.8 and 6.1.1.4'
N N 0.0061 0.0033 'International Tables Vol C Tables 4.2.6.8 and 6.1.1.4'
S S 0.1246 0.1234 'International Tables Vol C Tables 4.2.6.8 and 6.1.1.4'
Pb Pb -3.3944 10.1111 'International Tables Vol C Tables 4.2.6.8 and 6.1.1.4'
O O 0.0106 0.0060 'International Tables Vol C Tables 4.2.6.8 and 6.1.1.4'
loop_
_geom_angle_atom_site_label_1
_geom_angle_atom_site_label_2
_geom_angle_atom_site_label_3
_geom_angle
_geom_angle_site_symmetry_1
_geom_angle_site_symmetry_3
_geom_angle_publ_flag
N3 Pb1 N2 82.4(2) . . ?
N3 Pb1 N1 77.6(2) . . ?
N2 Pb1 N1 89.3(2) . . ?
N3 Pb1 N2 87.9(2) . 2_757 ?
N2 Pb1 N2 68.7(2) . 2_757 ?
N1 Pb1 N2 155.2(2) . 2_757 ?
N3 Pb1 S1 78.54(14) . 1_455 ?
N2 Pb1 S1 142.51(15) . 1_455 ?
N1 Pb1 S1 117.24(17) . 1_455 ?
N2 Pb1 S1 78.54(14) 2_757 1_455 ?
N3 Pb1 S2 113.85(14) . 1_545 ?
N2 Pb1 S2 146.95(15) . 1_545 ?
N1 Pb1 S2 68.13(16) . 1_545 ?
N2 Pb1 S2 136.65(13) 2_757 1_545 ?
S1 Pb1 S2 70.51(5) 1_455 1_545 ?
N3 Pb1 S2 140.88(14) . 2_857 ?
N2 Pb1 S2 75.36(16) . 2_857 ?
N1 Pb1 S2 70.45(16) . 2_857 ?
N2 Pb1 S2 112.52(16) 2_757 2_857 ?
S1 Pb1 S2 136.34(4) 1_455 2_857 ?
S2 Pb1 S2 74.44(5) 1_545 2_857 ?
N3 Pb1 S1 150.95(14) . 2_847 ?
N2 Pb1 S1 103.64(17) . 2_847 ?
N1 Pb1 S1 130.17(15) . 2_847 ?
N2 Pb1 S1 68.77(15) 2_757 2_847 ?
S1 Pb1 S1 79.96(5) 1_455 2_847 ?
S2 Pb1 S1 76.40(4) 1_545 2_847 ?
S2 Pb1 S1 67.02(4) 2_857 2_847 ?
C1 S1 Pb1 104.3(3) . 1_655 ?
C1 N1 Pb1 133.0(5) . . ?
C2 N2 Pb1 124.5(5) . . ?
C7 N3 C3 117.4(6) . . ?
C7 N3 Pb1 121.7(5) . . ?
C3 N3 Pb1 120.8(5) . . ?
C8 N4 N4 111.5(8) . 2_666 ?
N1 C1 S1 178.1(7) . . ?
N2 C2 S2 178.5(6) . . ?
N3 C3 C4 123.4(7) . . ?
N3 C3 H3 118.3 . . ?
C4 C3 H3 118.3 . . ?
C5 C4 C3 119.6(8) . . ?
C5 C4 H4 120.2 . . ?
C3 C4 H4 120.2 . . ?
C4 C5 C6 117.9(7) . . ?
C4 C5 H5 121.1 . . ?
C6 C5 H5 121.1 . . ?
C7 C6 C5 119.3(7) . . ?
C7 C6 C8 119.9(6) . . ?
C5 C6 C8 120.8(7) . . ?
N3 C7 C6 122.4(7) . . ?
N3 C7 H7 118.8 . . ?
C6 C7 H7 118.8 . . ?
N4 C8 C6 120.7(7) . . ?
N4 C8 H8 119.6 . . ?
C6 C8 H8 119.6 . . ?
loop_
_geom_bond_atom_site_label_1
_geom_bond_atom_site_label_2
_geom_bond_distance
_geom_bond_site_symmetry_2
_geom_bond_publ_flag
Pb1 N3 2.582(6) . ?
Pb1 N2 2.602(6) . ?
Pb1 N1 2.617(7) . ?
Pb1 N2 2.812(6) 2_757 ?
Pb1 S1 3.1206(19) 1_455 ?
Pb1 S2 3.1980(17) 1_545 ?
Pb1 S2 3.3034(19) 2_857 ?
Pb1 S1 3.403(2) 2_847 ?
S1 C1 1.643(7) . ?
S1 Pb1 3.1206(18) 1_655 ?
S2 C2 1.629(7) . ?
N1 C1 1.155(10) . ?
N2 C2 1.180(9) . ?
N3 C7 1.343(9) . ?
N3 C3 1.343(11) . ?
N4 C8 1.258(10) . ?
N4 N4 1.399(14) 2_666 ?
C3 C4 1.374(12) . ?
C3 H3 0.9300 . ?
C4 C5 1.372(12) . ?
C4 H4 0.9300 . ?
C5 C6 1.397(10) . ?
C5 H5 0.9300 . ?
C6 C7 1.386(9) . ?
C6 C8 1.473(10) . ?
C7 H7 0.9300 . ?
C8 H8 0.9300 . ?
loop_
_geom_torsion_atom_site_label_1
_geom_torsion_atom_site_label_2
_geom_torsion_atom_site_label_3
_geom_torsion_atom_site_label_4
_geom_torsion
_geom_torsion_site_symmetry_1
_geom_torsion_site_symmetry_2
_geom_torsion_site_symmetry_3
_geom_torsion_site_symmetry_4
_geom_torsion_publ_flag
C7 N3 C3 C4 0.8(13) . . . . ?
Pb1 N3 C3 C4 177.3(7) . . . . ?
N3 C3 C4 C5 -1.3(15) . . . . ?
C3 C4 C5 C6 1.7(14) . . . . ?
C4 C5 C6 C7 -1.8(12) . . . . ?
C4 C5 C6 C8 -179.2(8) . . . . ?
C3 N3 C7 C6 -0.9(11) . . . . ?
Pb1 N3 C7 C6 -177.3(5) . . . . ?
C5 C6 C7 N3 1.4(11) . . . . ?
C8 C6 C7 N3 178.8(7) . . . . ?
N4 N4 C8 C6 -177.9(9) 2_666 . . . ?
C7 C6 C8 N4 179.4(8) . . . . ?
C5 C6 C8 N4 -3.2(12) . . . . ?
