#------------------------------------------------------------------------------
#$Date: 2020-06-05 13:52:46 +0300 (Fri, 05 Jun 2020) $
#$Revision: 252804 $
#$URL: file:///home/coder/svn-repositories/cod/cif/7/70/40/7704085.cif $
#------------------------------------------------------------------------------
#
# This file is available in the Crystallography Open Database (COD),
# http://www.crystallography.net/
#
# All data on this site have been placed in the public domain by the
# contributors.
#
data_7704085
loop_
_publ_author_name
'Zhang, Yi'
'Fadaei Tirani, Farzaneh'
'Pattison, Philip'
'Schenk-Jo\&s, Kurt'
'Xiao, Zewen'
'Nazeeruddin, Mohammad Khaja'
'Gao, Peng'
_publ_section_title
;
 Zero-dimensional hybrid iodobismuthate derivatives: from structure study
 to photovoltaic application.
;
_journal_issue                   18
_journal_name_full
'Dalton transactions (Cambridge, England : 2003)'
_journal_page_first              5815
_journal_page_last               5822
_journal_paper_doi               10.1039/d0dt00015a
_journal_volume                  49
_journal_year                    2020
_chemical_formula_moiety         'Bi2 I9, 3 (C1 H6 N1)'
_chemical_formula_sum            'C3 H18 Bi2 I9 N3'
_chemical_formula_weight         1656.26
_space_group_crystal_system      hexagonal
_space_group_IT_number           194
_space_group_name_Hall           '-P 6c 2c'
_space_group_name_H-M_alt        'P 63/m m c'
_atom_sites_solution_hydrogens   geom
_atom_sites_solution_primary     dual
_atom_sites_solution_secondary   difmap
_audit_creation_date             2020-02-27
_audit_creation_method
;
Olex2 1.3-alpha
(compiled 2019.10.11 svn.r3662 for OlexSys, GUI svn.r5962)
;
_audit_update_record
;
2020-04-01 deposited with the CCDC.	2020-04-06 downloaded from the CCDC.
;
_cell_angle_alpha                90
_cell_angle_beta                 90
_cell_angle_gamma                120
_cell_formula_units_Z            2
_cell_length_a                   8.53568(6)
_cell_length_b                   8.53568(6)
_cell_length_c                   21.7298(2)
_cell_measurement_reflns_used    5614
_cell_measurement_temperature    230(2)
_cell_measurement_theta_max      28.7540
_cell_measurement_theta_min      2.6230
_cell_volume                     1371.079(19)
_computing_cell_refinement       'CrysAlisPro 1.171.40.20a (Rigaku OD, 2018)'
_computing_data_collection       'CrysAlisPro 1.171.40.20a (Rigaku OD, 2018)'
_computing_data_reduction        'CrysAlisPro 1.171.40.20a (Rigaku OD, 2018)'
_computing_molecular_graphics    'Olex2 (Dolomanov et al., 2009)'
_computing_publication_material  'Olex2 (Dolomanov et al., 2009)'
_computing_structure_refinement  'ShelXL (Sheldrick, 2015)'
_computing_structure_solution    'ShelXT (Sheldrick, 2015)'
_diffrn_ambient_temperature      230.0
_diffrn_measured_fraction_theta_full 0.994
_diffrn_measured_fraction_theta_max 0.935
_diffrn_measurement_details
;
List of Runs (angles in degrees, time in seconds):

  # Type    Start    End  Width  t~exp~   \w     \q     \k     \f   Frames
#--------------------------------------------------------------------------
  1  \w      0.00 360.00   0.25    2.00    --    0.00   0.00   0.00 1440
;
_diffrn_measurement_device       'abstract diffractometer'
_diffrn_measurement_device_type
'dectris-CrysAlisPro-abstract goniometer imported dectris images'
_diffrn_measurement_method       '\w scans'
_diffrn_orient_matrix_type
'CrysAlisPro convention (1999,Acta A55,543-557)'
_diffrn_orient_matrix_UB_11      -0.0738250000
_diffrn_orient_matrix_UB_12      -0.0842216000
_diffrn_orient_matrix_UB_13      -0.0020810000
_diffrn_orient_matrix_UB_21      -0.0036429000
_diffrn_orient_matrix_UB_22      -0.0064973000
_diffrn_orient_matrix_UB_23      0.0312234000
_diffrn_orient_matrix_UB_31      -0.0548708000
_diffrn_orient_matrix_UB_32      0.0365690000
_diffrn_orient_matrix_UB_33      0.0007517000
_diffrn_radiation_type           synchrotron
_diffrn_radiation_wavelength     0.6804
_diffrn_reflns_av_R_equivalents  0.0288
_diffrn_reflns_av_unetI/netI     0.0104
_diffrn_reflns_Laue_measured_fraction_full 0.994
_diffrn_reflns_Laue_measured_fraction_max 0.935
_diffrn_reflns_number            771
_diffrn_reflns_point_group_measured_fraction_full 0.994
_diffrn_reflns_point_group_measured_fraction_max 0.935
_diffrn_reflns_theta_full        24.094
_diffrn_reflns_theta_max         28.764
_diffrn_reflns_theta_min         1.794
_diffrn_source                   synchrotron
_exptl_absorpt_coefficient_mu    20.534
_exptl_absorpt_correction_T_max  1.00000
_exptl_absorpt_correction_T_min  0.36295
_exptl_absorpt_correction_type   multi-scan
_exptl_absorpt_process_details
;
CrysAlisPro 1.171.40.20a (Rigaku Oxford Diffraction, 2018).
 Empirical absorption correction using spherical harmonics
 as implemented in SCALE3 ABSPACK scaling algorithm.
;
_exptl_crystal_colour            orange
_exptl_crystal_density_diffrn    4.012
_exptl_crystal_description       plate
_exptl_crystal_F_000             1400
_exptl_crystal_size_max          0.12
_exptl_crystal_size_mid          0.1
_exptl_crystal_size_min          0.025
_refine_diff_density_max         0.561
_refine_diff_density_min         -0.672
_refine_diff_density_rms         0.128
_refine_ls_extinction_method     none
_refine_ls_goodness_of_fit_ref   1.085
_refine_ls_hydrogen_treatment    constr
_refine_ls_matrix_type           full
_refine_ls_number_parameters     54
_refine_ls_number_reflns         771
_refine_ls_number_restraints     14
_refine_ls_restrained_S_all      1.079
_refine_ls_R_factor_all          0.0204
_refine_ls_R_factor_gt           0.0187
_refine_ls_shift/su_max          0.001
_refine_ls_shift/su_mean         0.000
_refine_ls_structure_factor_coef Fsqd
_refine_ls_weighting_details
'w=1/[\s^2^(Fo^2^)+(0.0238P)^2^+2.6969P] where P=(Fo^2^+2Fc^2^)/3'
_refine_ls_weighting_scheme      calc
_refine_ls_wR_factor_gt          0.0481
_refine_ls_wR_factor_ref         0.0488
_reflns_Friedel_coverage         0.000
_reflns_number_gt                720
_reflns_number_total             771
_reflns_threshold_expression     'I > 2\s(I)'
_cod_data_source_file            d0dt00015a2.cif
_cod_data_source_block           Compound_2H_230K
_cod_depositor_comments
'Adding full bibliography for 7704084--7704087.cif.'
_cod_original_cell_volume        1371.08(2)
_cod_database_code               7704085
_shelx_shelxl_version_number     2018/3
_audit_contact_author            'Farzaneh Fadaei Tirani'
_shelx_space_group_comment
;
The symmetry employed for this shelxl refinement is uniquely defined
by the following loop, which should always be used as a source of
symmetry information in preference to the above space-group names.
They are only intended as comments.
;
_reflns_odcompleteness_completeness 98.93
_reflns_odcompleteness_iscentric 1
_reflns_odcompleteness_theta     25.17
_olex2_refinement_description
;
1. Fixed Uiso
 At 1.2 times of:
  All N(H,H,H) groups
 At 1.5 times of:
  All C(H,H,H) groups
2. Restrained distances
 N1-C1 = N2-C2
 1.48 with sigma of 0.01
3. Uiso/Uaniso restraints and constraints
N1 \\sim C1 \\sim N2 \\sim C2: within 2A with sigma of 0.01 and sigma for
terminal atoms of 0.02 within 2A
4. Others
 Fixed Sof: N1(0.16667) H1A(0.16667) H1B(0.16667) H1C(0.16667) C1(0.16667)
 H1D(0.16667) H1E(0.16667) H1F(0.16667) N2(0.08333) H2A(0.08333) H2B(0.08333)
 H2C(0.08333) C2(0.08333) H2D(0.08333) H2E(0.08333) H2F(0.08333)
5.a Idealised Me refined as rotating group:
 N1(H1A,H1B,H1C), C1(H1D,H1E,H1F), N2(H2A,H2B,H2C), C2(H2D,H2E,H2F)
;
_shelx_res_file
;
TITL Compound_2H_230K_1915352.res in P6(3)/mmc
    ff.res
    created by SHELXL-2018/3 at 18:35:09 on 27-Feb-2020
CELL 0.6804 8.535681 8.535681 21.729845 90 90 120
ZERR 2 0.000056 0.000056 0.000206 0 0 0
LATT 1
SYMM -Y,+X-Y,+Z
SYMM +Y-X,-X,+Z
SYMM -X,-Y,0.5+Z
SYMM +Y,-X+Y,0.5+Z
SYMM -Y+X,+X,0.5+Z
SYMM +Y,+X,-Z
SYMM -Y+X,-Y,-Z
SYMM -X,-X+Y,-Z
SYMM -Y,-X,0.5-Z
SYMM +Y-X,+Y,0.5-Z
SYMM +X,+X-Y,0.5-Z
SFAC C H Bi I N
DISP Bi -3.0839 9.9321 39193.2903
DISP C 0.0031 0.0015 10.5749
DISP H -0 0 0.6223
DISP I -0.483 1.6974 6920.3567
DISP N 0.0058 0.0029 17.8063
UNIT 6 36 4 18 6
SIMU 0.01 0.02 2 N1 > C2
DFIX 1.48 0.01 N1 C1 N2 C2

L.S. 20
PLAN  10
TEMP -43.15
CONF
MORE -1
BOND $H
fmap 2
acta
REM <olex2.extras>
REM <HklSrc "%.\\ff.hkl">
REM </olex2.extras>

WGHT    0.023800    2.696900
FVAR       0.41464
BI1   3    0.666667    0.333333    0.344650    10.16667    0.03908    0.03908 =
         0.03520    0.00000    0.00000    0.01954
I1    4    0.834098    0.668195    0.418991    10.50000    0.08220    0.05809 =
         0.06759   -0.02683   -0.01341    0.02904
I2    4    0.498340    0.501660    0.250000    10.25000    0.06694    0.06694 =
         0.05359    0.00000    0.00000    0.05189
PART -1
N1    5    0.325084    0.607252    0.401226    10.16667    0.04398    0.13622 =
         0.12053   -0.04308   -0.02639    0.03885
AFIX 137
H1A   2    0.377944    0.654335    0.364809    10.16667   -1.20000
H1B   2    0.206171    0.569613    0.398863    10.16667   -1.20000
H1C   2    0.340105    0.512846    0.410533    10.16667   -1.20000
AFIX   0
C1    1    0.408332    0.745846    0.449308    10.16667    0.05336    0.12505 =
         0.08779   -0.03827   -0.00648    0.05324
AFIX 137
H1D   2    0.410841    0.855530    0.435972    10.16667   -1.50000
H1E   2    0.530883    0.771279    0.456816    10.16667   -1.50000
H1F   2    0.338273    0.702300    0.486904    10.16667   -1.50000
AFIX   0

N2    5    0.929365    0.984050    0.286098    10.08333    0.09701    0.06797 =
         0.03605   -0.00173   -0.00515    0.00969
AFIX 137
H2A   2    0.818580    0.888113    0.279659    10.08333   -1.20000
H2B   2    0.922775    1.086036    0.285734    10.08333   -1.20000
H2C   2    0.971329    0.972624    0.322834    10.08333   -1.20000
AFIX   0
C2    1    1.053388    0.992891    0.236867    10.08333    0.09620    0.07039 =
         0.03226   -0.00219   -0.00364    0.01039
AFIX 137
H2D   2    1.035745    1.048066    0.200471    10.08333   -1.50000
H2E   2    1.028185    0.871605    0.227043    10.08333   -1.50000
H2F   2    1.177510    1.064797    0.250824    10.08333   -1.50000
AFIX   0
HKLF 4




REM  Compound_2H_230K_1915352.res in P6(3)/mmc
REM wR2 = 0.0488, GooF = S = 1.085, Restrained GooF = 1.079 for all data
REM R1 = 0.0187 for 720 Fo > 4sig(Fo) and 0.0204 for all 771 data
REM 54 parameters refined using 14 restraints

END

WGHT      0.0238      2.6968

REM Highest difference peak  0.561,  deepest hole -0.672,  1-sigma level  0.128
Q1    1   0.3546  0.5490  0.2500  10.50000  0.05    0.56
Q2    1   0.5547  0.4453  0.2500  10.25000  0.05    0.54
Q3    1   0.5165  0.2583  0.3450  10.50000  0.05    0.51
Q4    1   0.2550  0.5100  0.2500  10.25000  0.05    0.51
Q5    1   0.7944  0.5887  0.4282  10.50000  0.05    0.48
Q6    1   0.6136  0.5415  0.2500  10.50000  0.05    0.47
Q7    1   0.3333  0.6667  0.2682  10.16667  0.05    0.45
Q8    1   0.8166  0.5595  0.4258  11.00000  0.05    0.44
Q9    1   0.7978  0.3989  0.3456  10.50000  0.05    0.42
Q10   1   0.7591  0.5183  0.2500  10.25000  0.05    0.42
;
_shelx_res_checksum              96664
_olex2_submission_special_instructions 'No special instructions were received'
loop_
_space_group_symop_operation_xyz
'x, y, z'
'-y, x-y, z'
'-x+y, -x, z'
'-x, -y, z+1/2'
'y, -x+y, z+1/2'
'x-y, x, z+1/2'
'y, x, -z'
'x-y, -y, -z'
'-x, -x+y, -z'
'-y, -x, -z+1/2'
'-x+y, y, -z+1/2'
'x, x-y, -z+1/2'
'-x, -y, -z'
'y, -x+y, -z'
'x-y, x, -z'
'x, y, -z-1/2'
'-y, x-y, -z-1/2'
'-x+y, -x, -z-1/2'
'-y, -x, z'
'-x+y, y, z'
'x, x-y, z'
'y, x, z-1/2'
'x-y, -y, z-1/2'
'-x, -x+y, z-1/2'
loop_
_atom_site_label
_atom_site_type_symbol
_atom_site_fract_x
_atom_site_fract_y
_atom_site_fract_z
_atom_site_U_iso_or_equiv
_atom_site_adp_type
_atom_site_occupancy
_atom_site_site_symmetry_order
_atom_site_calc_flag
_atom_site_refinement_flags_posn
_atom_site_refinement_flags_adp
_atom_site_refinement_flags_occupancy
_atom_site_disorder_assembly
_atom_site_disorder_group
Bi1 Bi 0.666667 0.333333 0.34465(2) 0.03779(10) Uani 1 6 d S T P . .
I1 I 0.83410(3) 0.66820(6) 0.41899(2) 0.07197(16) Uani 1 2 d S T P . .
I2 I 0.49834(3) 0.50166(3) 0.250000 0.05430(15) Uani 1 4 d S T P . .
N1 N 0.325(6) 0.607(4) 0.4012(10) 0.103(15) Uani 0.1667 1 d D U P A -1
H1A H 0.377944 0.654335 0.364809 0.124 Uiso 0.1667 1 calc R U P A -1
H1B H 0.206171 0.569613 0.398863 0.124 Uiso 0.1667 1 calc R U P A -1
H1C H 0.340105 0.512846 0.410533 0.124 Uiso 0.1667 1 calc R U P A -1
C1 C 0.408(3) 0.746(4) 0.4493(11) 0.085(11) Uani 0.1667 1 d D U P A -1
H1D H 0.410841 0.855530 0.435972 0.127 Uiso 0.1667 1 calc R U P A -1
H1E H 0.530883 0.771279 0.456816 0.127 Uiso 0.1667 1 calc R U P A -1
H1F H 0.338273 0.702300 0.486904 0.127 Uiso 0.1667 1 calc R U P A -1
N2 N 0.929(10) 0.984(13) 0.2861(15) 0.08(2) Uani 0.0833 1 d D U P B -1
H2A H 0.818580 0.888113 0.279659 0.097 Uiso 0.0833 1 calc R U P B -1
H2B H 0.922775 1.086036 0.285734 0.097 Uiso 0.0833 1 calc R U P B -1
H2C H 0.971329 0.972624 0.322834 0.097 Uiso 0.0833 1 calc R U P B -1
C2 C 1.053(14) 0.993(13) 0.2369(13) 0.08(2) Uani 0.0833 1 d D U P B -1
H2D H 1.035745 1.048066 0.200471 0.120 Uiso 0.0833 1 calc R U P B -1
H2E H 1.028185 0.871605 0.227043 0.120 Uiso 0.0833 1 calc R U P B -1
H2F H 1.177510 1.064797 0.250824 0.120 Uiso 0.0833 1 calc R U P B -1
loop_
_atom_site_aniso_label
_atom_site_aniso_U_11
_atom_site_aniso_U_22
_atom_site_aniso_U_33
_atom_site_aniso_U_23
_atom_site_aniso_U_13
_atom_site_aniso_U_12
Bi1 0.03908(12) 0.03908(12) 0.03520(15) 0.000 0.000 0.01954(6)
I1 0.0822(3) 0.0581(3) 0.0676(3) -0.02683(19) -0.01341(10) 0.02904(13)
I2 0.0669(3) 0.0669(3) 0.0536(3) 0.000 0.000 0.0519(3)
N1 0.044(15) 0.14(3) 0.121(14) -0.043(14) -0.026(13) 0.039(18)
C1 0.053(13) 0.13(3) 0.088(13) -0.038(14) -0.006(10) 0.053(13)
N2 0.10(3) 0.07(2) 0.04(3) -0.002(18) -0.01(3) 0.01(4)
C2 0.10(3) 0.07(3) 0.03(4) -0.002(16) 0.00(3) 0.01(4)
loop_
_atom_type_symbol
_atom_type_description
_atom_type_scat_dispersion_real
_atom_type_scat_dispersion_imag
_atom_type_scat_source
C C 0.0031 0.0015 'International Tables Vol C Tables 4.2.6.8 and 6.1.1.4'
H H 0.0000 0.0000 'International Tables Vol C Tables 4.2.6.8 and 6.1.1.4'
Bi Bi -3.0839 9.9321 'International Tables Vol C Tables 4.2.6.8 and 6.1.1.4'
I I -0.4830 1.6974 'International Tables Vol C Tables 4.2.6.8 and 6.1.1.4'
N N 0.0058 0.0029 'International Tables Vol C Tables 4.2.6.8 and 6.1.1.4'
loop_
_geom_angle_atom_site_label_1
_geom_angle_atom_site_label_2
_geom_angle_atom_site_label_3
_geom_angle
_geom_angle_site_symmetry_1
_geom_angle_site_symmetry_3
_geom_angle_publ_flag
I1 Bi1 I1 92.979(15) 3_665 . ?
I1 Bi1 I1 92.979(15) 3_665 2_655 ?
I1 Bi1 I1 92.979(15) . 2_655 ?
I1 Bi1 I2 91.456(8) 3_665 3_665 ?
I1 Bi1 I2 91.456(8) 2_655 . ?
I1 Bi1 I2 173.556(14) 2_655 3_665 ?
I1 Bi1 I2 91.456(8) . 3_665 ?
I1 Bi1 I2 91.457(8) 3_665 2_655 ?
I1 Bi1 I2 91.456(8) . . ?
I1 Bi1 I2 173.556(14) . 2_655 ?
I1 Bi1 I2 91.456(8) 2_655 2_655 ?
I1 Bi1 I2 173.556(14) 3_665 . ?
I2 Bi1 I2 83.756(10) 2_655 . ?
I2 Bi1 I2 83.757(10) 2_655 3_665 ?
I2 Bi1 I2 83.756(10) 3_665 . ?
Bi1 I2 Bi1 79.145(13) . 16_556 ?
H1A N1 H1B 109.5 . . ?
H1A N1 H1C 109.5 . . ?
H1B N1 H1C 109.5 . . ?
C1 N1 H1A 109.5 . . ?
C1 N1 H1B 109.5 . . ?
C1 N1 H1C 109.5 . . ?
N1 C1 H1D 109.5 . . ?
N1 C1 H1E 109.5 . . ?
N1 C1 H1F 109.5 . . ?
H1D C1 H1E 109.5 . . ?
H1D C1 H1F 109.5 . . ?
H1E C1 H1F 109.5 . . ?
H2A N2 H2B 109.5 . . ?
H2A N2 H2C 109.5 . . ?
H2B N2 H2C 109.5 . . ?
C2 N2 H2A 109.5 . . ?
C2 N2 H2B 109.5 . . ?
C2 N2 H2C 109.5 . . ?
N2 C2 H2D 109.5 . . ?
N2 C2 H2E 109.5 . . ?
N2 C2 H2F 109.5 . . ?
H2D C2 H2E 109.5 . . ?
H2D C2 H2F 109.5 . . ?
H2E C2 H2F 109.5 . . ?
loop_
_geom_bond_atom_site_label_1
_geom_bond_atom_site_label_2
_geom_bond_distance
_geom_bond_site_symmetry_2
_geom_bond_publ_flag
Bi1 I1 2.9558(4) 3_665 ?
Bi1 I1 2.9558(4) . ?
Bi1 I1 2.9558(4) 2_655 ?
Bi1 I2 3.2285(4) 3_665 ?
Bi1 I2 3.2285(4) . ?
Bi1 I2 3.2285(4) 2_655 ?
N1 H1A 0.9000 . ?
N1 H1B 0.9000 . ?
N1 H1C 0.9000 . ?
N1 C1 1.468(10) . ?
C1 H1D 0.9700 . ?
C1 H1E 0.9700 . ?
C1 H1F 0.9700 . ?
N2 H2A 0.9000 . ?
N2 H2B 0.9000 . ?
N2 H2C 0.9000 . ?
N2 C2 1.480(10) . ?
C2 H2D 0.9700 . ?
C2 H2E 0.9700 . ?
C2 H2F 0.9700 . ?
