#------------------------------------------------------------------------------
#$Date: 2020-08-06 17:02:15 +0300 (Thu, 06 Aug 2020) $
#$Revision: 254985 $
#$URL: file:///home/coder/svn-repositories/cod/cif/7/70/46/7704623.cif $
#------------------------------------------------------------------------------
#
# This file is available in the Crystallography Open Database (COD),
# http://www.crystallography.net/
#
# All data on this site have been placed in the public domain by the
# contributors.
#
data_7704623
loop_
_publ_author_name
'Raju, Saravanan'
'Singh, Harkesh B.'
'Butcher, Ray J.'
_publ_section_title
;
 Metallophilic interactions: observations of the shortest
 metallophilicinteractions between closed shell
 (d<sup>10</sup>d<sup>10</sup>, d<sup>10</sup>d<sup>8</sup>,
 d<sup>8</sup>d<sup>8</sup>) metal ions [MM' M = Hg(ii) and Pd(ii) and M'
 = Cu(i), Ag(i), Au(i), and Pd(ii)].
;
_journal_issue                   26
_journal_name_full
'Dalton transactions (Cambridge, England : 2003)'
_journal_page_first              9099
_journal_page_last               9117
_journal_paper_doi               10.1039/d0dt01008a
_journal_volume                  49
_journal_year                    2020
_chemical_formula_moiety         'C36 H24 Cu2 Hg2 I2 N4'
_chemical_formula_sum            'C36 H24 Cu2 Hg2 I2 N4'
_chemical_formula_weight         1294.65
_space_group_crystal_system      triclinic
_space_group_IT_number           2
_space_group_name_Hall           '-P 1'
_space_group_name_H-M_alt        'P -1'
_atom_sites_solution_hydrogens   geom
_audit_creation_method           SHELXL-2018/3
_audit_update_record
;
2019-02-21 deposited with the CCDC.	2020-06-03 downloaded from the CCDC.
;
_cell_angle_alpha                86.084(3)
_cell_angle_beta                 77.097(4)
_cell_angle_gamma                75.575(4)
_cell_formula_units_Z            1
_cell_length_a                   8.6888(4)
_cell_length_b                   9.6300(4)
_cell_length_c                   9.8966(4)
_cell_measurement_reflns_used    13118
_cell_measurement_temperature    100(2)
_cell_measurement_theta_max      31.1980
_cell_measurement_theta_min      2.1120
_cell_volume                     781.65(6)
_computing_cell_refinement       'CrysAlisPro 1.171.38.43 (Rigaku OD, 2015)'
_computing_data_collection       'CrysAlisPro 1.171.38.43 (Rigaku OD, 2015)'
_computing_data_reduction        'CrysAlisPro 1.171.38.43 (Rigaku OD, 2015)'
_computing_molecular_graphics    'SHELXTL (Sheldrick, 2008)'
_computing_publication_material  'SHELXTL (Sheldrick, 2008)'
_computing_structure_refinement  'SHELXL-2018/3 (Sheldrick, 2018)'
_computing_structure_solution    'SHELXT (Sheldrick, 2015)'
_diffrn_ambient_temperature      100(2)
_diffrn_measured_fraction_theta_full 0.996
_diffrn_measured_fraction_theta_max 0.913
_diffrn_measurement_device_type  'Rigaku Saturn724'
_diffrn_measurement_method       '\w scans'
_diffrn_radiation_type           MoK\a
_diffrn_radiation_wavelength     0.71073
_diffrn_reflns_av_R_equivalents  0.1138
_diffrn_reflns_av_unetI/netI     0.0241
_diffrn_reflns_Laue_measured_fraction_full 0.996
_diffrn_reflns_Laue_measured_fraction_max 0.913
_diffrn_reflns_limit_h_max       12
_diffrn_reflns_limit_h_min       -12
_diffrn_reflns_limit_k_max       13
_diffrn_reflns_limit_k_min       -13
_diffrn_reflns_limit_l_max       14
_diffrn_reflns_limit_l_min       -14
_diffrn_reflns_number            15486
_diffrn_reflns_point_group_measured_fraction_full 0.996
_diffrn_reflns_point_group_measured_fraction_max 0.913
_diffrn_reflns_theta_full        25.242
_diffrn_reflns_theta_max         31.523
_diffrn_reflns_theta_min         2.478
_diffrn_source                   'fine-focus sealed X-ray tube'
_exptl_absorpt_coefficient_mu    13.142
_exptl_absorpt_correction_T_max  1.00000
_exptl_absorpt_correction_T_min  0.28702
_exptl_absorpt_correction_type   multi-scan
_exptl_absorpt_process_details
;
The symmetry employed for this shelxl refinement is uniquely defined
by the following loop, which should always be used as a source of
symmetry information in preference to the above space-group names.
They are only intended as comments.
;
_exptl_crystal_colour            'dark brown'
_exptl_crystal_density_diffrn    2.750
_exptl_crystal_description       prism
_exptl_crystal_F_000             592
_exptl_crystal_size_max          0.24
_exptl_crystal_size_mid          0.17
_exptl_crystal_size_min          0.12
_refine_diff_density_max         5.099
_refine_diff_density_min         -5.647
_refine_diff_density_rms         0.614
_refine_ls_extinction_method     none
_refine_ls_goodness_of_fit_ref   1.440
_refine_ls_hydrogen_treatment    constr
_refine_ls_matrix_type           full
_refine_ls_number_parameters     309
_refine_ls_number_reflns         15486
_refine_ls_number_restraints     960
_refine_ls_restrained_S_all      1.408
_refine_ls_R_factor_all          0.1149
_refine_ls_R_factor_gt           0.1045
_refine_ls_shift/su_max          0.000
_refine_ls_shift/su_mean         0.000
_refine_ls_structure_factor_coef Fsqd
_refine_ls_weighting_details
'w=1/[\s^2^(Fo^2^)+(0.2000P)^2^] where P=(Fo^2^+2Fc^2^)/3'
_refine_ls_weighting_scheme      calc
_refine_ls_wR_factor_gt          0.3011
_refine_ls_wR_factor_ref         0.3145
_reflns_Friedel_coverage         0.000
_reflns_number_gt                13804
_reflns_number_total             15486
_reflns_threshold_expression     'I > 2\s(I)'
_cod_data_source_file            d0dt01008a2.cif
_cod_data_source_block           shelx_CCDC1
_cod_depositor_comments
'Adding full bibliography for 7704622--7704632.cif.'
_cod_database_code               7704623
_shelx_shelxl_version_number     2018/3
_shelx_space_group_comment
;
The symmetry employed for this shelxl refinement is uniquely defined
by the following loop, which should always be used as a source of
symmetry information in preference to the above space-group names.
They are only intended as comments.
;
_shelx_res_file
;
TITL shelxt_b.res in P1               New: P-1
    shelx.res
    created by SHELXL-2018/3 at 16:35:28 on 19-Feb-2019
CELL  0.71073    8.6888    9.6300    9.8966    86.084    77.097    75.575
ZERR        1    0.0004    0.0004    0.0004     0.003     0.004     0.004
LATT   1
SFAC  C  H Cu Hg  I  N
UNIT    36  24   2   2   2   4
TEMP  -173
L.S. 25
rem damp 400
ACTA
CONF
BOND $H
htab
omit     2  -1   2
omit     0   1   0
omit     0  -1   0
omit    -1   0  -1
omit    -1  -1   0
omit     0   1   1
omit     0  -1  -1
omit     0  -2  -1
omit     0   0   1
omit     0  -2   0
omit     0  -2   1
omit     0   0   2
omit    -1  -1   2
omit     1   0   1
omit     0   0  -1
omit     0  -2   2
omit     1   0   1
omit     0   2  -2
omit    -1   0   0
omit     0  -1   1
omit     1   1   0
omit    -2  -4   7  !    177.54          0.38       7.77       0.002       1.12
omit     3  -1   0  !    101.11         10.44       6.30       0.011       2.47
omit    -3  -3   3  !    180.14         24.97       6.26       0.018       1.75
omit    -2   5  -4  !   2429.67        418.03       6.16       0.072       1.36
omit    -5  -2   1  !    101.61         14.84       6.14       0.014       1.60
omit     3   3  -3  !    154.55         24.97       5.76       0.018       1.75
omit     1  -1   2  !    107.65         20.91       5.64       0.016       3.91
omit    -1   1  -2  !    192.93         43.68       5.37       0.023       3.91
omit    -2   2  -5  !   2762.15        641.89       5.34       0.090       1.69
omit     5   2  -1  !    173.76         31.01       5.30       0.020       1.60
omit     3  -1   0  !     61.80          5.00       5.29       0.008       2.47
omit     1  -1   2  !    184.17         43.68       5.20       0.023       3.91
omit    -5   2   3  !    241.97         47.53       5.14       0.024       1.24
omit    -4  -1  -1  !    -15.36        814.39       5.12       0.101       2.17
omit    -4   8   1  !    -85.11       2370.32       5.12       0.172       0.91
omit    -4  -1  -1  !     -2.16       1701.54       5.11       0.146       2.17
omit     2   0   3  !      2.30       2060.02       5.08       0.160       2.84
omit     0   3   9  !   -100.96       2271.41       5.07       0.168       1.02
omit    -1  -2   2  !    244.30      26931.97       5.04       0.580       3.11
omit    -5  -2   1  !    150.66         31.01       5.03       0.020       1.60
omit    -3   1   0  !     60.05         10.44       5.01       0.011       2.47
simu .005 hg1 > i1a
delu .005 hg1 > i1a
eadp cu1 cu1a
eadp i1 i1a
simu .01 c1 > c9a
simu .01 c10 > c18a
delu .01 c1 > c9a
delu .01 c10 > c18a
flat c10 > c18a
WGHT    0.200000
BASF   0.32344
FVAR       3.09119   0.85795
PART   1
HG1   4    0.066284    0.400964    0.713547    21.00000    0.01422    0.01201 =
         0.01472   -0.00286   -0.00059    0.00051
CU1   3    0.381453    0.421884    0.667437    21.00000    0.02007    0.01263 =
         0.01896   -0.00411   -0.00127   -0.00137
I1    5    0.293900    0.533660    0.425812    21.00000    0.02243    0.01536 =
         0.01310   -0.00119    0.00106   -0.00432
PART   2
same .005 hg1 > i1
HG1A  4    0.404734    0.386803    0.747233   -21.00000    0.02467    0.01524 =
         0.02553   -0.00846   -0.00173   -0.00225
CU1A  3    0.110547    0.411141    0.680886   -21.00000    0.02007    0.01263 =
         0.01896   -0.00411   -0.00127   -0.00137
I1A   5    0.258065    0.527650    0.442482   -21.00000    0.02243    0.01536 =
         0.01310   -0.00119    0.00106   -0.00432
AFIX 116
PART   1
C1    1    0.001816    0.600122    0.818397    21.00000    0.02513    0.01222 =
         0.01882   -0.00355    0.00099   -0.00107
C2    1   -0.159311    0.676420    0.856697    21.00000    0.02543    0.01438 =
         0.01571   -0.00303   -0.00317   -0.00159
AFIX  43
H2AA  2   -0.240732    0.651664    0.819749    21.00000   -1.20000
AFIX 115
C3    1   -0.201307    0.788939    0.949057    21.00000    0.02255    0.01812 =
         0.00941   -0.00590   -0.00486    0.00726
AFIX  43
H3AA  2   -0.311430    0.841085    0.975233    21.00000   -1.20000
AFIX 115
C4    1   -0.082175    0.825162    1.003118    21.00000    0.02685    0.01407 =
         0.01617   -0.00775   -0.00090    0.00178
AFIX  43
H4AA  2   -0.110878    0.902064    1.066242    21.00000   -1.20000
AFIX 115
C5    1    0.078952    0.748865    0.964819    21.00000    0.02002    0.01239 =
         0.01079   -0.00137   -0.00254    0.00332
C6    1    0.120951    0.636345    0.872459    21.00000    0.02614    0.01433 =
         0.01223    0.00082    0.00229    0.00000
N1    6    0.282076    0.560044    0.834156    21.00000    0.02409    0.01477 =
         0.01934   -0.00149   -0.00418    0.00011
C7    1    0.401209    0.596264    0.888215    21.00000    0.02194    0.01607 =
         0.01946    0.00325   -0.00499   -0.00276
AFIX  43
H7AA  2    0.511332    0.544116    0.862038    21.00000   -1.20000
AFIX 115
C8    1    0.359218    0.708782    0.980575    21.00000    0.02478    0.02075 =
         0.02131    0.00292   -0.00685   -0.00394
AFIX  43
H8AA  2    0.440641    0.733537    1.017522    21.00000   -1.20000
AFIX 115
C9    1    0.198091    0.785082    1.018877    21.00000    0.02700    0.01916 =
         0.01103    0.00314   -0.00334   -0.00688
AFIX  43
H9AA  2    0.169393    0.861984    1.082002    21.00000   -1.20000
AFIX 116
PART   2
same .005 c1 > c9
C1A   1    0.282713    0.582087    0.835307   -21.00000    0.02376    0.01216 =
         0.01634    0.00293   -0.00191   -0.00042
C2A   1    0.380112    0.647948    0.890115   -21.00000    0.02269    0.01643 =
         0.01954    0.00240   -0.00550    0.00096
AFIX  43
H2CA  2    0.494928    0.612438    0.869140   -21.00000   -1.20000
AFIX 115
C3A   1    0.309519    0.765767    0.975613   -21.00000    0.02488    0.01681 =
         0.02040    0.00121   -0.00280   -0.00389
AFIX  43
H3CA  2    0.376088    0.810779    1.013072   -21.00000   -1.20000
AFIX 115
C4A   1    0.141526    0.817725    1.006303   -21.00000    0.02477    0.01613 =
         0.01595   -0.00137   -0.00305   -0.00137
AFIX  43
H4CA  2    0.093280    0.898248    1.064737   -21.00000   -1.20000
AFIX 115
C5A   1    0.044126    0.751865    0.951496   -21.00000    0.02502    0.01420 =
         0.01163   -0.00210   -0.00228    0.00019
C6A   1    0.114717    0.634046    0.865998   -21.00000    0.02473    0.01313 =
         0.01427   -0.00130   -0.00051    0.00056
N1A   6    0.017323    0.568182    0.811187   -21.00000    0.02526    0.00873 =
         0.01560   -0.00216   -0.00014    0.00015
C7A   1   -0.150669    0.620137    0.841876   -21.00000    0.02553    0.01374 =
         0.01491   -0.00314   -0.00219    0.00171
AFIX  43
H7CA  2   -0.217236    0.575123    0.804416   -21.00000   -1.20000
AFIX 115
C8A   1   -0.221266    0.737955    0.927373   -21.00000    0.02518    0.01528 =
         0.01466   -0.00450   -0.00353    0.00458
AFIX  43
H8CA  2   -0.336082    0.773464    0.948347   -21.00000   -1.20000
AFIX 115
C9A   1   -0.123871    0.803818    0.982183   -21.00000    0.02244    0.01486 =
         0.01251   -0.00382   -0.00229    0.00372
AFIX  43
H9CA  2   -0.172122    0.884342    1.040617   -21.00000   -1.20000
AFIX 116
PART   1
same .005 c1 > c9a
C10   1    0.161037    0.182540    0.653142    21.00000    0.01978    0.01333 =
         0.01508    0.00110   -0.00286   -0.00091
C11   1    0.059170    0.097790    0.635060    21.00000    0.02024    0.01345 =
         0.01487    0.00121   -0.00290    0.00112
AFIX  43
H2BA  2   -0.049242    0.141178    0.626741    21.00000   -1.20000
AFIX 115
C12   1    0.115925   -0.050442    0.629150    21.00000    0.01952    0.01930 =
         0.01144   -0.00149   -0.00453   -0.00452
AFIX  43
H3BA  2    0.046302   -0.108363    0.616792    21.00000   -1.20000
AFIX 115
C13   1    0.274547   -0.113925    0.641322    21.00000    0.02129    0.01532 =
         0.01180    0.00135   -0.00177   -0.00192
AFIX  43
H4BA  2    0.313336   -0.215235    0.637282    21.00000   -1.20000
AFIX 115
C14   1    0.376415   -0.029178    0.659403    21.00000    0.01711    0.01324 =
         0.00895   -0.00105   -0.00141   -0.00160
C15   1    0.319663    0.119054    0.665314    21.00000    0.01940    0.01471 =
         0.01130    0.00123   -0.00282   -0.00090
N2    6    0.421525    0.203808    0.683395    21.00000    0.01267    0.01636 =
         0.01459   -0.00127   -0.00056   -0.00039
C16   1    0.580147    0.140327    0.695567    21.00000    0.01786    0.01565 =
         0.01713   -0.00431   -0.00316   -0.00139
AFIX  43
H7BA  2    0.649768    0.198251    0.707925    21.00000   -1.20000
AFIX 115
C17   1    0.636905   -0.007904    0.689658    21.00000    0.01471    0.01754 =
         0.01833   -0.00407   -0.00261    0.00487
AFIX  43
H8BA  2    0.745317   -0.051290    0.697977    21.00000   -1.20000
AFIX 115
C18   1    0.535042   -0.092656    0.671576    21.00000    0.01715    0.01700 =
         0.01767   -0.00212   -0.00229   -0.00119
AFIX  43
H9BA  2    0.573835   -0.193965    0.667537    21.00000   -1.20000
AFIX 116
PART   2
C10A  1    0.455701    0.171290    0.685611   -21.00000    0.01713    0.01494 =
         0.01425   -0.00226   -0.00111   -0.00004
C11A  1    0.606551    0.082804    0.693787   -21.00000    0.01681    0.01525 =
         0.01655   -0.00388   -0.00183   -0.00204
AFIX  43
H2DA  2    0.691308    0.123242    0.706776   -21.00000   -1.20000
AFIX 115
C12A  1    0.633390   -0.064848    0.682957   -21.00000    0.01778    0.01539 =
         0.01792   -0.00136   -0.00068    0.00037
AFIX  43
H3DA  2    0.736489   -0.125323    0.688545   -21.00000   -1.20000
AFIX 115
C13A  1    0.509379   -0.124015    0.663952   -21.00000    0.02014    0.01482 =
         0.01611   -0.00040   -0.00183    0.00059
AFIX  43
H4DA  2    0.527722   -0.224929    0.656550   -21.00000   -1.20000
AFIX 115
C14A  1    0.358528   -0.035532    0.655776   -21.00000    0.01859    0.01431 =
         0.01135   -0.00065   -0.00279   -0.00077
C15A  1    0.331687    0.112121    0.666605   -21.00000    0.01777    0.01439 =
         0.01211   -0.00022   -0.00251   -0.00084
N2A   6    0.180840    0.200610    0.658430   -21.00000    0.02114    0.01175 =
         0.01207   -0.00157   -0.00261    0.00001
C16A  1    0.056827    0.141446    0.639425   -21.00000    0.01975    0.01391 =
         0.01241   -0.00136   -0.00284    0.00022
AFIX  43
H7DA  2   -0.046272    0.201923    0.633837   -21.00000   -1.20000
AFIX 115
C17A  1    0.083661   -0.006205    0.628595   -21.00000    0.01887    0.01397 =
         0.01280    0.00021   -0.00315   -0.00173
AFIX  43
H8DA  2   -0.001097   -0.046641    0.615605   -21.00000   -1.20000
AFIX 115
C18A  1    0.234510   -0.094693    0.636770   -21.00000    0.01972    0.01400 =
         0.01070    0.00035   -0.00379   -0.00163
AFIX  43
H9DA  2    0.252848   -0.195606    0.629368   -21.00000   -1.20000
PART   0

AFIX   0
HKLF 5




REM  shelxt_b.res in P1               New: P-1
REM wR2 = 0.3145, GooF = S = 1.440, Restrained GooF = 1.408 for all data
REM R1 = 0.1045 for 13804 Fo > 4sig(Fo) and 0.1149 for all 15486 data
REM 309 parameters refined using 960 restraints

END

WGHT      0.2000      0.0000

REM No hydrogen bonds found for HTAB generation

REM Highest difference peak  5.099,  deepest hole -5.647,  1-sigma level  0.614
Q1    1   0.2029  0.5379  0.4187  11.00000  0.05    5.10
Q2    1   0.0878  0.3714  0.7311  11.00000  0.05    3.80
Q3    1   0.3090  0.4958  0.4566  11.00000  0.05    3.42
Q4    1   0.4172  0.5269  0.4369  11.00000  0.05    3.36
Q5    1   0.3804  0.5865  0.2631  11.00000  0.05    2.81
Q6    1   0.1752  0.4331  0.7001  11.00000  0.05    2.74
Q7    1   0.1096  0.5205  0.6552  11.00000  0.05    2.63
Q8    1   0.5100  0.3890  0.6830  11.00000  0.05    2.60
Q9    1   0.1564  0.4043  0.6268  11.00000  0.05    2.55
Q10   1   0.2748  0.4217  0.4943  11.00000  0.05    2.54
Q11   1  -0.0461  0.4207  0.7006  11.00000  0.05    2.45
Q12   1   0.4938  0.4129  0.7974  11.00000  0.05    2.41
Q13   1   0.2276  0.7810  1.0385  11.00000  0.05    2.26
Q14   1  -0.0201  0.3981  0.8025  11.00000  0.05    2.24
Q15   1   0.3171  0.4531  0.6180  11.00000  0.05    2.09
Q16   1   0.3917  0.4290  0.4362  11.00000  0.05    2.06
Q17   1   0.0912  0.7823  0.9583  11.00000  0.05    2.05
Q18   1   0.4683  0.4724  0.5806  11.00000  0.05    2.04
Q19   1   0.5427  0.1413  0.6927  11.00000  0.05    2.04
Q20   1   0.2694  0.3837  0.6763  11.00000  0.05    2.01
;
_shelx_res_checksum              7806
loop_
_space_group_symop_operation_xyz
'x, y, z'
'-x, -y, -z'
loop_
_atom_site_label
_atom_site_type_symbol
_atom_site_fract_x
_atom_site_fract_y
_atom_site_fract_z
_atom_site_U_iso_or_equiv
_atom_site_adp_type
_atom_site_occupancy
_atom_site_site_symmetry_order
_atom_site_calc_flag
_atom_site_refinement_flags_posn
_atom_site_refinement_flags_adp
_atom_site_refinement_flags_occupancy
_atom_site_disorder_assembly
_atom_site_disorder_group
Hg1 Hg 0.06628(8) 0.40096(7) 0.71355(7) 0.0146(3) Uani 0.858(3) 1 d D U P A 1
Cu1 Cu 0.3815(3) 0.4219(2) 0.6674(3) 0.0180(5) Uani 0.858(3) 1 d D U P A 1
I1 I 0.29390(19) 0.5337(2) 0.42581(17) 0.0177(4) Uani 0.858(3) 1 d D U P A 1
Hg1A Hg 0.4047(5) 0.3868(5) 0.7472(5) 0.0225(13) Uani 0.142(3) 1 d D U P A 2
Cu1A Cu 0.1105(13) 0.4111(18) 0.6809(13) 0.0180(5) Uani 0.142(3) 1 d D U P A 2
I1A I 0.2581(16) 0.5276(17) 0.4425(12) 0.0177(4) Uani 0.142(3) 1 d D U P A 2
C1 C 0.0018(11) 0.6001(11) 0.8184(12) 0.020(3) Uani 0.858(3) 1 d DG U P A 1
C2 C -0.1593(10) 0.6764(12) 0.8567(12) 0.019(3) Uani 0.858(3) 1 d DG U P A 1
H2AA H -0.240732 0.651664 0.819749 0.023 Uiso 0.858(3) 1 calc R U P A 1
C3 C -0.2013(9) 0.7889(11) 0.9491(11) 0.018(3) Uani 0.858(3) 1 d DG U P A 1
H3AA H -0.311430 0.841085 0.975233 0.022 Uiso 0.858(3) 1 calc R U P A 1
C4 C -0.0822(10) 0.8252(10) 1.0031(10) 0.020(3) Uani 0.858(3) 1 d DG U P A 1
H4AA H -0.110878 0.902064 1.066242 0.025 Uiso 0.858(3) 1 calc R U P A 1
C5 C 0.0790(9) 0.7489(7) 0.9648(7) 0.016(3) Uani 0.858(3) 1 d DG U P A 1
C6 C 0.1210(9) 0.6363(7) 0.8725(9) 0.020(3) Uani 0.858(3) 1 d DG U P A 1
N1 N 0.2821(10) 0.5600(10) 0.8342(13) 0.020(3) Uani 0.858(3) 1 d DG U P A 1
C7 C 0.4012(8) 0.5963(12) 0.8882(13) 0.020(3) Uani 0.858(3) 1 d DG U P A 1
H7AA H 0.511332 0.544116 0.862038 0.023 Uiso 0.858(3) 1 calc R U P A 1
C8 C 0.3592(10) 0.7088(12) 0.9806(12) 0.022(3) Uani 0.858(3) 1 d DG U P A 1
H8AA H 0.440641 0.733537 1.017522 0.027 Uiso 0.858(3) 1 calc R U P A 1
C9 C 0.1981(11) 0.7851(10) 1.0189(10) 0.019(3) Uani 0.858(3) 1 d DG U P A 1
H9AA H 0.169393 0.861984 1.082002 0.023 Uiso 0.858(3) 1 calc R U P A 1
C1A C 0.283(6) 0.582(7) 0.835(9) 0.019(5) Uani 0.142(3) 1 d DG U P A 2
C2A C 0.380(6) 0.648(8) 0.890(9) 0.021(5) Uani 0.142(3) 1 d DG U P A 2
H2CA H 0.494928 0.612438 0.869140 0.025 Uiso 0.142(3) 1 calc R U P A 2
C3A C 0.310(7) 0.766(8) 0.976(8) 0.021(5) Uani 0.142(3) 1 d DG U P A 2
H3CA H 0.376088 0.810779 1.013072 0.026 Uiso 0.142(3) 1 calc R U P A 2
C4A C 0.142(8) 0.818(6) 1.006(7) 0.020(5) Uani 0.142(3) 1 d DG U P A 2
H4CA H 0.093280 0.898248 1.064737 0.024 Uiso 0.142(3) 1 calc R U P A 2
C5A C 0.044(6) 0.752(5) 0.951(5) 0.018(4) Uani 0.142(3) 1 d DG U P A 2
C6A C 0.115(6) 0.634(5) 0.866(6) 0.019(4) Uani 0.142(3) 1 d DG U P A 2
N1A N 0.017(8) 0.568(6) 0.811(8) 0.018(5) Uani 0.142(3) 1 d DG U P A 2
C7A C -0.151(7) 0.620(7) 0.842(8) 0.019(5) Uani 0.142(3) 1 d DG U P A 2
H7CA H -0.217236 0.575123 0.804416 0.023 Uiso 0.142(3) 1 calc R U P A 2
C8A C -0.221(6) 0.738(7) 0.927(8) 0.020(5) Uani 0.142(3) 1 d DG U P A 2
H8CA H -0.336082 0.773464 0.948347 0.024 Uiso 0.142(3) 1 calc R U P A 2
C9A C -0.124(6) 0.804(6) 0.982(7) 0.018(5) Uani 0.142(3) 1 d DG U P A 2
H9CA H -0.172122 0.884342 1.040617 0.022 Uiso 0.142(3) 1 calc R U P A 2
C10 C 0.1610(9) 0.1825(8) 0.6531(11) 0.017(3) Uani 0.858(3) 1 d DG U P A 1
C11 C 0.0592(8) 0.0978(11) 0.6351(11) 0.017(3) Uani 0.858(3) 1 d DG U P A 1
H2BA H -0.049242 0.141178 0.626741 0.021 Uiso 0.858(3) 1 calc R U P A 1
C12 C 0.1159(10) -0.0504(10) 0.6291(11) 0.017(3) Uani 0.858(3) 1 d DG U P A 1
H3BA H 0.046302 -0.108363 0.616792 0.020 Uiso 0.858(3) 1 calc R U P A 1
C13 C 0.2745(10) -0.1139(8) 0.6413(11) 0.017(3) Uani 0.858(3) 1 d DG U P A 1
H4BA H 0.313336 -0.215235 0.637282 0.020 Uiso 0.858(3) 1 calc R U P A 1
C14 C 0.3764(8) -0.0292(7) 0.6594(7) 0.014(2) Uani 0.858(3) 1 d DG U P A 1
C15 C 0.3197(8) 0.1191(7) 0.6653(7) 0.016(2) Uani 0.858(3) 1 d DG U P A 1
N2 N 0.4215(10) 0.2038(8) 0.6834(10) 0.015(2) Uani 0.858(3) 1 d DG U P A 1
C16 C 0.5801(10) 0.1403(10) 0.6956(11) 0.017(3) Uani 0.858(3) 1 d DG U P A 1
H7BA H 0.649768 0.198251 0.707925 0.021 Uiso 0.858(3) 1 calc R U P A 1
C17 C 0.6369(8) -0.0079(11) 0.6897(11) 0.018(3) Uani 0.858(3) 1 d DG U P A 1
H8BA H 0.745317 -0.051290 0.697977 0.022 Uiso 0.858(3) 1 calc R U P A 1
C18 C 0.5350(9) -0.0927(8) 0.6716(11) 0.018(3) Uani 0.858(3) 1 d DG U P A 1
H9BA H 0.573835 -0.193965 0.667537 0.022 Uiso 0.858(3) 1 calc R U P A 1
C10A C 0.456(7) 0.171(5) 0.686(5) 0.016(5) Uani 0.142(3) 1 d DG U P A 2
C11A C 0.607(6) 0.083(7) 0.694(5) 0.017(5) Uani 0.142(3) 1 d DG U P A 2
H2DA H 0.691308 0.123242 0.706776 0.020 Uiso 0.142(3) 1 calc R U P A 2
C12A C 0.633(6) -0.065(7) 0.683(5) 0.018(5) Uani 0.142(3) 1 d DG U P A 2
H3DA H 0.736489 -0.125323 0.688545 0.022 Uiso 0.142(3) 1 calc R U P A 2
C13A C 0.509(6) -0.124(5) 0.664(5) 0.018(5) Uani 0.142(3) 1 d DG U P A 2
H4DA H 0.527722 -0.224929 0.656550 0.022 Uiso 0.142(3) 1 calc R U P A 2
C14A C 0.359(6) -0.036(4) 0.656(4) 0.015(4) Uani 0.142(3) 1 d DG U P A 2
C15A C 0.332(6) 0.112(4) 0.667(4) 0.015(4) Uani 0.142(3) 1 d DG U P A 2
N2A N 0.181(7) 0.201(5) 0.658(5) 0.016(5) Uani 0.142(3) 1 d DG U P A 2
C16A C 0.057(6) 0.141(7) 0.639(5) 0.016(5) Uani 0.142(3) 1 d DG U P A 2
H7DA H -0.046272 0.201923 0.633837 0.019 Uiso 0.142(3) 1 calc R U P A 2
C17A C 0.084(6) -0.006(8) 0.629(5) 0.016(5) Uani 0.142(3) 1 d DG U P A 2
H8DA H -0.001097 -0.046641 0.615605 0.019 Uiso 0.142(3) 1 calc R U P A 2
C18A C 0.235(7) -0.095(6) 0.637(5) 0.015(5) Uani 0.142(3) 1 d DG U P A 2
H9DA H 0.252848 -0.195606 0.629368 0.018 Uiso 0.142(3) 1 calc R U P A 2
loop_
_atom_site_aniso_label
_atom_site_aniso_U_11
_atom_site_aniso_U_22
_atom_site_aniso_U_33
_atom_site_aniso_U_23
_atom_site_aniso_U_13
_atom_site_aniso_U_12
Hg1 0.0142(4) 0.0120(4) 0.0147(4) -0.0029(2) -0.0006(2) 0.0005(3)
Cu1 0.0201(10) 0.0126(10) 0.0190(11) -0.0041(8) -0.0013(9) -0.0014(8)
I1 0.0224(9) 0.0154(6) 0.0131(7) -0.0012(5) 0.0011(6) -0.0043(6)
Hg1A 0.025(2) 0.015(2) 0.026(3) -0.0085(16) -0.0017(17) -0.0023(15)
Cu1A 0.0201(10) 0.0126(10) 0.0190(11) -0.0041(8) -0.0013(9) -0.0014(8)
I1A 0.0224(9) 0.0154(6) 0.0131(7) -0.0012(5) 0.0011(6) -0.0043(6)
C1 0.025(6) 0.012(7) 0.019(6) -0.004(5) 0.001(5) -0.001(5)
C2 0.025(6) 0.014(6) 0.016(6) -0.003(5) -0.003(5) -0.002(5)
C3 0.023(6) 0.018(7) 0.009(6) -0.006(5) -0.005(5) 0.007(5)
C4 0.027(6) 0.014(6) 0.016(6) -0.008(5) -0.001(5) 0.002(5)
C5 0.020(5) 0.012(5) 0.011(5) -0.001(4) -0.003(5) 0.003(5)
C6 0.026(5) 0.014(5) 0.012(5) 0.001(4) 0.002(5) 0.000(5)
N1 0.024(5) 0.015(6) 0.019(6) -0.001(5) -0.004(5) 0.000(5)
C7 0.022(6) 0.016(7) 0.019(6) 0.003(6) -0.005(5) -0.003(5)
C8 0.025(6) 0.021(7) 0.021(6) 0.003(6) -0.007(6) -0.004(6)
C9 0.027(6) 0.019(6) 0.011(6) 0.003(5) -0.003(5) -0.007(5)
C1A 0.024(8) 0.012(9) 0.016(9) 0.003(8) -0.002(8) 0.000(8)
C2A 0.023(8) 0.016(10) 0.020(9) 0.002(9) -0.006(8) 0.001(8)
C3A 0.025(9) 0.017(9) 0.020(9) 0.001(9) -0.003(9) -0.004(9)
C4A 0.025(8) 0.016(8) 0.016(8) -0.001(8) -0.003(8) -0.001(8)
C5A 0.025(7) 0.014(8) 0.012(8) -0.002(7) -0.002(7) 0.000(7)
C6A 0.025(7) 0.013(8) 0.014(8) -0.001(7) -0.001(7) 0.001(7)
N1A 0.025(8) 0.009(9) 0.016(9) -0.002(8) 0.000(8) 0.000(8)
C7A 0.026(8) 0.014(10) 0.015(9) -0.003(9) -0.002(9) 0.002(9)
C8A 0.025(8) 0.015(10) 0.015(9) -0.005(9) -0.004(8) 0.005(9)
C9A 0.022(8) 0.015(8) 0.013(8) -0.004(8) -0.002(8) 0.004(8)
C10 0.020(6) 0.013(6) 0.015(6) 0.001(5) -0.003(5) -0.001(5)
C11 0.020(6) 0.013(7) 0.015(6) 0.001(5) -0.003(5) 0.001(5)
C12 0.020(6) 0.019(7) 0.011(6) -0.001(5) -0.005(5) -0.005(5)
C13 0.021(6) 0.015(6) 0.012(5) 0.001(5) -0.002(5) -0.002(5)
C14 0.017(5) 0.013(5) 0.009(5) -0.001(4) -0.001(4) -0.002(4)
C15 0.019(5) 0.015(5) 0.011(5) 0.001(5) -0.003(4) -0.001(4)
N2 0.013(5) 0.016(6) 0.015(5) -0.001(5) -0.001(4) 0.000(4)
C16 0.018(6) 0.016(6) 0.017(6) -0.004(5) -0.003(5) -0.001(5)
C17 0.015(5) 0.018(7) 0.018(6) -0.004(6) -0.003(5) 0.005(5)
C18 0.017(5) 0.017(6) 0.018(6) -0.002(5) -0.002(5) -0.001(5)
C10A 0.017(8) 0.015(9) 0.014(9) -0.002(9) -0.001(8) 0.000(8)
C11A 0.017(8) 0.015(9) 0.017(8) -0.004(9) -0.002(8) -0.002(8)
C12A 0.018(8) 0.015(9) 0.018(9) -0.001(9) -0.001(8) 0.000(9)
C13A 0.020(8) 0.015(9) 0.016(9) 0.000(9) -0.002(8) 0.001(8)
C14A 0.019(7) 0.014(7) 0.011(8) -0.001(7) -0.003(7) -0.001(7)
C15A 0.018(7) 0.014(7) 0.012(8) 0.000(7) -0.003(7) -0.001(7)
N2A 0.021(8) 0.012(8) 0.012(9) -0.002(9) -0.003(8) 0.000(8)
C16A 0.020(8) 0.014(9) 0.012(9) -0.001(9) -0.003(8) 0.000(8)
C17A 0.019(8) 0.014(9) 0.013(9) 0.000(9) -0.003(9) -0.002(8)
C18A 0.020(8) 0.014(9) 0.011(9) 0.000(9) -0.004(9) -0.002(8)
loop_
_atom_type_symbol
_atom_type_description
_atom_type_scat_dispersion_real
_atom_type_scat_dispersion_imag
_atom_type_scat_source
C C 0.0033 0.0016 'International Tables Vol C Tables 4.2.6.8 and 6.1.1.4'
H H 0.0000 0.0000 'International Tables Vol C Tables 4.2.6.8 and 6.1.1.4'
Cu Cu 0.3201 1.2651 'International Tables Vol C Tables 4.2.6.8 and 6.1.1.4'
Hg Hg -2.3894 9.2266 'International Tables Vol C Tables 4.2.6.8 and 6.1.1.4'
I I -0.4742 1.8119 'International Tables Vol C Tables 4.2.6.8 and 6.1.1.4'
N N 0.0061 0.0033 'International Tables Vol C Tables 4.2.6.8 and 6.1.1.4'
loop_
_geom_angle_atom_site_label_1
_geom_angle_atom_site_label_2
_geom_angle_atom_site_label_3
_geom_angle
_geom_angle_site_symmetry_1
_geom_angle_site_symmetry_3
_geom_angle_publ_flag
C1 Hg1 C10 164.9(4) . . ?
C1 Hg1 Cu1 87.0(3) . . ?
C10 Hg1 Cu1 86.9(2) . . ?
N2 Cu1 N1 124.2(5) . . ?
N2 Cu1 Hg1 81.5(2) . . ?
N1 Cu1 Hg1 80.8(3) . . ?
N2 Cu1 I1 113.9(3) . . ?
N1 Cu1 I1 113.3(3) . . ?
Hg1 Cu1 I1 78.20(7) . . ?
N2 Cu1 I1 103.1(2) . 2_666 ?
N1 Cu1 I1 103.1(3) . 2_666 ?
Hg1 Cu1 I1 170.29(12) . 2_666 ?
I1 Cu1 I1 92.10(9) . 2_666 ?
Cu1 I1 Cu1 87.90(9) . 2_666 ?
C1A Hg1A C10A 161(2) . . ?
C1A Hg1A Cu1A 80.7(18) . . ?
C10A Hg1A Cu1A 85.1(17) . . ?
N1A Cu1A N2A 146(3) . . ?
N1A Cu1A Hg1A 89.0(19) . . ?
N2A Cu1A Hg1A 85.3(18) . . ?
N1A Cu1A I1A 106(3) . . ?
N2A Cu1A I1A 106.3(17) . . ?
Hg1A Cu1A I1A 82.0(4) . . ?
C2 C1 C6 120.0 . . ?
C2 C1 Hg1 121.4(4) . . ?
C6 C1 Hg1 117.3(4) . . ?
C1 C2 C3 120.0 . . ?
C1 C2 H2AA 120.0 . . ?
C3 C2 H2AA 120.0 . . ?
C4 C3 C2 120.0 . . ?
C4 C3 H3AA 120.0 . . ?
C2 C3 H3AA 120.0 . . ?
C3 C4 C5 120.0 . . ?
C3 C4 H4AA 120.0 . . ?
C5 C4 H4AA 120.0 . . ?
C6 C5 C4 120.0 . . ?
C6 C5 C9 120.0 . . ?
C4 C5 C9 120.0 . . ?
N1 C6 C5 120.0 . . ?
N1 C6 C1 120.0 . . ?
C5 C6 C1 120.0 . . ?
C6 N1 C7 120.0 . . ?
C6 N1 Cu1 126.4(4) . . ?
C7 N1 Cu1 112.1(4) . . ?
C8 C7 N1 120.0 . . ?
C8 C7 H7AA 120.0 . . ?
N1 C7 H7AA 120.0 . . ?
C9 C8 C7 120.0 . . ?
C9 C8 H8AA 120.0 . . ?
C7 C8 H8AA 120.0 . . ?
C8 C9 C5 120.0 . . ?
C8 C9 H9AA 120.0 . . ?
C5 C9 H9AA 120.0 . . ?
C2A C1A C6A 120.0 . . ?
C2A C1A Hg1A 113(3) . . ?
C6A C1A Hg1A 125(3) . . ?
C3A C2A C1A 120.0 . . ?
C3A C2A H2CA 120.0 . . ?
C1A C2A H2CA 120.0 . . ?
C2A C3A C4A 120.0 . . ?
C2A C3A H3CA 120.0 . . ?
C4A C3A H3CA 120.0 . . ?
C3A C4A C5A 120.0 . . ?
C3A C4A H4CA 120.0 . . ?
C5A C4A H4CA 120.0 . . ?
C6A C5A C4A 120.0 . . ?
C6A C5A C9A 120.0 . . ?
C4A C5A C9A 120.0 . . ?
N1A C6A C5A 120.0 . . ?
N1A C6A C1A 120.0 . . ?
C5A C6A C1A 120.0 . . ?
C6A N1A C7A 120.0 . . ?
C6A N1A Cu1A 122(3) . . ?
C7A N1A Cu1A 118(3) . . ?
N1A C7A C8A 120.0 . . ?
N1A C7A H7CA 120.0 . . ?
C8A C7A H7CA 120.0 . . ?
C9A C8A C7A 120.0 . . ?
C9A C8A H8CA 120.0 . . ?
C7A C8A H8CA 120.0 . . ?
C8A C9A C5A 120.0 . . ?
C8A C9A H9CA 120.0 . . ?
C5A C9A H9CA 120.0 . . ?
C11 C10 C15 120.0 . . ?
C11 C10 Hg1 121.2(3) . . ?
C15 C10 Hg1 117.0(3) . . ?
C12 C11 C10 120.0 . . ?
C12 C11 H2BA 120.0 . . ?
C10 C11 H2BA 120.0 . . ?
C11 C12 C13 120.0 . . ?
C11 C12 H3BA 120.0 . . ?
C13 C12 H3BA 120.0 . . ?
C14 C13 C12 120.0 . . ?
C14 C13 H4BA 120.0 . . ?
C12 C13 H4BA 120.0 . . ?
C13 C14 C15 120.0 . . ?
C13 C14 C18 120.0 . . ?
C15 C14 C18 120.0 . . ?
N2 C15 C14 120.0 . . ?
N2 C15 C10 120.0 . . ?
C14 C15 C10 120.0 . . ?
C15 N2 C16 120.0 . . ?
C15 N2 Cu1 127.8(4) . . ?
C16 N2 Cu1 111.5(4) . . ?
N2 C16 C17 120.0 . . ?
N2 C16 H7BA 120.0 . . ?
C17 C16 H7BA 120.0 . . ?
C18 C17 C16 120.0 . . ?
C18 C17 H8BA 120.0 . . ?
C16 C17 H8BA 120.0 . . ?
C17 C18 C14 120.0 . . ?
C17 C18 H9BA 120.0 . . ?
C14 C18 H9BA 120.0 . . ?
C11A C10A C15A 120.0 . . ?
C11A C10A Hg1A 118(3) . . ?
C15A C10A Hg1A 121(3) . . ?
C12A C11A C10A 120.0 . . ?
C12A C11A H2DA 120.0 . . ?
C10A C11A H2DA 120.0 . . ?
C13A C12A C11A 120.0 . . ?
C13A C12A H3DA 120.0 . . ?
C11A C12A H3DA 120.0 . . ?
C12A C13A C14A 120.0 . . ?
C12A C13A H4DA 120.0 . . ?
C14A C13A H4DA 120.0 . . ?
C15A C14A C13A 120.0 . . ?
C15A C14A C18A 120.0 . . ?
C13A C14A C18A 120.0 . . ?
N2A C15A C14A 120.0 . . ?
N2A C15A C10A 120.0 . . ?
C14A C15A C10A 120.0 . . ?
C15A N2A C16A 120.0 . . ?
C15A N2A Cu1A 127(3) . . ?
C16A N2A Cu1A 113(3) . . ?
C17A C16A N2A 120.0 . . ?
C17A C16A H7DA 120.0 . . ?
N2A C16A H7DA 120.0 . . ?
C16A C17A C18A 120.0 . . ?
C16A C17A H8DA 120.0 . . ?
C18A C17A H8DA 120.0 . . ?
C17A C18A C14A 120.0 . . ?
C17A C18A H9DA 120.0 . . ?
C14A C18A H9DA 120.0 . . ?
loop_
_geom_bond_atom_site_label_1
_geom_bond_atom_site_label_2
_geom_bond_distance
_geom_bond_site_symmetry_2
_geom_bond_publ_flag
Hg1 C1 2.132(7) . ?
Hg1 C10 2.133(8) . ?
Hg1 Cu1 2.730(2) . ?
Cu1 N2 2.042(7) . ?
Cu1 N1 2.081(9) . ?
Cu1 I1 2.740(3) . ?
Cu1 I1 2.894(3) 2_666 ?
Hg1A C1A 2.06(5) . ?
Hg1A C10A 2.11(5) . ?
Hg1A Cu1A 2.729(9) . ?
Cu1A N1A 1.95(5) . ?
Cu1A N2A 1.98(5) . ?
Cu1A I1A 2.734(9) . ?
C1 C2 1.3900 . ?
C1 C6 1.3900 . ?
C2 C3 1.3900 . ?
C2 H2AA 0.9500 . ?
C3 C4 1.3900 . ?
C3 H3AA 0.9500 . ?
C4 C5 1.3900 . ?
C4 H4AA 0.9500 . ?
C5 C6 1.3900 . ?
C5 C9 1.3900 . ?
C6 N1 1.3900 . ?
N1 C7 1.3900 . ?
C7 C8 1.3900 . ?
C7 H7AA 0.9500 . ?
C8 C9 1.3900 . ?
C8 H8AA 0.9500 . ?
C9 H9AA 0.9500 . ?
C1A C2A 1.3900 . ?
C1A C6A 1.3900 . ?
C2A C3A 1.3900 . ?
C2A H2CA 0.9500 . ?
C3A C4A 1.3900 . ?
C3A H3CA 0.9500 . ?
C4A C5A 1.3900 . ?
C4A H4CA 0.9500 . ?
C5A C6A 1.3900 . ?
C5A C9A 1.3900 . ?
C6A N1A 1.3900 . ?
N1A C7A 1.3900 . ?
C7A C8A 1.3900 . ?
C7A H7CA 0.9500 . ?
C8A C9A 1.3900 . ?
C8A H8CA 0.9500 . ?
C9A H9CA 0.9500 . ?
C10 C11 1.3900 . ?
C10 C15 1.3900 . ?
C11 C12 1.3900 . ?
C11 H2BA 0.9500 . ?
C12 C13 1.3900 . ?
C12 H3BA 0.9500 . ?
C13 C14 1.3900 . ?
C13 H4BA 0.9500 . ?
C14 C15 1.3900 . ?
C14 C18 1.3900 . ?
C15 N2 1.3900 . ?
N2 C16 1.3900 . ?
C16 C17 1.3900 . ?
C16 H7BA 0.9500 . ?
C17 C18 1.3900 . ?
C17 H8BA 0.9500 . ?
C18 H9BA 0.9500 . ?
C10A C11A 1.3900 . ?
C10A C15A 1.3900 . ?
C11A C12A 1.3900 . ?
C11A H2DA 0.9500 . ?
C12A C13A 1.3900 . ?
C12A H3DA 0.9500 . ?
C13A C14A 1.3900 . ?
C13A H4DA 0.9500 . ?
C14A C15A 1.3900 . ?
C14A C18A 1.3900 . ?
C15A N2A 1.3900 . ?
N2A C16A 1.3900 . ?
C16A C17A 1.3900 . ?
C16A H7DA 0.9500 . ?
C17A C18A 1.3900 . ?
C17A H8DA 0.9500 . ?
C18A H9DA 0.9500 . ?
loop_
_geom_torsion_atom_site_label_1
_geom_torsion_atom_site_label_2
_geom_torsion_atom_site_label_3
_geom_torsion_atom_site_label_4
_geom_torsion
_geom_torsion_site_symmetry_1
_geom_torsion_site_symmetry_2
_geom_torsion_site_symmetry_3
_geom_torsion_site_symmetry_4
_geom_torsion_publ_flag
C6 C1 C2 C3 0.0 . . . . ?
Hg1 C1 C2 C3 166.6(8) . . . . ?
C1 C2 C3 C4 0.0 . . . . ?
C2 C3 C4 C5 0.0 . . . . ?
C3 C4 C5 C6 0.0 . . . . ?
C3 C4 C5 C9 180.0 . . . . ?
C4 C5 C6 N1 180.0 . . . . ?
C9 C5 C6 N1 0.0 . . . . ?
C4 C5 C6 C1 0.0 . . . . ?
C9 C5 C6 C1 180.0 . . . . ?
C2 C1 C6 N1 180.0 . . . . ?
Hg1 C1 C6 N1 12.8(8) . . . . ?
C2 C1 C6 C5 0.0 . . . . ?
Hg1 C1 C6 C5 -167.2(8) . . . . ?
C5 C6 N1 C7 0.0 . . . . ?
C1 C6 N1 C7 180.0 . . . . ?
C5 C6 N1 Cu1 -165.0(9) . . . . ?
C1 C6 N1 Cu1 15.0(9) . . . . ?
C6 N1 C7 C8 0.0 . . . . ?
Cu1 N1 C7 C8 167.0(8) . . . . ?
N1 C7 C8 C9 0.0 . . . . ?
C7 C8 C9 C5 0.0 . . . . ?
C6 C5 C9 C8 0.0 . . . . ?
C4 C5 C9 C8 180.0 . . . . ?
C6A C1A C2A C3A 0.0 . . . . ?
Hg1A C1A C2A C3A -168(5) . . . . ?
C1A C2A C3A C4A 0.0 . . . . ?
C2A C3A C4A C5A 0.0 . . . . ?
C3A C4A C5A C6A 0.0 . . . . ?
C3A C4A C5A C9A 180.0 . . . . ?
C4A C5A C6A N1A 180.0 . . . . ?
C9A C5A C6A N1A 0.0 . . . . ?
C4A C5A C6A C1A 0.0 . . . . ?
C9A C5A C6A C1A 180.0 . . . . ?
C2A C1A C6A N1A 180.0 . . . . ?
Hg1A C1A C6A N1A -14(6) . . . . ?
C2A C1A C6A C5A 0.0 . . . . ?
Hg1A C1A C6A C5A 166(6) . . . . ?
C5A C6A N1A C7A 0.0 . . . . ?
C1A C6A N1A C7A 180.0 . . . . ?
C5A C6A N1A Cu1A 176(5) . . . . ?
C1A C6A N1A Cu1A -4(5) . . . . ?
C6A N1A C7A C8A 0.0 . . . . ?
Cu1A N1A C7A C8A -176(5) . . . . ?
N1A C7A C8A C9A 0.0 . . . . ?
C7A C8A C9A C5A 0.0 . . . . ?
C6A C5A C9A C8A 0.0 . . . . ?
C4A C5A C9A C8A 180.0 . . . . ?
C15 C10 C11 C12 0.0 . . . . ?
Hg1 C10 C11 C12 -164.3(6) . . . . ?
C10 C11 C12 C13 0.0 . . . . ?
C11 C12 C13 C14 0.0 . . . . ?
C12 C13 C14 C15 0.0 . . . . ?
C12 C13 C14 C18 180.0 . . . . ?
C13 C14 C15 N2 180.0 . . . . ?
C18 C14 C15 N2 0.0 . . . . ?
C13 C14 C15 C10 0.0 . . . . ?
C18 C14 C15 C10 180.0 . . . . ?
C11 C10 C15 N2 180.0 . . . . ?
Hg1 C10 C15 N2 -15.0(6) . . . . ?
C11 C10 C15 C14 0.0 . . . . ?
Hg1 C10 C15 C14 165.0(6) . . . . ?
C14 C15 N2 C16 0.0 . . . . ?
C10 C15 N2 C16 180.0 . . . . ?
C14 C15 N2 Cu1 170.2(7) . . . . ?
C10 C15 N2 Cu1 -9.8(7) . . . . ?
C15 N2 C16 C17 0.0 . . . . ?
Cu1 N2 C16 C17 -171.7(6) . . . . ?
N2 C16 C17 C18 0.0 . . . . ?
C16 C17 C18 C14 0.0 . . . . ?
C13 C14 C18 C17 180.0 . . . . ?
C15 C14 C18 C17 0.0 . . . . ?
C15A C10A C11A C12A 0.0 . . . . ?
Hg1A C10A C11A C12A 166(3) . . . . ?
C10A C11A C12A C13A 0.0 . . . . ?
C11A C12A C13A C14A 0.0 . . . . ?
C12A C13A C14A C15A 0.0 . . . . ?
C12A C13A C14A C18A 180.0 . . . . ?
C13A C14A C15A N2A 180.0 . . . . ?
C18A C14A C15A N2A 0.0 . . . . ?
C13A C14A C15A C10A 0.0 . . . . ?
C18A C14A C15A C10A 180.0 . . . . ?
C11A C10A C15A N2A 180.0 . . . . ?
Hg1A C10A C15A N2A 14(3) . . . . ?
C11A C10A C15A C14A 0.0 . . . . ?
Hg1A C10A C15A C14A -166(3) . . . . ?
C14A C15A N2A C16A 0.0 . . . . ?
C10A C15A N2A C16A 180.0 . . . . ?
C14A C15A N2A Cu1A 176(4) . . . . ?
C10A C15A N2A Cu1A -4(4) . . . . ?
C15A N2A C16A C17A 0.0 . . . . ?
Cu1A N2A C16A C17A -177(3) . . . . ?
N2A C16A C17A C18A 0.0 . . . . ?
C16A C17A C18A C14A 0.0 . . . . ?
C15A C14A C18A C17A 0.0 . . . . ?
C13A C14A C18A C17A 180.0 . . . . ?
