#------------------------------------------------------------------------------
#$Date: 2020-11-06 14:09:13 +0200 (Fri, 06 Nov 2020) $
#$Revision: 258819 $
#$URL: file:///home/coder/svn-repositories/cod/cif/7/70/54/7705494.cif $
#------------------------------------------------------------------------------
#
# This file is available in the Crystallography Open Database (COD),
# http://www.crystallography.net/
#
# All data on this site have been placed in the public domain by the
# contributors.
#
data_7705494
loop_
_publ_author_name
'Kirkman-Davis, Emma'
'Witkos, Faith E.'
'Selmani, Veli'
'Monroe, Jeffrey C.'
'Landee, Christopher P.'
'Turnbull, Mark M.'
'Dawe, Louise N.'
'Polson, Matthew I. J.'
'Wikaira, Jan L.'
_publ_section_title
;
 Pyrazine-bridged Cu(ii) chains: diaquabis(n-methyl-2-pyridone)copper(ii)
 perchlorate complexes.
;
_journal_issue                   39
_journal_name_full
'Dalton transactions (Cambridge, England : 2003)'
_journal_page_first              13693
_journal_page_last               13703
_journal_paper_doi               10.1039/d0dt02716b
_journal_volume                  49
_journal_year                    2020
_chemical_formula_sum            'C16 H22 Cl2 Cu N4 O12'
_chemical_formula_weight         596.81
_space_group_crystal_system      triclinic
_space_group_IT_number           2
_space_group_name_Hall           '-P 1'
_space_group_name_H-M_alt        'P -1'
_atom_sites_solution_hydrogens   mixed
_atom_sites_solution_primary     direct
_atom_sites_solution_secondary   difmap
_audit_creation_method           SHELXL-2016/4
_audit_update_record
;
2020-09-10 deposited with the CCDC.	2020-09-23 downloaded from the CCDC.
;
_cell_angle_alpha                90.864(15)
_cell_angle_beta                 99.515(17)
_cell_angle_gamma                93.963(16)
_cell_formula_units_Z            1
_cell_length_a                   6.8276(15)
_cell_length_b                   8.1623(12)
_cell_length_c                   10.464(2)
_cell_measurement_reflns_used    1876
_cell_measurement_temperature    280.00(10)
_cell_measurement_theta_max      28.8270
_cell_measurement_theta_min      3.8440
_cell_volume                     573.54(19)
_computing_cell_refinement       'CrysAlisPro 1.171.40.67a (Rigaku OD, 2019)'
_computing_data_collection       'CrysAlisPro 1.171.40.67a (Rigaku OD, 2019)'
_computing_data_reduction        'CrysAlisPro 1.171.40.67a (Rigaku OD, 2019)'
_computing_structure_refinement  'SHELXL-2016/4 (Sheldrick, 2016)'
_computing_structure_solution    'SHELXS-97 (Sheldrick, 2008)'
_diffrn_ambient_environment      air
_diffrn_ambient_temperature      280.00(10)
_diffrn_detector                 'CCD plate'
_diffrn_detector_area_resol_mean 10.6501
_diffrn_detector_type            Atlas
_diffrn_measured_fraction_theta_full 0.998
_diffrn_measured_fraction_theta_max 0.998
_diffrn_measurement_device       'four-circle diffractometer'
_diffrn_measurement_device_type  'SuperNova, Dual, Cu at home/near, Atlas'
_diffrn_radiation_monochromator  mirror
_diffrn_radiation_probe          x-ray
_diffrn_radiation_type           'Mo K\a'
_diffrn_radiation_wavelength     0.71073
_diffrn_reflns_av_unetI/netI     0.0509
_diffrn_reflns_Laue_measured_fraction_full 0.998
_diffrn_reflns_Laue_measured_fraction_max 0.998
_diffrn_reflns_limit_h_max       8
_diffrn_reflns_limit_h_min       -7
_diffrn_reflns_limit_k_max       10
_diffrn_reflns_limit_k_min       -10
_diffrn_reflns_limit_l_max       13
_diffrn_reflns_limit_l_min       -13
_diffrn_reflns_number            4052
_diffrn_reflns_point_group_measured_fraction_full 0.998
_diffrn_reflns_point_group_measured_fraction_max 0.998
_diffrn_reflns_theta_full        25.242
_diffrn_reflns_theta_max         26.368
_diffrn_reflns_theta_min         3.332
_diffrn_source                   'micro-focus sealed X-ray tube'
_diffrn_source_type              'SuperNova (Mo) X-ray Source'
_exptl_absorpt_coefficient_mu    1.256
_exptl_absorpt_correction_T_max  1.000
_exptl_absorpt_correction_T_min  0.437
_exptl_absorpt_correction_type   gaussian
_exptl_absorpt_process_details
;
CrysAlisPro 1.171.40.67a (Rigaku Oxford Diffraction, 2019)
Numerical absorption correction based on gaussian integration over
			a multifaceted crystal model
Empirical absorption correction using spherical harmonics,
 implemented in SCALE3 ABSPACK scaling algorithm.
;
_exptl_crystal_colour            blue-green
_exptl_crystal_density_diffrn    1.728
_exptl_crystal_description       prism
_exptl_crystal_F_000             305
_exptl_crystal_preparation       'Magnetic properties'
_exptl_crystal_size_max          0.495
_exptl_crystal_size_mid          0.128
_exptl_crystal_size_min          0.072
_refine_diff_density_max         1.458
_refine_diff_density_min         -0.633
_refine_diff_density_rms         0.113
_refine_ls_extinction_method     none
_refine_ls_goodness_of_fit_ref   0.968
_refine_ls_hydrogen_treatment    mixed
_refine_ls_matrix_type           full
_refine_ls_number_parameters     208
_refine_ls_number_reflns         4052
_refine_ls_number_restraints     2
_refine_ls_restrained_S_all      0.968
_refine_ls_R_factor_all          0.0866
_refine_ls_R_factor_gt           0.0640
_refine_ls_shift/su_max          0.000
_refine_ls_shift/su_mean         0.000
_refine_ls_structure_factor_coef Fsqd
_refine_ls_weighting_details
'w=1/[\s^2^(Fo^2^)+(0.1194P)^2^] where P=(Fo^2^+2Fc^2^)/3'
_refine_ls_weighting_scheme      calc
_refine_ls_wR_factor_gt          0.1596
_refine_ls_wR_factor_ref         0.1707
_reflns_Friedel_coverage         0.000
_reflns_number_gt                2869
_reflns_number_total             4052
_reflns_threshold_expression     'I > 2\s(I)'
_cod_data_source_file            d0dt02716b2.cif
_cod_data_source_block           ekdoa
_cod_depositor_comments
'Adding full bibliography for 7705494--7705499.cif.'
_cod_original_cell_volume        573.55(19)
_cod_database_code               7705494
_shelx_shelxl_version_number     2016/4
_shelx_space_group_comment
;
The symmetry employed for this shelxl refinement is uniquely defined
by the following loop, which should always be used as a source of
symmetry information in preference to the above space-group names.
They are only intended as comments.
;
_shelx_res_file
;
TITL EKDOa in P-1
 ekdoa.res created by SHELXL-2016/4 at 16:16:33 on 10-Sep-2020
REM P-1 (#2 in standard setting)
CELL 0.71073 6.827585 8.162264 10.464159 90.8637 99.5151 93.9628
ZERR 1 0.001524 0.001209 0.002021 0.0146 0.0174 0.0165
LATT 1
SFAC C H N O Cl Cu
UNIT 16 22 4 12 2 1
DFIX 0.85 O1W H1Wa O1W H1Wb

L.S. 20
PLAN  25
CONF
BOND $H
acta
SHEL 9999 0.8

WGHT    0.119400
BASF   0.37179
FVAR       8.59664   0.43428
CU1   6   -0.500000    0.500000    0.500000    10.50000    0.01444    0.04898 =
         0.03865    0.00392    0.00547    0.00474
N1    3   -0.201379    0.498775    0.499521    11.00000    0.02037    0.02983 =
         0.02818    0.00324    0.00393    0.00398
C2    1   -0.091152    0.390421    0.568190    11.00000    0.02186    0.03638 =
         0.04244    0.00444    0.01027    0.00268
AFIX  43
H2    2   -0.151618    0.313081    0.616320    11.00000   -1.20000
AFIX   0
C3    1   -0.109649    0.607536    0.431817    11.00000    0.02038    0.03463 =
         0.04226    0.00383    0.00495    0.00656
AFIX  43
H3    2   -0.183409    0.683754    0.383497    11.00000   -1.20000
AFIX   0
N11   3   -0.346934    0.648003    0.807490    11.00000    0.04127    0.04530 =
         0.05083    0.00298    0.00640    0.00821
H11   2   -0.388629    0.703584    0.745960    11.00000   -1.20000
C12   1   -0.380172    0.483561    0.788124    11.00000    0.01525    0.04583 =
         0.04247   -0.00066    0.01195    0.00308
O12   4   -0.462191    0.423749    0.676201    11.00000    0.02206    0.04853 =
         0.03985    0.00396    0.00450    0.00375
C13   1   -0.320427    0.383442    0.894773    11.00000    0.02478    0.04715 =
         0.03884    0.00207    0.01038    0.00504
C14   1   -0.241812    0.459808    1.011511    11.00000    0.03225    0.06658 =
         0.04343    0.00153    0.00598    0.01018
AFIX  43
H14   2   -0.205270    0.395782    1.083122    11.00000   -1.20000
AFIX   0
C15   1   -0.215134    0.629403    1.026077    11.00000    0.04107    0.07054 =
         0.05039   -0.01862    0.00902    0.00056
AFIX  43
H15   2   -0.162658    0.677941    1.106543    11.00000   -1.20000
AFIX   0
C16   1   -0.265113    0.721966    0.924211    11.00000    0.04675    0.05103 =
         0.06526   -0.01289    0.01344    0.00085
AFIX  43
H16   2   -0.244759    0.835763    0.932074    11.00000   -1.20000
AFIX   0
C17   1   -0.348883    0.201938    0.875043    11.00000    0.05524    0.05091 =
         0.05509    0.00661    0.00887    0.00877
AFIX 137
H17A  2   -0.259548    0.166489    0.820100    11.00000   -1.20000
H17B  2   -0.483747    0.171900    0.835017    11.00000   -1.20000
H17C  2   -0.321716    0.150291    0.957279    11.00000   -1.20000
AFIX   0

O1W   4   -0.453579    0.797535    0.566629    11.00000    0.04465    0.04512 =
         0.06782    0.00942    0.01838    0.00275
H1WA  2   -0.544280    0.856133    0.579360    11.00000   -1.20000
H1WB  2   -0.365773    0.862410    0.547778    11.00000   -1.20000
CL1   5    0.121679    0.932694    0.709186    11.00000    0.06362    0.04125 =
         0.05201   -0.00308   -0.00338    0.00022
PART 1
O1    4   -0.008164    0.807315    0.671783    21.00000    0.09801    0.08976 =
         0.10754   -0.04388    0.04416   -0.06835
O2    4    0.294049    0.877981    0.794277    21.00000    0.07162    0.16374 =
         0.08263    0.05933   -0.00420    0.01748
O3    4    0.065309    1.073301    0.742824    21.00000    0.17274    0.05621 =
         0.12965   -0.00739    0.09043    0.02856
O4    4    0.261539    1.006923    0.649090    21.00000    0.04808    0.06308 =
         0.08605    0.00624    0.02100   -0.01160
PART 2
O1'   4    0.094958    0.760098    0.710295   -21.00000    0.14705    0.05020 =
         0.08406   -0.00391    0.03486    0.00851
O2'   4    0.148736    0.992073    0.842543   -21.00000    0.15640    0.09033 =
         0.06343   -0.03249   -0.00105   -0.01744
O3'   4   -0.082639    0.986097    0.660139   -21.00000    0.03991    0.12204 =
         0.13120    0.00335    0.00489    0.01656
O4'   4    0.221352    0.968310    0.592831   -21.00000    0.04793    0.07088 =
         0.09085    0.02044    0.02346    0.01233
HKLF 5




REM  EKDOa in P-1
REM R1 =  0.0640 for    2869 Fo > 4sig(Fo)  and  0.0866 for all    4052 data
REM    208 parameters refined using      2 restraints

END

WGHT      0.1194      0.0000

REM Highest difference peak  1.458,  deepest hole -0.633,  1-sigma level  0.113
Q1    1  -0.3315  0.5038  0.4989  11.00000  0.05    1.46
Q2    1   0.0000  0.5000  0.5000  10.50000  0.05    1.38
Q3    1  -0.4671  0.4671  0.5914  11.00000  0.05    0.85
Q4    1   0.3013  0.9379  0.7186  11.00000  0.05    0.65
Q5    1  -0.2086  0.9335  0.7077  11.00000  0.05    0.61
Q6    1   0.4373  0.9333  0.7022  11.00000  0.05    0.53
Q7    1  -0.3851  0.9285  0.7008  11.00000  0.05    0.50
Q8    1  -0.4152  0.4346  0.6845  11.00000  0.05    0.49
Q9    1  -0.0430  0.9223  0.7005  11.00000  0.05    0.48
Q10   1   0.1304  1.0013  0.6373  11.00000  0.05    0.41
Q11   1  -0.2497  0.5870  0.4221  11.00000  0.05    0.39
Q12   1  -0.3792  0.7053  0.6323  11.00000  0.05    0.38
Q13   1   0.0363  0.4193  0.6756  11.00000  0.05    0.35
Q14   1  -0.2372  0.3150  1.0821  11.00000  0.05    0.34
Q15   1  -0.1453  0.4250  0.6792  11.00000  0.05    0.34
Q16   1   0.2306  0.9400  0.8445  11.00000  0.05    0.33
Q17   1  -0.2978  0.3694  0.9581  11.00000  0.05    0.32
Q18   1   0.1682  0.8513  0.8815  11.00000  0.05    0.32
Q19   1  -0.3802  0.3402  0.8845  11.00000  0.05    0.32
Q20   1   0.2512  0.7863  0.7403  11.00000  0.05    0.31
Q21   1  -0.2406  0.5440  0.9759  11.00000  0.05    0.31
Q22   1  -0.1302  0.3628  0.5623  11.00000  0.05    0.29
Q23   1  -0.0645  0.5106  0.6087  11.00000  0.05    0.29
Q24   1  -0.2232  0.5754  0.3158  11.00000  0.05    0.28
Q25   1  -0.4142  0.8003  0.6993  11.00000  0.05    0.28
;
_shelx_res_checksum              40981
loop_
_space_group_symop_operation_xyz
'x, y, z'
'-x, -y, -z'
loop_
_atom_site_label
_atom_site_type_symbol
_atom_site_fract_x
_atom_site_fract_y
_atom_site_fract_z
_atom_site_U_iso_or_equiv
_atom_site_adp_type
_atom_site_occupancy
_atom_site_site_symmetry_order
_atom_site_calc_flag
_atom_site_refinement_flags_posn
_atom_site_refinement_flags_adp
_atom_site_refinement_flags_occupancy
_atom_site_disorder_assembly
_atom_site_disorder_group
CU1 Cu -0.500000 0.500000 0.500000 0.0338(3) Uani 1 2 d S . P . .
N1 N -0.2014(5) 0.4988(4) 0.4995(3) 0.0260(7) Uani 1 1 d . . . . .
C2 C -0.0912(6) 0.3904(5) 0.5682(4) 0.0329(10) Uani 1 1 d . . . . .
H2 H -0.151618 0.313081 0.616320 0.040 Uiso 1 1 calc R U . . .
C3 C -0.1096(6) 0.6075(5) 0.4318(4) 0.0322(10) Uani 1 1 d . . . . .
H3 H -0.183409 0.683754 0.383497 0.039 Uiso 1 1 calc R U . . .
N11 N -0.3469(6) 0.6480(5) 0.8075(4) 0.0457(10) Uani 1 1 d . . . . .
H11 H -0.389(8) 0.704(7) 0.746(6) 0.055 Uiso 1 1 d . U . . .
C12 C -0.3802(6) 0.4836(5) 0.7881(4) 0.0337(10) Uani 1 1 d . . . . .
O12 O -0.4622(5) 0.4237(4) 0.6762(3) 0.0368(7) Uani 1 1 d . . . . .
C13 C -0.3204(7) 0.3834(6) 0.8948(4) 0.0362(10) Uani 1 1 d . . . . .
C14 C -0.2418(7) 0.4598(7) 1.0115(5) 0.0471(12) Uani 1 1 d . . . . .
H14 H -0.205270 0.395782 1.083122 0.057 Uiso 1 1 calc R U . . .
C15 C -0.2151(8) 0.6294(7) 1.0261(5) 0.0542(14) Uani 1 1 d . . . . .
H15 H -0.162658 0.677941 1.106543 0.065 Uiso 1 1 calc R U . . .
C16 C -0.2651(8) 0.7220(7) 0.9242(6) 0.0542(14) Uani 1 1 d . . . . .
H16 H -0.244759 0.835763 0.932074 0.065 Uiso 1 1 calc R U . . .
C17 C -0.3489(9) 0.2019(7) 0.8750(5) 0.0535(13) Uani 1 1 d . . . . .
H17A H -0.259548 0.166489 0.820100 0.064 Uiso 1 1 calc R U . . .
H17B H -0.483747 0.171900 0.835017 0.064 Uiso 1 1 calc R U . . .
H17C H -0.321716 0.150291 0.957279 0.064 Uiso 1 1 calc R U . . .
O1W O -0.4536(6) 0.7975(5) 0.5666(4) 0.0515(9) Uani 1 1 d D . . . .
H1WA H -0.544(7) 0.856(6) 0.579(5) 0.062 Uiso 1 1 d D U . . .
H1WB H -0.366(7) 0.862(6) 0.548(5) 0.062 Uiso 1 1 d D U . . .
CL1 Cl 0.1217(2) 0.93269(15) 0.70919(13) 0.0540(4) Uani 1 1 d . . . . .
O1 O -0.008(3) 0.807(2) 0.6718(19) 0.099(7) Uani 0.434(12) 1 d . . P A 1
O2 O 0.2940(19) 0.878(2) 0.7943(12) 0.107(6) Uani 0.434(12) 1 d . . P A 1
O3 O 0.065(3) 1.0733(14) 0.7428(16) 0.111(7) Uani 0.434(12) 1 d . . P A 1
O4 O 0.262(3) 1.007(2) 0.6491(18) 0.065(4) Uani 0.434(12) 1 d . . P A 1
O1' O 0.095(3) 0.7601(15) 0.7103(15) 0.092(5) Uani 0.566(12) 1 d . . P A 2
O2' O 0.1487(19) 0.9921(14) 0.8425(9) 0.107(5) Uani 0.566(12) 1 d . . P A 2
O3' O -0.0826(13) 0.9861(15) 0.6601(11) 0.098(4) Uani 0.566(12) 1 d . . P A 2
O4' O 0.221(2) 0.9683(19) 0.5928(14) 0.068(3) Uani 0.566(12) 1 d . . P A 2
loop_
_atom_site_aniso_label
_atom_site_aniso_U_11
_atom_site_aniso_U_22
_atom_site_aniso_U_33
_atom_site_aniso_U_23
_atom_site_aniso_U_13
_atom_site_aniso_U_12
CU1 0.0144(4) 0.0490(5) 0.0386(5) 0.0039(3) 0.0055(3) 0.0047(3)
N1 0.0204(16) 0.0298(17) 0.0282(17) 0.0032(14) 0.0039(13) 0.0040(13)
C2 0.022(2) 0.036(2) 0.042(2) 0.0044(19) 0.0103(18) 0.0027(17)
C3 0.020(2) 0.035(2) 0.042(2) 0.0038(19) 0.0049(18) 0.0066(17)
N11 0.041(3) 0.045(2) 0.051(3) 0.0030(19) 0.0064(19) 0.0082(19)
C12 0.015(2) 0.046(3) 0.042(2) -0.001(2) 0.0120(17) 0.0031(18)
O12 0.0221(16) 0.0485(18) 0.0399(17) 0.0040(14) 0.0045(13) 0.0037(13)
C13 0.025(2) 0.047(3) 0.039(2) 0.002(2) 0.0104(19) 0.005(2)
C14 0.032(3) 0.067(3) 0.043(3) 0.002(2) 0.006(2) 0.010(2)
C15 0.041(3) 0.071(4) 0.050(3) -0.019(3) 0.009(2) 0.001(3)
C16 0.047(4) 0.051(3) 0.065(3) -0.013(3) 0.013(3) 0.001(2)
C17 0.055(3) 0.051(3) 0.055(3) 0.007(2) 0.009(3) 0.009(2)
O1W 0.045(2) 0.045(2) 0.068(2) 0.0094(17) 0.0184(19) 0.0027(16)
CL1 0.0636(10) 0.0413(7) 0.0520(8) -0.0031(6) -0.0034(6) 0.0002(6)
O1 0.098(14) 0.090(15) 0.108(13) -0.044(10) 0.044(10) -0.068(11)
O2 0.072(9) 0.164(14) 0.083(9) 0.059(9) -0.004(6) 0.017(8)
O3 0.173(18) 0.056(7) 0.130(14) -0.007(8) 0.090(13) 0.029(8)
O4 0.048(9) 0.063(9) 0.086(12) 0.006(8) 0.021(8) -0.012(6)
O1' 0.147(16) 0.050(5) 0.084(8) -0.004(5) 0.035(8) 0.009(7)
O2' 0.156(12) 0.090(7) 0.063(6) -0.032(5) -0.001(6) -0.017(7)
O3' 0.040(5) 0.122(10) 0.131(9) 0.003(7) 0.005(5) 0.017(5)
O4' 0.048(7) 0.071(8) 0.091(10) 0.020(6) 0.023(7) 0.012(6)
loop_
_atom_type_symbol
_atom_type_description
_atom_type_scat_dispersion_real
_atom_type_scat_dispersion_imag
_atom_type_scat_source
C C 0.0033 0.0016 'International Tables Vol C Tables 4.2.6.8 and 6.1.1.4'
H H 0.0000 0.0000 'International Tables Vol C Tables 4.2.6.8 and 6.1.1.4'
N N 0.0061 0.0033 'International Tables Vol C Tables 4.2.6.8 and 6.1.1.4'
O O 0.0106 0.0060 'International Tables Vol C Tables 4.2.6.8 and 6.1.1.4'
Cl Cl 0.1484 0.1585 'International Tables Vol C Tables 4.2.6.8 and 6.1.1.4'
Cu Cu 0.3201 1.2651 'International Tables Vol C Tables 4.2.6.8 and 6.1.1.4'
loop_
_geom_angle_atom_site_label_1
_geom_angle_atom_site_label_2
_geom_angle_atom_site_label_3
_geom_angle
_geom_angle_site_symmetry_1
_geom_angle_site_symmetry_3
_geom_angle_publ_flag
O12 CU1 O12 180.00(18) 2_466 . ?
O12 CU1 N1 89.86(13) 2_466 . ?
O12 CU1 N1 90.14(13) . . ?
O12 CU1 N1 90.14(13) 2_466 2_466 ?
O12 CU1 N1 89.86(13) . 2_466 ?
N1 CU1 N1 180.0 . 2_466 ?
C3 N1 C2 117.9(3) . . ?
C3 N1 CU1 120.7(3) . . ?
C2 N1 CU1 121.4(3) . . ?
N1 C2 C3 120.7(4) . 2_566 ?
N1 C2 H2 119.7 . . ?
C3 C2 H2 119.7 2_566 . ?
N1 C3 C2 121.4(4) . 2_566 ?
N1 C3 H3 119.3 . . ?
C2 C3 H3 119.3 2_566 . ?
C12 N11 C16 123.9(5) . . ?
C12 N11 H11 116(4) . . ?
C16 N11 H11 120(4) . . ?
O12 C12 N11 120.1(4) . . ?
O12 C12 C13 122.5(4) . . ?
N11 C12 C13 117.3(4) . . ?
C12 O12 CU1 136.0(3) . . ?
C14 C13 C12 117.9(4) . . ?
C14 C13 C17 123.6(5) . . ?
C12 C13 C17 118.5(4) . . ?
C13 C14 C15 122.1(5) . . ?
C13 C14 H14 119.0 . . ?
C15 C14 H14 119.0 . . ?
C16 C15 C14 119.5(5) . . ?
C16 C15 H15 120.3 . . ?
C14 C15 H15 120.3 . . ?
C15 C16 N11 119.3(5) . . ?
C15 C16 H16 120.4 . . ?
N11 C16 H16 120.4 . . ?
C13 C17 H17A 109.5 . . ?
C13 C17 H17B 109.5 . . ?
H17A C17 H17B 109.5 . . ?
C13 C17 H17C 109.5 . . ?
H17A C17 H17C 109.5 . . ?
H17B C17 H17C 109.5 . . ?
H1WA O1W H1WB 105(6) . . ?
O3a CL1 O1 121.4(13) . . ?
O3a CL1 O4 91.4(11) . . ?
O1a CL1 O4 130.6(11) . . ?
O1'b CL1 O2' 107.2(8) . . ?
O3a CL1 O2 114.5(11) . . ?
O1a CL1 O2 110.2(12) . . ?
O4a CL1 O2 82.9(10) . . ?
O1'b CL1 O3' 104.2(8) . . ?
O2'b CL1 O3' 100.3(7) . . ?
O1'b CL1 O4' 104.7(9) . . ?
O2'b CL1 O4' 136.0(8) . . ?
O3'b CL1 O4' 100.2(7) . . ?
loop_
_geom_bond_atom_site_label_1
_geom_bond_atom_site_label_2
_geom_bond_distance
_geom_bond_site_symmetry_2
_geom_bond_publ_flag
CU1 O12 1.937(3) 2_466 ?
CU1 O12 1.937(3) . ?
CU1 N1 2.040(3) . ?
CU1 N1 2.040(3) 2_466 ?
N1 C3 1.331(5) . ?
N1 C2 1.341(5) . ?
C2 C3 1.370(5) 2_566 ?
C2 H2 0.9300 . ?
C3 C2 1.370(5) 2_566 ?
C3 H3 0.9300 . ?
N11 C12 1.352(6) . ?
N11 C16 1.369(7) . ?
N11 H11 0.82(6) . ?
C12 O12 1.285(5) . ?
C12 C13 1.415(6) . ?
C13 C14 1.372(7) . ?
C13 C17 1.488(7) . ?
C14 C15 1.386(8) . ?
C14 H14 0.9300 . ?
C15 C16 1.328(8) . ?
C15 H15 0.9300 . ?
C16 H16 0.9300 . ?
C17 H17A 0.9600 . ?
C17 H17B 0.9600 . ?
C17 H17C 0.9600 . ?
O1W H1WA 0.83(3) . ?
O1W H1WB 0.82(3) . ?
CL1 O3 1.297(10) . ?
CL1 O1 1.317(14) . ?
CL1 O4 1.34(2) . ?
CL1 O1' 1.408(13) . ?
CL1 O2' 1.449(9) . ?
CL1 O2 1.454(11) . ?
CL1 O3' 1.501(9) . ?
CL1 O4' 1.512(16) . ?
loop_
_geom_torsion_atom_site_label_1
_geom_torsion_atom_site_label_2
_geom_torsion_atom_site_label_3
_geom_torsion_atom_site_label_4
_geom_torsion
_geom_torsion_site_symmetry_1
_geom_torsion_site_symmetry_2
_geom_torsion_site_symmetry_3
_geom_torsion_site_symmetry_4
_geom_torsion_publ_flag
C3 N1 C2 C3 0.0(6) . . . 2_566 ?
CU1 N1 C2 C3 -179.2(3) . . . 2_566 ?
C2 N1 C3 C2 0.0(6) . . . 2_566 ?
CU1 N1 C3 C2 179.2(3) . . . 2_566 ?
C16 N11 C12 O12 178.3(4) . . . . ?
C16 N11 C12 C13 -2.0(7) . . . . ?
N11 C12 O12 CU1 20.1(6) . . . . ?
C13 C12 O12 CU1 -159.6(3) . . . . ?
O12 C12 C13 C14 -177.3(4) . . . . ?
N11 C12 C13 C14 3.0(6) . . . . ?
O12 C12 C13 C17 1.7(7) . . . . ?
N11 C12 C13 C17 -177.9(4) . . . . ?
C12 C13 C14 C15 -1.8(7) . . . . ?
C17 C13 C14 C15 179.2(5) . . . . ?
C13 C14 C15 C16 -0.6(8) . . . . ?
C14 C15 C16 N11 1.7(8) . . . . ?
C12 N11 C16 C15 -0.4(8) . . . . ?
