#------------------------------------------------------------------------------
#$Date: 2020-10-06 11:36:15 +0300 (Tue, 06 Oct 2020) $
#$Revision: 257509 $
#$URL: file:///home/coder/svn-repositories/cod/cif/7/70/53/7705386.cif $
#------------------------------------------------------------------------------
#
# This file is available in the Crystallography Open Database (COD),
# http://www.crystallography.net/
#
# All data on this site have been placed in the public domain by the
# contributors.
#
data_7705386
loop_
_publ_author_name
'Hammoud, Joanna'
'Abou-Khalil, Fatima'
'Roisnel, Thierry'
'Dorcet, Vincent'
'Bour, Christophe'
'Gandon, Vincent'
'Leb&#x0153;uf, David'
'Carpentier, Jean-Fran\,cois'
'Sarazin, Yann'
_publ_section_title
;
 Alkaline-earth complexes with macrocyclic-functionalised bis(phenolate)s
 and bis(fluoroalkoxide)s.
;
_journal_issue                   37
_journal_name_full
'Dalton transactions (Cambridge, England : 2003)'
_journal_page_first              13017
_journal_page_last               13028
_journal_paper_doi               10.1039/d0dt02573a
_journal_volume                  49
_journal_year                    2020
_chemical_compound_source        'synthesis as described'
_chemical_formula_moiety         'C20 H30 F12 N2 O6'
_chemical_formula_sum            'C20 H30 F12 N2 O6'
_chemical_formula_weight         622.46
_space_group_crystal_system      triclinic
_space_group_IT_number           2
_space_group_name_Hall           '-P 1'
_space_group_name_H-M_alt        'P -1'
_atom_sites_solution_hydrogens   mixed
_audit_update_record
;
2020-06-12 deposited with the CCDC.	2020-09-07 downloaded from the CCDC.
;
_cell_angle_alpha                114.820(8)
_cell_angle_beta                 95.801(7)
_cell_angle_gamma                99.354(8)
_cell_formula_units_Z            1
_cell_length_a                   5.5168(9)
_cell_length_b                   10.777(2)
_cell_length_c                   12.424(3)
_cell_measurement_reflns_used    2810
_cell_measurement_temperature    150(2)
_cell_measurement_theta_max      27.4666
_cell_measurement_theta_min      3.3346
_cell_measurement_wavelength     0.71073
_cell_volume                     649.6(2)
_computing_cell_refinement       'APEX3 (Bruker, 2015); SAINT (Bruker, 2014)'
_computing_data_collection       'SAINT (Bruker, 2014)'
_computing_data_reduction        'SAINT (Bruker, 2014)'
_computing_molecular_graphics
'SXGRAPH (Farrugia, 1999), Mercury (CSD, 2016)'
_computing_publication_material  'CRYSCALC (T. Roisnel, local program, 2018)'
_computing_structure_refinement  'SHELXL-2017_1 (Sheldrick, 2017)'
_computing_structure_solution    'SHELXT (Sheldrick, 2015)'
_diffrn_ambient_temperature      150(2)
_diffrn_detector                 '(CMOS) PHOTON 100'
_diffrn_measured_fraction_theta_full 0.957
_diffrn_measured_fraction_theta_max 0.953
_diffrn_measurement_device_type  'D8 VENTURE Bruker AXS'
_diffrn_measurement_method       'rotation images'
_diffrn_radiation_monochromator  'multilayer monochromator'
_diffrn_radiation_probe          x-ray
_diffrn_radiation_source         'Incoatec microfocus sealed tube'
_diffrn_radiation_type           MoK\a
_diffrn_radiation_wavelength     0.71073
_diffrn_reflns_av_R_equivalents  0.1527
_diffrn_reflns_av_unetI/netI     0.1062
_diffrn_reflns_limit_h_max       6
_diffrn_reflns_limit_h_min       -7
_diffrn_reflns_limit_k_max       13
_diffrn_reflns_limit_k_min       -13
_diffrn_reflns_limit_l_max       16
_diffrn_reflns_limit_l_min       -16
_diffrn_reflns_number            14190
_diffrn_reflns_theta_full        25.242
_diffrn_reflns_theta_max         27.484
_diffrn_reflns_theta_min         3.335
_exptl_absorpt_coefficient_mu    0.169
_exptl_absorpt_correction_T_max  0.997
_exptl_absorpt_correction_T_min  0.749
_exptl_absorpt_correction_type   multi-scan
_exptl_absorpt_process_details
;
  [Sheldrick, G.M. (2014). SADABS Bruker AXS Inc., Madison, Wisconsin, USA]
;
_exptl_crystal_colour            colourless
_exptl_crystal_density_diffrn    1.591
_exptl_crystal_description       stick
_exptl_crystal_F_000             320
_exptl_crystal_size_max          0.600
_exptl_crystal_size_mid          0.040
_exptl_crystal_size_min          0.020
_refine_diff_density_max         0.355
_refine_diff_density_min         -0.365
_refine_diff_density_rms         0.085
_refine_ls_extinction_method     none
_refine_ls_goodness_of_fit_ref   1.019
_refine_ls_hydrogen_treatment    mixed
_refine_ls_matrix_type           full
_refine_ls_number_parameters     184
_refine_ls_number_reflns         2845
_refine_ls_number_restraints     0
_refine_ls_restrained_S_all      1.019
_refine_ls_R_factor_all          0.1366
_refine_ls_R_factor_gt           0.0688
_refine_ls_shift/su_max          0.008
_refine_ls_shift/su_mean         0.001
_refine_ls_structure_factor_coef Fsqd
_refine_ls_weighting_details
'w=1/[\s^2^(Fo^2^)+(0.0842P)^2^+0.0783P] where P=(Fo^2^+2Fc^2^)/3'
_refine_ls_weighting_scheme      calc
_refine_ls_wR_factor_gt          0.1474
_refine_ls_wR_factor_ref         0.1770
_reflns_Friedel_coverage         0.000
_reflns_number_gt                1684
_reflns_number_total             2845
_reflns_threshold_expression     >2sigma(I)
_cod_data_source_file            d0dt02573a2.cif
_cod_data_source_block           JH014
_cod_depositor_comments
'Adding full bibliography for 7705378--7705389.cif.'
_cod_database_code               7705386
_shelx_res_file
;
TITL import_a.res in P-1
    job.res
    created by SHELXL-2017/1 at 10:04:38 on 08-Mar-2018
CELL  0.71073   5.5168  10.7771  12.4243  114.820   95.801   99.354
ZERR     1.00   0.0009   0.0024   0.0026    0.008    0.007    0.008
LATT   1
SFAC  C    H    F    N    O
UNIT  20   30   12   2    6
MERG   2
EQIV $2 x+1, y, z
HTAB C13 O2_$2
EQIV $1 -x+1, -y+1, -z+1
HTAB C14 O19_$1
FMAP   2
PLAN   20
SIZE     0.02   0.04   0.60
ACTA
BOND   $H
CONF
LIST   4
WPDB  -2
L.S.   4
TEMP  -123.00
WGHT    0.084200    0.078300
FVAR       0.99467
C1    1    0.231183    0.781786    0.224907    11.00000    0.01140    0.02134 =
         0.01453    0.00879    0.00117    0.00300
O2    5    0.023775    0.690275    0.226335    11.00000    0.01298    0.02495 =
         0.03320    0.01211    0.00172    0.00423
AFIX   2
H2    2    0.091719    0.634951    0.243947    11.00000   -1.20000
AFIX   0
C3    1    0.226184    0.928711    0.315923    11.00000    0.01884    0.02764 =
         0.02775    0.01103    0.00114    0.00522
F4    3    0.416980    1.025481    0.321843    11.00000    0.02975    0.02502 =
         0.06283    0.01829    0.00161   -0.00303
F5    3    0.015374    0.967690    0.293719    11.00000    0.02857    0.02885 =
         0.04510    0.01143    0.00357    0.01561
F6    3    0.240493    0.936546    0.427107    11.00000    0.04592    0.04163 =
         0.01745    0.00331    0.00410    0.01585
C7    1    0.207970    0.769591    0.097273    11.00000    0.03865    0.04966 =
         0.02319    0.01948    0.00686    0.02813
F8    3   -0.001459    0.799617    0.062127    11.00000    0.06027    0.08746 =
         0.02818    0.02559   -0.00113    0.04931
F9    3    0.398322    0.853900    0.086329    11.00000    0.06993    0.08712 =
         0.05586    0.05809    0.02944    0.02891
F10   3    0.206113    0.639197    0.019179    11.00000    0.06629    0.06545 =
         0.01378    0.00911    0.00400    0.03940
C11   1    0.478953    0.741358    0.260217    11.00000    0.01133    0.02577 =
         0.01789    0.01136    0.00133    0.00141
AFIX  23
H11A  2    0.572971    0.717489    0.193161    11.00000   -1.20000
H11B  2    0.586589    0.821358    0.332660    11.00000   -1.20000
AFIX   0
N12   4    0.409881    0.621588    0.284740    11.00000    0.01817    0.01971 =
         0.01102    0.00872    0.00334    0.00456
C13   1    0.446234    0.488654    0.191718    11.00000    0.02022    0.02639 =
         0.01114    0.00677    0.00094    0.00354
AFIX  23
H13A  2    0.627656    0.493987    0.193974    11.00000   -1.20000
H13B  2    0.370402    0.476088    0.111077    11.00000   -1.20000
AFIX   0
C14   1    0.332360    0.364097    0.209247    11.00000    0.01701    0.02366 =
         0.01454    0.00722   -0.00128    0.00700
AFIX  23
H14A  2    0.341609    0.276573    0.139628    11.00000   -1.20000
H14B  2    0.425794    0.367583    0.283190    11.00000   -1.20000
AFIX   0
O15   5    0.078013    0.365234    0.219763    11.00000    0.01339    0.02676 =
         0.01872    0.01420   -0.00021    0.00490
C16   1   -0.046482    0.249442    0.236147    11.00000    0.01585    0.02505 =
         0.01855    0.01063   -0.00315   -0.00050
AFIX  23
H16A  2    0.033098    0.169427    0.198772    11.00000   -1.20000
H16B  2   -0.223111    0.220143    0.194184    11.00000   -1.20000
AFIX   0
C17   1    0.485438    0.648367    0.410596    11.00000    0.01866    0.02172 =
         0.01168    0.00710    0.00390    0.00345
AFIX  23
H17A  2    0.394873    0.568334    0.421239    11.00000   -1.20000
H17B  2    0.430372    0.732907    0.463251    11.00000   -1.20000
AFIX   0
C18   1    0.761623    0.669790    0.453877    11.00000    0.02051    0.02618 =
         0.01346    0.01093    0.00495    0.00616
AFIX  23
H18A  2    0.823255    0.586736    0.403506    11.00000   -1.20000
H18B  2    0.857455    0.753266    0.449832    11.00000   -1.20000
AFIX   0
O19   5    0.788181    0.689350    0.575431    11.00000    0.01622    0.03541 =
         0.01284    0.01387    0.00045    0.00270
C20   1    1.038648    0.715921    0.632667    11.00000    0.01743    0.02444 =
         0.01706    0.01092    0.00124    0.00464
AFIX  23
H20A  2    1.141595    0.795427    0.625552    11.00000   -1.20000
H20B  2    1.107983    0.632197    0.593057    11.00000   -1.20000
AFIX   0
HKLF    4




REM  import_a.res in P-1
REM R1 =  0.0688 for    1684 Fo > 4sig(Fo)  and  0.1366 for all    2845 data
REM    184 parameters refined using      0 restraints

END

WGHT      0.0839      0.0593

REM Highest difference peak  0.355,  deepest hole -0.365,  1-sigma level  0.085
Q1    1   0.6105  0.8080  0.2518  11.00000  0.05    0.36
Q2    1   1.1470  0.5141  0.5014  11.00000  0.05    0.32
Q3    1   0.3076  1.1278  0.3319  11.00000  0.05    0.31
Q4    1  -0.0595  0.8821  0.1199  11.00000  0.05    0.31
Q5    1   0.8418  0.4792  0.2445  11.00000  0.05    0.30
Q6    1   0.3376  0.7063  0.0172  11.00000  0.05    0.30
Q7    1   1.1002  0.8552  0.6876  11.00000  0.05    0.29
Q8    1   0.8393  0.8637  0.3574  11.00000  0.05    0.28
Q9    1   0.1365  0.5169 -0.0660  11.00000  0.05    0.27
Q10   1   0.3125  0.5705 -0.0552  11.00000  0.05    0.27
Q11   1   0.1451  0.8463  0.4921  11.00000  0.05    0.26
Q12   1   0.0043  0.0976  0.1984  11.00000  0.05    0.25
Q13   1  -0.1873  0.7171  0.2439  11.00000  0.05    0.25
Q14   1  -0.0075  1.0637  0.3341  11.00000  0.05    0.25
Q15   1   0.0261  0.4277  0.2747  11.00000  0.05    0.25
Q16   1   0.1184  0.4832  0.3405  11.00000  0.05    0.25
Q17   1   1.1815  0.8414  0.6153  11.00000  0.05    0.24
Q18   1  -0.0944  0.7061  0.3149  11.00000  0.05    0.24
Q19   1  -0.2071  0.0972  0.2182  11.00000  0.05    0.24
Q20   1   0.3742  0.7948  0.3041  11.00000  0.05    0.24
;
_shelx_res_checksum              27454
loop_
_space_group_symop_operation_xyz
'x, y, z'
'-x, -y, -z'
loop_
_atom_site_label
_atom_site_type_symbol
_atom_site_fract_x
_atom_site_fract_y
_atom_site_fract_z
_atom_site_U_iso_or_equiv
_atom_site_adp_type
_atom_site_occupancy
_atom_site_site_symmetry_order
_atom_site_calc_flag
_atom_site_refinement_flags_posn
_atom_site_refinement_flags_adp
_atom_site_refinement_flags_occupancy
_atom_site_disorder_assembly
_atom_site_disorder_group
C1 C 0.2312(5) 0.7818(3) 0.2249(3) 0.0157(7) Uani 1 1 d . . . . .
O2 O 0.0238(4) 0.6903(2) 0.2263(2) 0.0242(6) Uani 1 1 d . . . . .
H2 H 0.092(7) 0.635(4) 0.244(3) 0.029 Uiso 1 1 d . U . . .
C3 C 0.2262(6) 0.9287(3) 0.3159(3) 0.0255(8) Uani 1 1 d . . . . .
F4 F 0.4170(4) 1.0255(2) 0.3218(2) 0.0414(6) Uani 1 1 d . . . . .
F5 F 0.0154(4) 0.96769(19) 0.29372(18) 0.0351(5) Uani 1 1 d . . . . .
F6 F 0.2405(4) 0.9365(2) 0.42711(16) 0.0379(6) Uani 1 1 d . . . . .
C7 C 0.2080(7) 0.7696(4) 0.0973(3) 0.0336(9) Uani 1 1 d . . . . .
F8 F -0.0015(4) 0.7996(3) 0.06213(18) 0.0553(7) Uani 1 1 d . . . . .
F9 F 0.3983(5) 0.8539(3) 0.0863(2) 0.0588(7) Uani 1 1 d . . . . .
F10 F 0.2061(4) 0.6392(2) 0.01918(16) 0.0487(7) Uani 1 1 d . . . . .
C11 C 0.4790(5) 0.7414(3) 0.2602(3) 0.0182(7) Uani 1 1 d . . . . .
H11A H 0.572971 0.717489 0.193161 0.022 Uiso 1 1 calc R U . . .
H11B H 0.586589 0.821358 0.332660 0.022 Uiso 1 1 calc R U . . .
N12 N 0.4099(4) 0.6216(2) 0.2847(2) 0.0155(6) Uani 1 1 d . . . . .
C13 C 0.4462(6) 0.4887(3) 0.1917(3) 0.0202(7) Uani 1 1 d . . . . .
H13A H 0.627656 0.493987 0.193974 0.024 Uiso 1 1 calc R U . . .
H13B H 0.370402 0.476088 0.111077 0.024 Uiso 1 1 calc R U . . .
C14 C 0.3324(5) 0.3641(3) 0.2092(3) 0.0189(7) Uani 1 1 d . . . . .
H14A H 0.341609 0.276573 0.139628 0.023 Uiso 1 1 calc R U . . .
H14B H 0.425794 0.367583 0.283190 0.023 Uiso 1 1 calc R U . . .
O15 O 0.0780(4) 0.3652(2) 0.21976(17) 0.0184(5) Uani 1 1 d . . . . .
C16 C -0.0465(6) 0.2494(3) 0.2361(3) 0.0206(7) Uani 1 1 d . . . . .
H16A H 0.033098 0.169427 0.198772 0.025 Uiso 1 1 calc R U . . .
H16B H -0.223111 0.220143 0.194184 0.025 Uiso 1 1 calc R U . . .
C17 C 0.4854(5) 0.6484(3) 0.4106(2) 0.0175(7) Uani 1 1 d . . . . .
H17A H 0.394873 0.568334 0.421239 0.021 Uiso 1 1 calc R U . . .
H17B H 0.430372 0.732907 0.463251 0.021 Uiso 1 1 calc R U . . .
C18 C 0.7616(5) 0.6698(3) 0.4539(3) 0.0190(7) Uani 1 1 d . . . . .
H18A H 0.823255 0.586736 0.403506 0.023 Uiso 1 1 calc R U . . .
H18B H 0.857455 0.753266 0.449832 0.023 Uiso 1 1 calc R U . . .
O19 O 0.7882(4) 0.6894(2) 0.57543(17) 0.0210(5) Uani 1 1 d . . . . .
C20 C 1.0386(6) 0.7159(3) 0.6327(3) 0.0192(7) Uani 1 1 d . . . . .
H20A H 1.141595 0.795427 0.625552 0.023 Uiso 1 1 calc R U . . .
H20B H 1.107983 0.632197 0.593057 0.023 Uiso 1 1 calc R U . . .
loop_
_atom_site_aniso_label
_atom_site_aniso_U_11
_atom_site_aniso_U_22
_atom_site_aniso_U_33
_atom_site_aniso_U_23
_atom_site_aniso_U_13
_atom_site_aniso_U_12
C1 0.0114(15) 0.0213(17) 0.0145(15) 0.0088(13) 0.0012(11) 0.0030(12)
O2 0.0130(12) 0.0249(13) 0.0332(13) 0.0121(11) 0.0017(10) 0.0042(10)
C3 0.0188(18) 0.0276(19) 0.0277(19) 0.0110(15) 0.0011(14) 0.0052(15)
F4 0.0297(12) 0.0250(11) 0.0628(15) 0.0183(11) 0.0016(10) -0.0030(9)
F5 0.0286(11) 0.0288(11) 0.0451(13) 0.0114(10) 0.0036(9) 0.0156(9)
F6 0.0459(14) 0.0416(13) 0.0175(10) 0.0033(9) 0.0041(9) 0.0159(10)
C7 0.039(2) 0.050(2) 0.0232(19) 0.0195(18) 0.0069(16) 0.0281(19)
F8 0.0603(16) 0.0875(19) 0.0282(12) 0.0256(12) -0.0011(10) 0.0493(14)
F9 0.0699(18) 0.0871(19) 0.0559(16) 0.0581(15) 0.0294(13) 0.0289(15)
F10 0.0663(16) 0.0655(16) 0.0138(10) 0.0091(11) 0.0040(10) 0.0394(13)
C11 0.0113(15) 0.0258(17) 0.0179(15) 0.0114(14) 0.0013(12) 0.0014(13)
N12 0.0182(13) 0.0197(14) 0.0110(12) 0.0087(11) 0.0033(10) 0.0046(11)
C13 0.0202(17) 0.0264(18) 0.0111(15) 0.0068(13) 0.0009(12) 0.0035(14)
C14 0.0170(16) 0.0237(17) 0.0145(15) 0.0072(13) -0.0013(12) 0.0070(13)
O15 0.0134(11) 0.0268(12) 0.0187(11) 0.0142(9) -0.0002(8) 0.0049(9)
C16 0.0158(16) 0.0251(17) 0.0185(16) 0.0106(14) -0.0032(12) -0.0005(13)
C17 0.0187(16) 0.0217(17) 0.0117(15) 0.0071(13) 0.0039(12) 0.0034(13)
C18 0.0205(17) 0.0262(18) 0.0135(15) 0.0109(13) 0.0049(13) 0.0062(14)
O19 0.0162(11) 0.0354(13) 0.0128(11) 0.0139(10) 0.0005(8) 0.0027(10)
C20 0.0174(16) 0.0244(17) 0.0171(16) 0.0109(13) 0.0012(12) 0.0046(13)
loop_
_atom_type_symbol
_atom_type_description
_atom_type_scat_dispersion_real
_atom_type_scat_dispersion_imag
_atom_type_scat_source
C C 0.0033 0.0016 'International Tables Vol C Tables 4.2.6.8 and 6.1.1.4'
H H 0.0000 0.0000 'International Tables Vol C Tables 4.2.6.8 and 6.1.1.4'
F F 0.0171 0.0103 'International Tables Vol C Tables 4.2.6.8 and 6.1.1.4'
N N 0.0061 0.0033 'International Tables Vol C Tables 4.2.6.8 and 6.1.1.4'
O O 0.0106 0.0060 'International Tables Vol C Tables 4.2.6.8 and 6.1.1.4'
loop_
_geom_angle_atom_site_label_1
_geom_angle_atom_site_label_2
_geom_angle_atom_site_label_3
_geom_angle
_geom_angle_site_symmetry_1
_geom_angle_site_symmetry_3
_geom_angle_publ_flag
O2 C1 C3 107.4(2) . . ?
O2 C1 C7 107.4(3) . . ?
C3 C1 C7 111.2(3) . . ?
O2 C1 C11 110.2(2) . . ?
C3 C1 C11 110.2(2) . . ?
C7 C1 C11 110.3(2) . . ?
C1 O2 H2 101(2) . . ?
F4 C3 F5 107.5(3) . . ?
F4 C3 F6 106.6(3) . . ?
F5 C3 F6 106.0(2) . . ?
F4 C3 C1 112.6(3) . . ?
F5 C3 C1 113.2(3) . . ?
F6 C3 C1 110.4(3) . . ?
F10 C7 F9 107.2(3) . . ?
F10 C7 F8 107.2(3) . . ?
F9 C7 F8 107.4(3) . . ?
F10 C7 C1 110.0(3) . . ?
F9 C7 C1 112.2(3) . . ?
F8 C7 C1 112.6(3) . . ?
N12 C11 C1 107.9(2) . . ?
N12 C11 H11A 110.1 . . ?
C1 C11 H11A 110.1 . . ?
N12 C11 H11B 110.1 . . ?
C1 C11 H11B 110.1 . . ?
H11A C11 H11B 108.4 . . ?
C11 N12 C17 115.3(2) . . ?
C11 N12 C13 114.3(2) . . ?
C17 N12 C13 116.1(2) . . ?
N12 C13 C14 112.5(2) . . ?
N12 C13 H13A 109.1 . . ?
C14 C13 H13A 109.1 . . ?
N12 C13 H13B 109.1 . . ?
C14 C13 H13B 109.1 . . ?
H13A C13 H13B 107.8 . . ?
O15 C14 C13 109.2(2) . . ?
O15 C14 H14A 109.8 . . ?
C13 C14 H14A 109.8 . . ?
O15 C14 H14B 109.8 . . ?
C13 C14 H14B 109.8 . . ?
H14A C14 H14B 108.3 . . ?
C14 O15 C16 113.1(2) . . ?
O15 C16 C20 112.5(2) . 2_666 ?
O15 C16 H16A 109.1 . . ?
C20 C16 H16A 109.1 2_666 . ?
O15 C16 H16B 109.1 . . ?
C20 C16 H16B 109.1 2_666 . ?
H16A C16 H16B 107.8 . . ?
N12 C17 C18 116.1(2) . . ?
N12 C17 H17A 108.3 . . ?
C18 C17 H17A 108.3 . . ?
N12 C17 H17B 108.3 . . ?
C18 C17 H17B 108.3 . . ?
H17A C17 H17B 107.4 . . ?
O19 C18 C17 106.0(2) . . ?
O19 C18 H18A 110.5 . . ?
C17 C18 H18A 110.5 . . ?
O19 C18 H18B 110.5 . . ?
C17 C18 H18B 110.5 . . ?
H18A C18 H18B 108.7 . . ?
C20 O19 C18 114.0(2) . . ?
O19 C20 C16 109.2(2) . 2_666 ?
O19 C20 H20A 109.8 . . ?
C16 C20 H20A 109.8 2_666 . ?
O19 C20 H20B 109.8 . . ?
C16 C20 H20B 109.8 2_666 . ?
H20A C20 H20B 108.3 . . ?
loop_
_geom_bond_atom_site_label_1
_geom_bond_atom_site_label_2
_geom_bond_distance
_geom_bond_site_symmetry_2
_geom_bond_publ_flag
C1 O2 1.391(4) . ?
C1 C3 1.518(4) . ?
C1 C7 1.525(4) . ?
C1 C11 1.576(4) . ?
O2 H2 0.84(4) . ?
C3 F4 1.328(4) . ?
C3 F5 1.340(3) . ?
C3 F6 1.341(4) . ?
C7 F10 1.329(4) . ?
C7 F9 1.330(4) . ?
C7 F8 1.330(4) . ?
C11 N12 1.448(4) . ?
C11 H11A 0.9900 . ?
C11 H11B 0.9900 . ?
N12 C17 1.467(3) . ?
N12 C13 1.476(4) . ?
C13 C14 1.498(4) . ?
C13 H13A 0.9900 . ?
C13 H13B 0.9900 . ?
C14 O15 1.424(3) . ?
C14 H14A 0.9900 . ?
C14 H14B 0.9900 . ?
O15 C16 1.426(4) . ?
C16 C20 1.506(4) 2_666 ?
C16 H16A 0.9900 . ?
C16 H16B 0.9900 . ?
C17 C18 1.510(4) . ?
C17 H17A 0.9900 . ?
C17 H17B 0.9900 . ?
C18 O19 1.423(3) . ?
C18 H18A 0.9900 . ?
C18 H18B 0.9900 . ?
O19 C20 1.414(3) . ?
C20 H20A 0.9900 . ?
C20 H20B 0.9900 . ?
loop_
_geom_hbond_atom_site_label_D
_geom_hbond_atom_site_label_H
_geom_hbond_atom_site_label_A
_geom_hbond_distance_DH
_geom_hbond_distance_HA
_geom_hbond_distance_DA
_geom_hbond_angle_DHA
_geom_hbond_site_symmetry_A
_geom_hbond_publ_flag
C14 H14B O19 0.99 2.44 3.076(4) 121.7 2_666 yes
loop_
_geom_torsion_atom_site_label_1
_geom_torsion_atom_site_label_2
_geom_torsion_atom_site_label_3
_geom_torsion_atom_site_label_4
_geom_torsion
_geom_torsion_site_symmetry_1
_geom_torsion_site_symmetry_2
_geom_torsion_site_symmetry_3
_geom_torsion_site_symmetry_4
_geom_torsion_publ_flag
O2 C1 C3 F4 -179.8(2) . . . . ?
C7 C1 C3 F4 -62.5(3) . . . . ?
C11 C1 C3 F4 60.2(3) . . . . ?
O2 C1 C3 F5 -57.6(3) . . . . ?
C7 C1 C3 F5 59.8(4) . . . . ?
C11 C1 C3 F5 -177.6(2) . . . . ?
O2 C1 C3 F6 61.1(3) . . . . ?
C7 C1 C3 F6 178.5(3) . . . . ?
C11 C1 C3 F6 -58.9(3) . . . . ?
O2 C1 C7 F10 -61.0(3) . . . . ?
C3 C1 C7 F10 -178.3(3) . . . . ?
C11 C1 C7 F10 59.1(4) . . . . ?
O2 C1 C7 F9 179.8(3) . . . . ?
C3 C1 C7 F9 62.5(3) . . . . ?
C11 C1 C7 F9 -60.1(3) . . . . ?
O2 C1 C7 F8 58.5(4) . . . . ?
C3 C1 C7 F8 -58.9(4) . . . . ?
C11 C1 C7 F8 178.6(3) . . . . ?
O2 C1 C11 N12 -0.8(3) . . . . ?
C3 C1 C11 N12 117.6(3) . . . . ?
C7 C1 C11 N12 -119.2(3) . . . . ?
C1 C11 N12 C17 -113.4(3) . . . . ?
C1 C11 N12 C13 108.3(3) . . . . ?
C11 N12 C13 C14 -170.1(2) . . . . ?
C17 N12 C13 C14 51.9(3) . . . . ?
N12 C13 C14 O15 52.3(3) . . . . ?
C13 C14 O15 C16 179.7(2) . . . . ?
C14 O15 C16 C20 93.8(3) . . . 2_666 ?
C11 N12 C17 C18 -71.7(3) . . . . ?
C13 N12 C17 C18 65.9(3) . . . . ?
N12 C17 C18 O19 -178.3(2) . . . . ?
C17 C18 O19 C20 -178.0(2) . . . . ?
C18 O19 C20 C16 173.8(3) . . . 2_666 ?
