#------------------------------------------------------------------------------
#$Date: 2021-01-05 09:41:00 +0200 (Tue, 05 Jan 2021) $
#$Revision: 260524 $
#$URL: file:///home/coder/svn-repositories/cod/cif/7/70/62/7706297.cif $
#------------------------------------------------------------------------------
#
# This file is available in the Crystallography Open Database (COD),
# http://www.crystallography.net/
#
# All data on this site have been placed in the public domain by the
# contributors.
#
data_7706297
loop_
_publ_author_name
'Lamprecht, Zandria'
'Malan, Frederick P.'
'Fern\'andez, Israel'
'Lotz, Simon'
'Bezuidenhout, Daniela I.'
_publ_section_title
;
 Chelated Fischer carbene complexes of annulated thiophenes: synthesis,
 structure and electrochemistry.
;
_journal_issue                   43
_journal_name_full
'Dalton transactions (Cambridge, England : 2003)'
_journal_page_first              15339
_journal_page_last               15354
_journal_paper_doi               10.1039/d0dt03298k
_journal_volume                  49
_journal_year                    2020
_chemical_formula_sum            'C16 H12 O6 S2 W'
_chemical_formula_weight         548.23
_space_group_crystal_system      triclinic
_space_group_IT_number           2
_space_group_name_Hall           '-P 1'
_space_group_name_H-M_alt        'P -1'
_atom_sites_solution_hydrogens   geom
_audit_creation_method           SHELXL-2018/3
_audit_update_record
;
2020-10-12 deposited with the CCDC.	2020-10-19 downloaded from the CCDC.
;
_cell_angle_alpha                75.9140(10)
_cell_angle_beta                 75.794(2)
_cell_angle_gamma                70.5600(10)
_cell_formula_units_Z            2
_cell_length_a                   7.4467(4)
_cell_length_b                   10.7958(5)
_cell_length_c                   12.3241(6)
_cell_measurement_reflns_used    9878
_cell_measurement_temperature    150(2)
_cell_measurement_theta_max      26.47
_cell_measurement_theta_min      2.43
_cell_volume                     891.44(8)
_computing_cell_refinement       'SAINT-2016/2 (Bruker AXS, 2016)'
_computing_data_collection       'APEX III (Bruker AXS, 2016)'
_computing_data_reduction        'SAINT-2016/2 (Bruker AXS, 2016)'
_computing_molecular_graphics    'Mercury (Macrae et al., 2006)'
_computing_publication_material  'Bruker SHELXTL'
_computing_structure_refinement  'SHELXL-2018/3 (Sheldrick, 2018)'
_computing_structure_solution    'SHELXT 2014/5 (Sheldrick, 2014)'
_diffrn_ambient_temperature      150(2)
_diffrn_measured_fraction_theta_full 0.999
_diffrn_measured_fraction_theta_max 0.999
_diffrn_measurement_device_type  'Bruker APEX-II CCD'
_diffrn_measurement_method       '\f and \w scans'
_diffrn_radiation_type           MoK\a
_diffrn_radiation_wavelength     0.71073
_diffrn_reflns_av_R_equivalents  0.0588
_diffrn_reflns_av_unetI/netI     0.0342
_diffrn_reflns_Laue_measured_fraction_full 0.999
_diffrn_reflns_Laue_measured_fraction_max 0.999
_diffrn_reflns_limit_h_max       9
_diffrn_reflns_limit_h_min       -9
_diffrn_reflns_limit_k_max       13
_diffrn_reflns_limit_k_min       -13
_diffrn_reflns_limit_l_max       15
_diffrn_reflns_limit_l_min       -15
_diffrn_reflns_number            25438
_diffrn_reflns_point_group_measured_fraction_full 0.999
_diffrn_reflns_point_group_measured_fraction_max 0.999
_diffrn_reflns_theta_full        25.242
_diffrn_reflns_theta_max         26.371
_diffrn_reflns_theta_min         2.426
_exptl_absorpt_coefficient_mu    6.742
_exptl_absorpt_correction_T_max  1.0000
_exptl_absorpt_correction_T_min  0.7766
_exptl_absorpt_correction_type   multi-scan
_exptl_absorpt_process_details
;
SADABS-2016/2 (Bruker,2016/2) was used for absorption correction.
wR2(int) was 0.1188 before and 0.0703 after correction.
The Ratio of minimum to maximum transmission is 0.6042.
The \l/2 correction factor is Not present.
;
_exptl_crystal_colour            black
_exptl_crystal_density_diffrn    2.042
_exptl_crystal_description       block
_exptl_crystal_F_000             524
_exptl_crystal_size_max          0.257
_exptl_crystal_size_mid          0.220
_exptl_crystal_size_min          0.194
_refine_diff_density_max         0.994
_refine_diff_density_min         -1.075
_refine_diff_density_rms         0.108
_refine_ls_extinction_method     none
_refine_ls_goodness_of_fit_ref   1.012
_refine_ls_hydrogen_treatment    constr
_refine_ls_matrix_type           full
_refine_ls_number_parameters     228
_refine_ls_number_reflns         3650
_refine_ls_number_restraints     0
_refine_ls_restrained_S_all      1.012
_refine_ls_R_factor_all          0.0226
_refine_ls_R_factor_gt           0.0205
_refine_ls_shift/su_max          0.001
_refine_ls_shift/su_mean         0.000
_refine_ls_structure_factor_coef Fsqd
_refine_ls_weighting_details
'w=1/[\s^2^(Fo^2^)+(0.0263P)^2^+0.6015P] where P=(Fo^2^+2Fc^2^)/3'
_refine_ls_weighting_scheme      calc
_refine_ls_wR_factor_gt          0.0517
_refine_ls_wR_factor_ref         0.0524
_reflns_Friedel_coverage         0.000
_reflns_number_gt                3428
_reflns_number_total             3650
_reflns_threshold_expression     'I > 2\s(I)'
_cod_data_source_file            d0dt03298k2.cif
_cod_data_source_block           mo_ZL322F3_0m_a
_cod_database_code               7706297
_shelx_shelxl_version_number     2018/3
_shelx_space_group_comment
;
The symmetry employed for this shelxl refinement is uniquely defined
by the following loop, which should always be used as a source of
symmetry information in preference to the above space-group names.
They are only intended as comments.
;
_shelx_res_file
;
TITL mo_ZL322F3_0m_a.res in P-1
    mo_ZL322F3_0m_a.res
    created by SHELXL-2018/3 at 16:22:57 on 31-Jul-2019
REM Old TITL mo_ZL322F3_0m in P1
REM SHELXT solution in P-1
REM R1 0.055,  Rweak 0.010,  Alpha 0.069,  Orientation as input
REM Formula found by SHELXT:  C16 O6 S2 W
CELL  0.71073   7.4467  10.7958  12.3241   75.914   75.794   70.560
ZERR    2.000   0.0004   0.0005   0.0006    0.001    0.002    0.001
LATT  1
SFAC C H O S W
UNIT 32 24 12 4 2
TEMP -123.150
L.S. 10
BOND $H
LIST 6
CONF
ACTA
FMAP 2
PLAN 20
SHEL 99 0.80
WGHT    0.026300    0.601500
FVAR       0.45256
W1    5    0.746954    0.281677    0.204142    11.00000    0.02415    0.01931 =
         0.01486   -0.00372   -0.00440   -0.00588
S1    4    0.755392    0.458783    0.519958    11.00000    0.02531    0.02660 =
         0.02335   -0.01061   -0.00475   -0.00648
S2    4    0.730198    0.076161    0.679593    11.00000    0.02785    0.03212 =
         0.01864   -0.00073   -0.00602   -0.00786
O1    3    0.287088    0.374841    0.281132    11.00000    0.02982    0.04496 =
         0.03101   -0.00613   -0.00501   -0.01113
O2    3    0.726548    0.069713    0.073379    11.00000    0.10106    0.03218 =
         0.03150   -0.00979   -0.02177   -0.02254
O3    3    1.208788    0.198387    0.143432    11.00000    0.02829    0.05764 =
         0.04110   -0.00847   -0.00292   -0.00529
O4    3    0.725596    0.454323   -0.042015    11.00000    0.03631    0.03803 =
         0.02153   -0.00072   -0.00501   -0.00711
O5    3    0.753530    0.046883    0.429068    11.00000    0.02563    0.02154 =
         0.01634   -0.00356   -0.00442   -0.00569
O6    3    0.776037    0.548349    0.269886    11.00000    0.02780    0.02345 =
         0.02178   -0.00439   -0.00001   -0.00983
C1    1    0.449262    0.341082    0.252189    11.00000    0.02712    0.02667 =
         0.01716   -0.00271   -0.00528   -0.01044
C2    1    0.731972    0.142649    0.125138    11.00000    0.05011    0.02585 =
         0.02298   -0.00032   -0.01129   -0.01228
C3    1    1.044160    0.227318    0.165265    11.00000    0.03027    0.02904 =
         0.01853   -0.00634   -0.00197   -0.00515
C4    1    0.732415    0.397176    0.048919    11.00000    0.02287    0.01831 =
         0.02355   -0.00539   -0.00436   -0.00455
C5    1    0.754575    0.170347    0.374552    11.00000    0.01508    0.02917 =
         0.02195   -0.00177   -0.00083   -0.00935
C6    1    0.749969   -0.049687    0.366134    11.00000    0.02641    0.01841 =
         0.02379   -0.00535   -0.00501   -0.00651
AFIX  23
H6A   2    0.867327   -0.066976    0.306613    11.00000   -1.20000
H6B   2    0.634777   -0.015464    0.329076    11.00000   -1.20000
AFIX   0
C7    1    0.742957   -0.175457    0.449879    11.00000    0.02733    0.02213 =
         0.03304   -0.00519    0.00065   -0.00794
AFIX 137
H7A   2    0.749462   -0.245073    0.409524    11.00000   -1.50000
H7B   2    0.621849   -0.158515    0.505172    11.00000   -1.50000
H7C   2    0.852980   -0.204952    0.489651    11.00000   -1.50000
AFIX   0
C8    1    0.763816    0.424895    0.295074    11.00000    0.01410    0.02207 =
         0.02379   -0.00376   -0.00312   -0.00437
C9    1    0.785571    0.615745    0.152201    11.00000    0.03356    0.02714 =
         0.02046   -0.00233    0.00008   -0.01153
AFIX  23
H9A   2    0.666998    0.624283    0.124732    11.00000   -1.20000
H9B   2    0.898874    0.564687    0.103405    11.00000   -1.20000
AFIX   0
C10   1    0.803562    0.751069    0.148500    11.00000    0.04813    0.02696 =
         0.02654   -0.00571    0.00160   -0.01516
AFIX 137
H10A  2    0.815762    0.798646    0.069688    11.00000   -1.50000
H10B  2    0.918555    0.741184    0.178769    11.00000   -1.50000
H10C  2    0.688127    0.801805    0.194626    11.00000   -1.50000
AFIX   0
C11   1    0.758597    0.375479    0.415679    11.00000    0.01519    0.02700 =
         0.01836   -0.00806   -0.00254   -0.00512
C12   1    0.751614    0.245314    0.457062    11.00000    0.01417    0.02102 =
         0.02481   -0.00695   -0.00253   -0.00381
C13   1    0.740114    0.214091    0.577254    11.00000    0.01352    0.03043 =
         0.01896   -0.00630   -0.00269   -0.00335
C14   1    0.738783    0.318937    0.623060    11.00000    0.01539    0.02848 =
         0.02146   -0.00719   -0.00307   -0.00280
C15   1    0.728863    0.289878    0.742489    11.00000    0.02585    0.04497 =
         0.02162   -0.01619   -0.00483   -0.00408
AFIX  43
H15   2    0.726634    0.350609    0.787465    11.00000   -1.20000
AFIX   0
C16   1    0.722967    0.161145    0.783418    11.00000    0.03143    0.04444 =
         0.01445   -0.00598   -0.00622   -0.00419
AFIX  43
H16   2    0.715582    0.122159    0.861694    11.00000   -1.20000
AFIX   0
HKLF 4




REM  mo_ZL322F3_0m_a.res in P-1
REM wR2 = 0.0524, GooF = S = 1.012, Restrained GooF = 1.012 for all data
REM R1 = 0.0205 for 3428 Fo > 4sig(Fo) and 0.0226 for all 3650 data
REM 228 parameters refined using 0 restraints

END

WGHT      0.0152      0.8891

REM Highest difference peak  0.994,  deepest hole -1.075,  1-sigma level  0.108
Q1    1   0.7323  0.1966  0.2207  11.00000  0.05    0.99
Q2    1   0.6214  0.3753  0.2250  11.00000  0.05    0.94
Q3    1   0.7676  0.2871  0.1233  11.00000  0.05    0.83
Q4    1   0.8806  0.1837  0.1780  11.00000  0.05    0.82
Q5    1   0.7286  0.2650  0.2863  11.00000  0.05    0.79
Q6    1   0.7631  0.3647  0.1870  11.00000  0.05    0.78
Q7    1   0.6517  0.3959  0.1219  11.00000  0.05    0.62
Q8    1   0.8596  0.1580  0.2816  11.00000  0.05    0.54
Q9    1   0.7598  0.3047  0.4408  11.00000  0.05    0.48
Q10   1   0.7406  0.1316  0.6100  11.00000  0.05    0.46
Q11   1   0.7371  0.3853  0.5796  11.00000  0.05    0.40
Q12   1   0.7096  0.0841  0.7594  11.00000  0.05    0.38
Q13   1   0.7397  0.4225  0.4577  11.00000  0.05    0.36
Q14   1   0.7455  0.4419  0.2135  11.00000  0.05    0.36
Q15   1   0.7379  0.4004  0.3661  11.00000  0.05    0.36
Q16   1   0.6564  0.2612  0.5951  11.00000  0.05    0.34
Q17   1   0.7295  0.4352  0.0975  11.00000  0.05    0.34
Q18   1   0.7503  0.3180  0.6711  11.00000  0.05    0.34
Q19   1   0.9098  0.2809  0.1915  11.00000  0.05    0.33
Q20   1   1.0369  0.0995  0.2203  11.00000  0.05    0.33
;
_shelx_res_checksum              69917
loop_
_space_group_symop_operation_xyz
'x, y, z'
'-x, -y, -z'
loop_
_atom_site_label
_atom_site_type_symbol
_atom_site_fract_x
_atom_site_fract_y
_atom_site_fract_z
_atom_site_U_iso_or_equiv
_atom_site_adp_type
_atom_site_occupancy
_atom_site_site_symmetry_order
_atom_site_calc_flag
_atom_site_refinement_flags_posn
_atom_site_refinement_flags_adp
_atom_site_refinement_flags_occupancy
_atom_site_disorder_assembly
_atom_site_disorder_group
W1 W 0.74695(2) 0.28168(2) 0.20414(2) 0.01926(6) Uani 1 1 d . . . . .
S1 S 0.75539(13) 0.45878(8) 0.51996(7) 0.02416(18) Uani 1 1 d . . . . .
S2 S 0.73020(13) 0.07616(9) 0.67959(7) 0.02677(19) Uani 1 1 d . . . . .
O1 O 0.2871(4) 0.3748(3) 0.2811(2) 0.0354(6) Uani 1 1 d . . . . .
O2 O 0.7265(5) 0.0697(3) 0.0734(2) 0.0515(9) Uani 1 1 d . . . . .
O3 O 1.2088(4) 0.1984(3) 0.1434(3) 0.0449(7) Uani 1 1 d . . . . .
O4 O 0.7256(4) 0.4543(3) -0.0420(2) 0.0338(6) Uani 1 1 d . . . . .
O5 O 0.7535(3) 0.0469(2) 0.42907(18) 0.0213(5) Uani 1 1 d . . . . .
O6 O 0.7760(3) 0.5483(2) 0.26989(19) 0.0245(5) Uani 1 1 d . . . . .
C1 C 0.4493(5) 0.3411(3) 0.2522(3) 0.0229(7) Uani 1 1 d . . . . .
C2 C 0.7320(6) 0.1426(4) 0.1251(3) 0.0325(9) Uani 1 1 d . . . . .
C3 C 1.0442(6) 0.2273(4) 0.1653(3) 0.0269(8) Uani 1 1 d . . . . .
C4 C 0.7324(5) 0.3972(3) 0.0489(3) 0.0216(7) Uani 1 1 d . . . . .
C5 C 0.7546(5) 0.1703(3) 0.3746(3) 0.0223(7) Uani 1 1 d . . . . .
C6 C 0.7500(5) -0.0497(3) 0.3661(3) 0.0225(7) Uani 1 1 d . . . . .
H6A H 0.867327 -0.066976 0.306613 0.027 Uiso 1 1 calc R U . . .
H6B H 0.634777 -0.015464 0.329076 0.027 Uiso 1 1 calc R U . . .
C7 C 0.7430(5) -0.1755(3) 0.4499(3) 0.0284(8) Uani 1 1 d . . . . .
H7A H 0.749462 -0.245073 0.409524 0.043 Uiso 1 1 calc R U . . .
H7B H 0.621849 -0.158515 0.505172 0.043 Uiso 1 1 calc R U . . .
H7C H 0.852980 -0.204952 0.489651 0.043 Uiso 1 1 calc R U . . .
C8 C 0.7638(5) 0.4249(3) 0.2951(3) 0.0203(7) Uani 1 1 d . . . . .
C9 C 0.7856(6) 0.6157(3) 0.1522(3) 0.0276(8) Uani 1 1 d . . . . .
H9A H 0.666998 0.624283 0.124732 0.033 Uiso 1 1 calc R U . . .
H9B H 0.898874 0.564687 0.103405 0.033 Uiso 1 1 calc R U . . .
C10 C 0.8036(6) 0.7511(4) 0.1485(3) 0.0341(9) Uani 1 1 d . . . . .
H10A H 0.815762 0.798646 0.069688 0.051 Uiso 1 1 calc R U . . .
H10B H 0.918555 0.741184 0.178769 0.051 Uiso 1 1 calc R U . . .
H10C H 0.688127 0.801805 0.194626 0.051 Uiso 1 1 calc R U . . .
C11 C 0.7586(5) 0.3755(3) 0.4157(3) 0.0198(7) Uani 1 1 d . . . . .
C12 C 0.7516(5) 0.2453(3) 0.4571(3) 0.0200(7) Uani 1 1 d . . . . .
C13 C 0.7401(5) 0.2141(3) 0.5773(3) 0.0214(7) Uani 1 1 d . . . . .
C14 C 0.7388(5) 0.3189(3) 0.6231(3) 0.0222(7) Uani 1 1 d . . . . .
C15 C 0.7289(5) 0.2899(4) 0.7425(3) 0.0304(8) Uani 1 1 d . . . . .
H15 H 0.726634 0.350609 0.787465 0.037 Uiso 1 1 calc R U . . .
C16 C 0.7230(5) 0.1611(4) 0.7834(3) 0.0313(9) Uani 1 1 d . . . . .
H16 H 0.715582 0.122159 0.861694 0.038 Uiso 1 1 calc R U . . .
loop_
_atom_site_aniso_label
_atom_site_aniso_U_11
_atom_site_aniso_U_22
_atom_site_aniso_U_33
_atom_site_aniso_U_23
_atom_site_aniso_U_13
_atom_site_aniso_U_12
W1 0.02415(9) 0.01931(8) 0.01486(8) -0.00372(5) -0.00440(6) -0.00588(6)
S1 0.0253(5) 0.0266(4) 0.0234(4) -0.0106(3) -0.0048(3) -0.0065(4)
S2 0.0279(5) 0.0321(5) 0.0186(4) -0.0007(3) -0.0060(3) -0.0079(4)
O1 0.0298(16) 0.0450(16) 0.0310(15) -0.0061(12) -0.0050(12) -0.0111(13)
O2 0.101(3) 0.0322(16) 0.0315(16) -0.0098(13) -0.0218(16) -0.0225(17)
O3 0.0283(17) 0.0576(19) 0.0411(17) -0.0085(14) -0.0029(13) -0.0053(14)
O4 0.0363(16) 0.0380(15) 0.0215(14) -0.0007(11) -0.0050(11) -0.0071(12)
O5 0.0256(13) 0.0215(12) 0.0163(11) -0.0036(9) -0.0044(9) -0.0057(10)
O6 0.0278(13) 0.0234(12) 0.0218(12) -0.0044(9) 0.0000(10) -0.0098(10)
C1 0.027(2) 0.0267(17) 0.0172(16) -0.0027(13) -0.0053(14) -0.0104(15)
C2 0.050(3) 0.0258(18) 0.0230(19) -0.0003(15) -0.0113(17) -0.0123(17)
C3 0.030(2) 0.0290(18) 0.0185(17) -0.0063(14) -0.0020(15) -0.0051(15)
C4 0.0229(18) 0.0183(15) 0.0235(18) -0.0054(13) -0.0044(14) -0.0046(13)
C5 0.0151(17) 0.0292(18) 0.0219(17) -0.0018(14) -0.0008(13) -0.0094(14)
C6 0.0264(19) 0.0184(16) 0.0238(17) -0.0054(13) -0.0050(14) -0.0065(14)
C7 0.027(2) 0.0221(17) 0.033(2) -0.0052(15) 0.0006(15) -0.0079(15)
C8 0.0141(16) 0.0221(16) 0.0238(17) -0.0038(13) -0.0031(13) -0.0044(13)
C9 0.034(2) 0.0271(18) 0.0205(18) -0.0023(14) 0.0001(15) -0.0115(16)
C10 0.048(3) 0.0270(19) 0.0265(19) -0.0057(15) 0.0016(17) -0.0152(17)
C11 0.0152(16) 0.0270(17) 0.0184(16) -0.0081(13) -0.0025(13) -0.0051(13)
C12 0.0142(16) 0.0210(16) 0.0248(17) -0.0069(13) -0.0025(13) -0.0038(13)
C13 0.0135(16) 0.0304(18) 0.0190(16) -0.0063(13) -0.0027(13) -0.0033(13)
C14 0.0154(16) 0.0285(18) 0.0215(17) -0.0072(14) -0.0031(13) -0.0028(14)
C15 0.026(2) 0.045(2) 0.0216(17) -0.0162(16) -0.0048(14) -0.0041(17)
C16 0.031(2) 0.044(2) 0.0144(16) -0.0060(15) -0.0062(15) -0.0042(17)
loop_
_atom_type_symbol
_atom_type_description
_atom_type_scat_dispersion_real
_atom_type_scat_dispersion_imag
_atom_type_scat_source
C C 0.0033 0.0016 'International Tables Vol C Tables 4.2.6.8 and 6.1.1.4'
H H 0.0000 0.0000 'International Tables Vol C Tables 4.2.6.8 and 6.1.1.4'
O O 0.0106 0.0060 'International Tables Vol C Tables 4.2.6.8 and 6.1.1.4'
S S 0.1246 0.1234 'International Tables Vol C Tables 4.2.6.8 and 6.1.1.4'
W W -0.8490 6.8722 'International Tables Vol C Tables 4.2.6.8 and 6.1.1.4'
loop_
_geom_angle_atom_site_label_1
_geom_angle_atom_site_label_2
_geom_angle_atom_site_label_3
_geom_angle
_geom_angle_site_symmetry_1
_geom_angle_site_symmetry_3
_geom_angle_publ_flag
C4 W1 C2 83.07(14) . . ?
C4 W1 C3 90.19(14) . . ?
C2 W1 C3 92.55(16) . . ?
C4 W1 C1 91.79(13) . . ?
C2 W1 C1 90.86(16) . . ?
C3 W1 C1 176.24(12) . . ?
C4 W1 C5 176.20(12) . . ?
C2 W1 C5 100.37(14) . . ?
C3 W1 C5 91.26(13) . . ?
C1 W1 C5 86.57(13) . . ?
C4 W1 C8 99.22(13) . . ?
C2 W1 C8 177.71(12) . . ?
C3 W1 C8 87.41(13) . . ?
C1 W1 C8 89.12(13) . . ?
C5 W1 C8 77.34(13) . . ?
C11 S1 C14 90.24(16) . . ?
C13 S2 C16 90.66(17) . . ?
C5 O5 C6 119.6(3) . . ?
C8 O6 C9 118.5(3) . . ?
O1 C1 W1 178.0(3) . . ?
O2 C2 W1 175.2(3) . . ?
O3 C3 W1 179.4(4) . . ?
O4 C4 W1 174.9(3) . . ?
O5 C5 C12 107.9(3) . . ?
O5 C5 W1 137.2(3) . . ?
C12 C5 W1 114.9(2) . . ?
O5 C6 C7 107.2(3) . . ?
O5 C6 H6A 110.3 . . ?
C7 C6 H6A 110.3 . . ?
O5 C6 H6B 110.3 . . ?
C7 C6 H6B 110.3 . . ?
H6A C6 H6B 108.5 . . ?
C6 C7 H7A 109.5 . . ?
C6 C7 H7B 109.5 . . ?
H7A C7 H7B 109.5 . . ?
C6 C7 H7C 109.5 . . ?
H7A C7 H7C 109.5 . . ?
H7B C7 H7C 109.5 . . ?
O6 C8 C11 109.9(3) . . ?
O6 C8 W1 136.8(2) . . ?
C11 C8 W1 113.3(2) . . ?
O6 C9 C10 106.9(3) . . ?
O6 C9 H9A 110.3 . . ?
C10 C9 H9A 110.3 . . ?
O6 C9 H9B 110.3 . . ?
C10 C9 H9B 110.3 . . ?
H9A C9 H9B 108.6 . . ?
C9 C10 H10A 109.5 . . ?
C9 C10 H10B 109.5 . . ?
H10A C10 H10B 109.5 . . ?
C9 C10 H10C 109.5 . . ?
H10A C10 H10C 109.5 . . ?
H10B C10 H10C 109.5 . . ?
C12 C11 C8 117.9(3) . . ?
C12 C11 S1 113.5(2) . . ?
C8 C11 S1 128.6(3) . . ?
C11 C12 C5 116.3(3) . . ?
C11 C12 C13 110.8(3) . . ?
C5 C12 C13 132.9(3) . . ?
C14 C13 C12 113.1(3) . . ?
C14 C13 S2 111.5(2) . . ?
C12 C13 S2 135.3(3) . . ?
C13 C14 C15 114.1(3) . . ?
C13 C14 S1 112.3(2) . . ?
C15 C14 S1 133.6(3) . . ?
C16 C15 C14 109.9(3) . . ?
C16 C15 H15 125.1 . . ?
C14 C15 H15 125.1 . . ?
C15 C16 S2 113.8(3) . . ?
C15 C16 H16 123.1 . . ?
S2 C16 H16 123.1 . . ?
loop_
_geom_bond_atom_site_label_1
_geom_bond_atom_site_label_2
_geom_bond_distance
_geom_bond_site_symmetry_2
_geom_bond_publ_flag
W1 C4 2.019(3) . ?
W1 C2 2.022(4) . ?
W1 C3 2.055(4) . ?
W1 C1 2.067(4) . ?
W1 C5 2.155(3) . ?
W1 C8 2.169(3) . ?
S1 C11 1.730(3) . ?
S1 C14 1.739(3) . ?
S2 C13 1.711(3) . ?
S2 C16 1.728(4) . ?
O1 C1 1.130(4) . ?
O2 C2 1.143(5) . ?
O3 C3 1.139(5) . ?
O4 C4 1.144(4) . ?
O5 C5 1.340(4) . ?
O5 C6 1.453(4) . ?
O6 C8 1.322(4) . ?
O6 C9 1.452(4) . ?
C5 C12 1.438(5) . ?
C6 C7 1.500(5) . ?
C6 H6A 0.9900 . ?
C6 H6B 0.9900 . ?
C7 H7A 0.9800 . ?
C7 H7B 0.9800 . ?
C7 H7C 0.9800 . ?
C8 C11 1.447(5) . ?
C9 C10 1.500(5) . ?
C9 H9A 0.9900 . ?
C9 H9B 0.9900 . ?
C10 H10A 0.9800 . ?
C10 H10B 0.9800 . ?
C10 H10C 0.9800 . ?
C11 C12 1.387(5) . ?
C12 C13 1.424(5) . ?
C13 C14 1.379(5) . ?
C14 C15 1.417(5) . ?
C15 C16 1.370(6) . ?
C15 H15 0.9500 . ?
C16 H16 0.9500 . ?
loop_
_geom_torsion_atom_site_label_1
_geom_torsion_atom_site_label_2
_geom_torsion_atom_site_label_3
_geom_torsion_atom_site_label_4
_geom_torsion
_geom_torsion_site_symmetry_1
_geom_torsion_site_symmetry_2
_geom_torsion_site_symmetry_3
_geom_torsion_site_symmetry_4
_geom_torsion_publ_flag
C6 O5 C5 C12 178.1(3) . . . . ?
C6 O5 C5 W1 1.5(5) . . . . ?
C5 O5 C6 C7 -178.2(3) . . . . ?
C9 O6 C8 C11 179.2(3) . . . . ?
C9 O6 C8 W1 -1.6(5) . . . . ?
C8 O6 C9 C10 -178.6(3) . . . . ?
O6 C8 C11 C12 -178.1(3) . . . . ?
W1 C8 C11 C12 2.5(4) . . . . ?
O6 C8 C11 S1 3.2(4) . . . . ?
W1 C8 C11 S1 -176.23(19) . . . . ?
C14 S1 C11 C12 -1.3(3) . . . . ?
C14 S1 C11 C8 177.5(3) . . . . ?
C8 C11 C12 C5 1.3(4) . . . . ?
S1 C11 C12 C5 -179.8(2) . . . . ?
C8 C11 C12 C13 -177.9(3) . . . . ?
S1 C11 C12 C13 1.0(4) . . . . ?
O5 C5 C12 C11 178.0(3) . . . . ?
W1 C5 C12 C11 -4.5(4) . . . . ?
O5 C5 C12 C13 -3.0(5) . . . . ?
W1 C5 C12 C13 174.5(3) . . . . ?
C11 C12 C13 C14 0.0(4) . . . . ?
C5 C12 C13 C14 -179.1(3) . . . . ?
C11 C12 C13 S2 -179.1(3) . . . . ?
C5 C12 C13 S2 1.8(6) . . . . ?
C16 S2 C13 C14 0.3(3) . . . . ?
C16 S2 C13 C12 179.4(4) . . . . ?
C12 C13 C14 C15 -179.6(3) . . . . ?
S2 C13 C14 C15 -0.2(4) . . . . ?
C12 C13 C14 S1 -0.9(4) . . . . ?
S2 C13 C14 S1 178.37(17) . . . . ?
C11 S1 C14 C13 1.2(3) . . . . ?
C11 S1 C14 C15 179.5(4) . . . . ?
C13 C14 C15 C16 0.0(5) . . . . ?
S1 C14 C15 C16 -178.2(3) . . . . ?
C14 C15 C16 S2 0.2(4) . . . . ?
C13 S2 C16 C15 -0.3(3) . . . . ?
