#------------------------------------------------------------------------------
#$Date: 2021-06-05 21:48:02 +0300 (Sat, 05 Jun 2021) $
#$Revision: 266066 $
#$URL: file:///home/coder/svn-repositories/cod/cif/7/70/69/7706908.cif $
#------------------------------------------------------------------------------
#
# This file is available in the Crystallography Open Database (COD),
# http://www.crystallography.net/
#
# All data on this site have been placed in the public domain by the
# contributors.
#
data_7706908
loop_
_publ_author_name
'M\/oller, Mads Sondrup'
'Kongsted, Jacob'
'McKenzie, Christine J.'
_publ_section_title
;
 Preparation of organocobalt(iii) complexes via O<sub>2</sub> activation.
;
_journal_issue                   14
_journal_name_full
'Dalton transactions (Cambridge, England : 2003)'
_journal_page_first              4819
_journal_page_last               4829
_journal_paper_doi               10.1039/d1dt00563d
_journal_volume                  50
_journal_year                    2021
_chemical_formula_moiety         'C16 H14 Co N3 O4'
_chemical_formula_sum            'C16 H14 Co N3 O4'
_chemical_formula_weight         371.23
_chemical_name_systematic
(N,N'-Ethylene-bis(salicylideneiminato))-nitro-cobalt(iii)
_space_group_crystal_system      triclinic
_space_group_IT_number           2
_space_group_name_Hall           '-P 1'
_space_group_name_H-M_alt        'P -1'
_atom_sites_solution_hydrogens   geom
_audit_creation_date             2020-11-06
_audit_creation_method
;
Olex2 1.3
(compiled 2020.07.31 svn.rc2a77460 for OlexSys, GUI svn.r6145)
;
_audit_update_record
;
2020-11-20 deposited with the CCDC.	2021-03-15 downloaded from the CCDC.
;
_cell_angle_alpha                72.008(2)
_cell_angle_beta                 74.808(2)
_cell_angle_gamma                79.890(2)
_cell_formula_units_Z            2
_cell_length_a                   7.7899(2)
_cell_length_b                   8.7278(2)
_cell_length_c                   13.7362(3)
_cell_measurement_reflns_used    14929
_cell_measurement_temperature    293(2)
_cell_measurement_theta_max      75.7430
_cell_measurement_theta_min      5.3500
_cell_volume                     852.63(4)
_computing_cell_refinement       'CrysAlisPro 1.171.39.27b (Rigaku OD, 2015)'
_computing_data_collection       'CrysAlisPro 1.171.39.27b (Rigaku OD, 2015)'
_computing_data_reduction        'CrysAlisPro 1.171.39.27b (Rigaku OD, 2015)'
_computing_molecular_graphics    'Olex2 1.3 (Dolomanov et al., 2009)'
_computing_publication_material  'Olex2 1.3 (Dolomanov et al., 2009)'
_computing_structure_refinement  'SHELXL 2018/1 (Sheldrick, 2015)'
_computing_structure_solution    'SHELXT 2014/5 (Sheldrick, 2014)'
_diffrn_ambient_temperature      293(2)
_diffrn_measured_fraction_theta_full 0.999
_diffrn_measured_fraction_theta_max 0.976
_diffrn_measurement_device_type  'XtaLAB Synergy, Dualflex, AtlasS2'
_diffrn_measurement_method       '\w scans'
_diffrn_radiation_type           CuK\a
_diffrn_radiation_wavelength     1.54184
_diffrn_reflns_av_R_equivalents  0.0447
_diffrn_reflns_av_unetI/netI     0.0229
_diffrn_reflns_Laue_measured_fraction_full 0.999
_diffrn_reflns_Laue_measured_fraction_max 0.976
_diffrn_reflns_limit_h_max       9
_diffrn_reflns_limit_h_min       -9
_diffrn_reflns_limit_k_max       10
_diffrn_reflns_limit_k_min       -10
_diffrn_reflns_limit_l_max       17
_diffrn_reflns_limit_l_min       -17
_diffrn_reflns_number            30176
_diffrn_reflns_point_group_measured_fraction_full 0.999
_diffrn_reflns_point_group_measured_fraction_max 0.976
_diffrn_reflns_theta_full        67.684
_diffrn_reflns_theta_max         76.112
_diffrn_reflns_theta_min         3.470
_diffrn_source                   'micro-focus sealed X-ray tube'
_exptl_absorpt_coefficient_mu    8.112
_exptl_absorpt_correction_T_max  1.00000
_exptl_absorpt_correction_T_min  0.64125
_exptl_absorpt_correction_type   multi-scan
_exptl_absorpt_process_details
;
CrysAlisPro 1.171.39.27b (Rigaku Oxford Diffraction, 2015)
Empirical absorption correction using spherical harmonics,
 implemented in SCALE3 ABSPACK scaling algorithm.
;
_exptl_crystal_colour            'dark red'
_exptl_crystal_density_diffrn    1.446
_exptl_crystal_description       block
_exptl_crystal_F_000             380
_exptl_crystal_size_max          0.148
_exptl_crystal_size_mid          0.041
_exptl_crystal_size_min          0.028
_refine_diff_density_max         0.597
_refine_diff_density_min         -0.453
_refine_diff_density_rms         0.063
_refine_ls_extinction_method     none
_refine_ls_goodness_of_fit_ref   1.058
_refine_ls_hydrogen_treatment    constr
_refine_ls_matrix_type           full
_refine_ls_number_parameters     217
_refine_ls_number_reflns         3481
_refine_ls_number_restraints     0
_refine_ls_restrained_S_all      1.058
_refine_ls_R_factor_all          0.0418
_refine_ls_R_factor_gt           0.0397
_refine_ls_shift/su_max          0.000
_refine_ls_shift/su_mean         0.000
_refine_ls_structure_factor_coef Fsqd
_refine_ls_weighting_details
'w=1/[\s^2^(Fo^2^)+(0.0619P)^2^+0.5818P] where P=(Fo^2^+2Fc^2^)/3'
_refine_ls_weighting_scheme      calc
_refine_ls_wR_factor_gt          0.1056
_refine_ls_wR_factor_ref         0.1073
_reflns_Friedel_coverage         0.000
_reflns_number_gt                3301
_reflns_number_total             3481
_reflns_threshold_expression     'I > 2\s(I)'
_cod_data_source_file            d1dt00563d2.cif
_cod_data_source_block           exp_349_a
_cod_depositor_comments
'Adding full bibliography for 7706901--7706909.cif.'
_cod_database_code               7706908
_shelx_shelxl_version_number     2018/1
_shelx_space_group_comment
;
The symmetry employed for this shelxl refinement is uniquely defined
by the following loop, which should always be used as a source of
symmetry information in preference to the above space-group names.
They are only intended as comments.
;
_olex2_refinement_description
;
1. Fixed Uiso
 At 1.2 times of:
  All C(H) groups, All C(H,H) groups
2.a Secondary CH2 refined with riding coordinates:
 C8(H8A,H8B), C9(H9A,H9B)
2.b Aromatic/amide H refined with riding coordinates:
 C2(H2), C3(H3), C4(H4), C5(H5), C7(H7), C10(H10), C12(H12), C13(H13),
 C14(H14), C15(H15)
;
_smtbx_masks_special_details
;
A solvent mask was calculated and 45 electrons were 
found in a volume of 170\%A^3^ in 1 void per unit cell. 
This is consistent with the presence of 
0.5[C2H5NO2] per Asymmetric Unit 
which account for 40 electrons 
per unit cell.
;
_smtbx_masks_void_probe_radius   1.2
_smtbx_masks_void_truncation_radius 1.2
_shelx_res_file
;
TITL exp_349_a.res in P-1
    exp_349_a.res
    created by SHELXL-2018/1 at 11:55:12 on 06-Nov-2020
REM Old TITL exp_349 in P-1
REM SHELXT solution in P-1
REM R1 0.113, Rweak 0.016, Alpha 0.075, Orientation as input
REM Formula found by SHELXT: C20 N3 O3 Co
REM H15 3 0.932961 -0.102121 0.587239 11.00000 -1.20000
CELL 1.54184 7.7899 8.7278 13.7362 72.008 74.808 79.89
ZERR 2 0.0002 0.0002 0.0003 0.002 0.002 0.002
LATT 1
SFAC C Co H N O
UNIT 32 2 28 6 8

L.S. 10
PLAN  1
CONF
BOND $H
LIST 6
ABIN
MORE -1
fmap 2
acta
REM <olex2.extras>
REM <HklSrc "%.\\exp_349_a.hkl">
REM </olex2.extras>

WGHT    0.061900    0.581800
FVAR       0.68898
O1    5    0.643819    0.090017    0.315161    11.00000    0.02394    0.02296 =
         0.02391   -0.01009   -0.00714   -0.00025
O2    5    0.649909    0.010350    0.519304    11.00000    0.02217    0.02139 =
         0.02491   -0.01201   -0.00569   -0.00215
O3    5    0.682386    0.430370    0.294203    11.00000    0.05701    0.04055 =
         0.04238   -0.00214   -0.00665   -0.01974
O4    5    0.780853    0.329803    0.433269    11.00000    0.04984    0.04523 =
         0.05419   -0.00840   -0.01575   -0.01813
N1    4    0.352281    0.315519    0.352536    11.00000    0.02587    0.02025 =
         0.03423   -0.00735   -0.00373   -0.00128
N2    4    0.380546    0.249389    0.542328    11.00000    0.02390    0.01904 =
         0.03288   -0.01283   -0.00267   -0.00242
N3    4    0.677281    0.330252    0.381891    11.00000    0.02696    0.02244 =
         0.03611   -0.01455   -0.00333   -0.00280
C1    1    0.612889    0.133636    0.220335    11.00000    0.02814    0.03004 =
         0.02403   -0.00744   -0.00650   -0.00772
CO1   2    0.512910    0.170615    0.428094    11.00000    0.01970    0.01621 =
         0.02602   -0.00980   -0.00443   -0.00068
C2    1    0.719695    0.052104    0.147727    11.00000    0.03388    0.03918 =
         0.02792   -0.01255   -0.00606   -0.00484
AFIX  43
H2    3    0.812034   -0.025393    0.167228    11.00000   -1.20000
AFIX   0
C3    1    0.689771    0.085126    0.048585    11.00000    0.04851    0.06311 =
         0.02785   -0.01794   -0.00676   -0.00213
AFIX  43
H3    3    0.759555    0.027267    0.002901    11.00000   -1.20000
AFIX   0
C4    1    0.556243    0.204153    0.015719    11.00000    0.05271    0.09243 =
         0.02535   -0.01522   -0.01396    0.00069
AFIX  43
H4    3    0.538281    0.227279   -0.051879    11.00000   -1.20000
AFIX   0
C5    1    0.452241    0.286309    0.083828    11.00000    0.04374    0.06753 =
         0.03437   -0.00674   -0.01632    0.00552
AFIX  43
H5    3    0.363820    0.366367    0.061660    11.00000   -1.20000
AFIX   0
C6    1    0.475426    0.252903    0.186989    11.00000    0.03178    0.03784 =
         0.02854   -0.00419   -0.01022   -0.00314
C7    1    0.353236    0.337467    0.255668    11.00000    0.02872    0.03086 =
         0.03558   -0.00248   -0.00980   -0.00010
AFIX  43
H7    3    0.267485    0.414696    0.227667    11.00000   -1.20000
AFIX   0
C8    1    0.222032    0.413757    0.414087    11.00000    0.02688    0.02232 =
         0.04745   -0.01275   -0.00622    0.00531
AFIX  23
H8A   3    0.108138    0.433341    0.393804    11.00000   -1.20000
H8B   3    0.264944    0.517327    0.402039    11.00000   -1.20000
AFIX   0
C9    1    0.200906    0.319502    0.528338    11.00000    0.02389    0.02475 =
         0.04233   -0.01658   -0.00195    0.00138
AFIX  23
H9A   3    0.149850    0.390554    0.573064    11.00000   -1.20000
H9B   3    0.123232    0.234864    0.545757    11.00000   -1.20000
AFIX   0
C10   1    0.430558    0.239996    0.625810    11.00000    0.02969    0.02313 =
         0.03288   -0.01570    0.00102   -0.00504
AFIX  43
H10   3    0.353306    0.288198    0.674753    11.00000   -1.20000
AFIX   0
C11   1    0.599438    0.159197    0.648559    11.00000    0.02770    0.02822 =
         0.02610   -0.01327   -0.00142   -0.00801
C12   1    0.657990    0.187337    0.728872    11.00000    0.03680    0.03790 =
         0.02739   -0.01821    0.00073   -0.01303
AFIX  43
H12   3    0.588021    0.258238    0.765603    11.00000   -1.20000
AFIX   0
C13   1    0.816981    0.112202    0.754556    11.00000    0.03713    0.04867 =
         0.02815   -0.01634   -0.00586   -0.01643
AFIX  43
H13   3    0.855537    0.134191    0.806994    11.00000   -1.20000
AFIX   0
C14   1    0.920250    0.002525    0.701278    11.00000    0.02686    0.04533 =
         0.02891   -0.01087   -0.00697   -0.01071
AFIX  43
H14   3    1.027284   -0.049586    0.718857    11.00000   -1.20000
AFIX   0
C15   1    0.863579   -0.028955    0.622125    11.00000    0.02321    0.03258 =
         0.02574   -0.01110   -0.00269   -0.00496
AFIX  43
H15   3    0.933106   -0.102149    0.587088    11.00000   -1.20000
AFIX   0
C16   1    0.704126    0.047817    0.594823    11.00000    0.02288    0.02571 =
         0.02232   -0.01087   -0.00076   -0.00891
HKLF 4




REM  exp_349_a.res in P-1
REM R1 =  0.0397 for    3301 Fo > 4sig(Fo)  and  0.0418 for all    3481 data
REM    217 parameters refined using      0 restraints

END

WGHT      0.0627      0.5761

REM Highest difference peak  0.597,  deepest hole -0.453,  1-sigma level  0.063
Q1    1   0.8708  0.4545  0.3033  11.00000  0.05    0.60
;
_shelx_res_checksum              82528
_shelx_fab_file
;
-9 -2 1 -0.1843 0.2909
-9 -1 1 0.8164 0.0817
-9 -1 2 0.8168 -0.1795
-9 0 1 -0.6792 -0.2239
-9 0 2 -0.6397 0.1327
-9 1 1 0.1926 -0.6406
-8 -4 1 -0.2155 -0.1727
-8 -3 1 -0.3281 -0.0220
-8 -3 2 0.4121 0.0825
-8 -3 3 1.1710 -0.0595
-8 -3 4 0.9595 -0.3942
-8 -2 1 -0.1232 0.1311
-8 -2 2 -1.0818 -0.1200
-8 -2 3 -1.6159 -0.1885
-8 -2 4 -1.0927 0.0909
-8 -2 5 -0.3262 0.3778
-8 -1 1 1.0292 -0.0366
-8 -1 2 1.6236 -0.1893
-8 -1 3 1.5497 -0.2207
-8 -1 4 0.6655 -0.1016
-8 -1 5 -0.0611 -0.0786
-8 0 1 -0.8740 -0.1611
-8 0 2 -1.2800 0.1117
-8 0 3 -1.1193 0.1495
-8 0 4 -0.1718 -0.1296
-8 0 5 0.4753 -0.3250
-8 1 1 0.1689 -0.2168
-8 1 2 0.7349 -0.1448
-8 1 3 0.6636 0.0506
-8 1 4 -0.2288 0.0486
-8 1 5 -0.5900 -0.0432
-8 2 1 0.9283 0.3765
-8 2 2 -0.0014 0.0532
-8 2 3 0.1046 -0.1077
-8 2 4 0.8307 0.2447
-8 2 5 0.6797 0.5697
-8 3 1 -0.1198 -0.1045
-8 3 2 0.8537 -0.0502
-8 3 3 0.3322 -0.2449
-8 3 4 -0.5166 -0.4659
-8 4 1 -1.4900 -0.3204
-7 -7 1 0.2990 0.7345
-7 -6 1 -0.7950 -0.2507
-7 -6 2 -0.3706 0.0915
-7 -5 1 0.6178 0.2818
-7 -5 2 0.3346 -0.1006
-7 -5 3 0.5384 -0.3828
-7 -4 1 -0.0764 -0.1537
-7 -4 2 -0.0840 0.0224
-7 -4 3 -0.7139 0.2908
-7 -4 4 -0.7639 0.3096
-7 -3 1 -1.2982 -0.1413
-7 -3 2 -0.2488 -0.0419
-7 -3 3 1.3568 -0.0850
-7 -3 4 1.7601 -0.2828
-7 -3 5 1.2815 -0.3334
-7 -2 1 1.5010 0.0604
-7 -2 2 -0.3295 -0.1402
-7 -2 3 -2.2261 -0.2610
-7 -2 4 -2.5261 -0.0695
-7 -2 5 -1.7441 0.2318
-7 -2 6 -1.0178 0.1904
-7 -1 1 0.0733 0.0527
-7 -1 2 1.7045 0.0269
-7 -1 3 2.6664 0.0166
-7 -1 4 2.0429 -0.0035
-7 -1 5 0.7435 -0.1195
-7 -1 6 0.0203 -0.1082
-7 -1 7 -0.2614 0.2112
-7 0 1 -0.5695 -0.0692
-7 0 2 -1.8022 0.0626
-7 0 3 -1.9657 0.1355
-7 0 4 -0.5915 -0.0155
-7 0 5 0.7785 -0.2155
-7 0 6 0.8242 -0.2569
-7 0 7 0.3566 -0.1011
-7 1 1 0.1396 -0.0338
-7 1 2 0.7918 0.0145
-7 1 3 0.2917 0.0681
-7 1 4 -1.2493 0.0583
-7 1 5 -1.7447 0.0835
-7 1 6 -0.6530 0.1151
-7 1 7 0.2486 -0.0473
-7 2 1 1.1213 0.0107
-7 2 2 0.7976 -0.1783
-7 2 3 1.5774 -0.2699
-7 2 4 2.5485 -0.0173
-7 2 5 1.8070 0.2687
-7 2 6 0.2447 0.2691
-7 2 7 -0.1780 0.0482
-7 2 8 0.1135 -0.1174
-7 3 1 -1.4581 -0.0725
-7 3 2 -0.5880 -0.0298
-7 3 3 -0.9679 -0.0462
-7 3 4 -1.3503 -0.1239
-7 3 5 -0.4995 -0.2823
-7 3 6 0.2519 -0.4225
-7 3 7 -0.0454 -0.3194
-7 4 1 -0.3732 -0.0479
-7 4 2 -1.1596 0.1863
-7 4 3 -0.8342 0.3369
-7 4 4 -0.4641 0.0962
-7 4 5 -0.5187 0.0084
-7 4 6 -0.2977 0.2759
-7 5 1 1.0131 0.3588
-7 5 2 0.6705 0.0256
-7 5 3 0.1937 -0.1230
-7 5 4 0.1445 0.1830
-7 5 5 0.1699 0.3223
-6 -8 1 -0.0295 -0.8062
-6 -7 1 0.7303 0.3867
-6 -7 2 0.4830 0.2990
-6 -6 1 -1.3723 -0.0227
-6 -6 2 -0.7646 0.0721
-6 -6 3 -0.9747 0.1607
-6 -6 4 -0.9658 -0.0809
-6 -6 5 -0.3512 -0.4529
-6 -5 1 1.2305 0.0319
-6 -5 2 0.5827 -0.1357
-6 -5 3 0.9884 -0.2812
-6 -5 4 1.0307 -0.0096
-6 -5 5 0.3738 0.5006
-6 -5 6 -0.1865 0.6405
-6 -4 1 -0.5178 -0.0093
-6 -4 2 -0.1221 -0.0748
-6 -4 3 -0.7472 -0.0005
-6 -4 4 -0.8089 -0.0127
-6 -4 5 -0.4075 -0.2167
-6 -4 6 -0.3155 -0.2979
-6 -4 7 -0.4435 0.0056
-6 -3 1 -1.1655 -0.0654
-6 -3 2 -0.5070 0.0222
-6 -3 3 1.0919 0.0273
-6 -3 4 1.4736 -0.0420
-6 -3 5 1.1271 -0.0367
-6 -3 6 1.1791 0.0149
-6 -3 7 1.3312 -0.0593
-6 -2 1 2.5909 -0.0398
-6 -2 2 0.7687 -0.0200
-6 -2 3 -1.6265 -0.0571
-6 -2 4 -2.4435 -0.0778
-6 -2 5 -2.1903 -0.0256
-6 -2 6 -1.9926 -0.0294
-6 -2 7 -1.6275 -0.1596
-6 -2 8 -0.6616 -0.1689
-6 -1 1 -1.4004 -0.0148
-6 -1 2 0.8952 -0.0078
-6 -1 3 2.5222 0.0456
-6 -1 4 2.4750 0.0895
-6 -1 5 1.6531 -0.0257
-6 -1 6 1.0789 -0.1301
-6 -1 7 0.4741 0.0083
-6 -1 8 -0.5269 0.2660
-6 -1 9 -1.2141 0.3890
-6 0 1 -0.0861 -0.0207
-6 0 2 -2.1904 -0.0414
-6 0 3 -2.6650 -0.0438
-6 0 4 -1.2800 -0.0509
-6 0 5 0.2812 -0.0321
-6 0 6 0.7086 0.0087
-6 0 7 0.7167 0.0621
-6 0 8 1.0765 -0.0081
-6 0 9 1.2083 -0.3212
-6 1 1 0.4613 0.0129
-6 1 2 1.2732 0.0257
-6 1 3 0.4774 -0.0232
-6 1 4 -1.5126 -0.1223
-6 1 5 -2.4008 -0.0909
-6 1 6 -1.4176 0.0309
-6 1 7 -0.3654 -0.0027
-6 1 8 -0.1675 -0.1531
-6 1 9 -0.0905 -0.2126
-6 2 1 0.1823 0.0355
-6 2 2 0.6291 -0.0491
-6 2 3 2.3563 -0.0636
-6 2 4 3.8678 0.0408
-6 2 5 3.0249 0.0758
-6 2 6 0.8670 -0.0224
-6 2 7 -0.1007 -0.1610
-6 2 8 -0.0385 -0.1717
-6 2 9 -0.1778 0.0718
-6 3 1 -1.2657 -0.0292
-6 3 2 -1.3500 -0.0222
-6 3 3 -2.4199 0.0383
-6 3 4 -2.6876 0.1910
-6 3 5 -1.0257 0.2265
-6 3 6 0.4519 0.0877
-6 3 7 0.2072 0.0483
-6 3 8 -0.3725 0.0472
-6 3 9 -0.3014 -0.1087
-6 4 1 0.9153 -0.0425
-6 4 2 0.3274 0.1774
-6 4 3 0.2751 0.1968
-6 4 4 -0.1994 -0.1416
-6 4 5 -1.0609 -0.2127
-6 4 6 -0.9397 0.0993
-6 4 7 -0.0615 0.3117
-6 4 8 0.3376 0.4319
-6 4 9 0.3177 0.4773
-6 5 1 0.2348 0.0781
-6 5 2 0.2804 -0.1222
-6 5 3 0.5093 -0.1132
-6 5 4 1.0573 0.1691
-6 5 5 1.1486 0.1643
-6 5 6 0.4416 0.0617
-6 5 7 -0.1177 0.1010
-6 5 8 -0.2147 -0.0450
-6 6 1 -0.6682 -0.2547
-6 6 2 -0.3397 0.0019
-6 6 3 -0.5621 0.0617
-6 6 4 -1.0955 0.0766
-6 6 5 -1.0278 0.1726
-6 6 6 -0.4534 -0.0983
-6 6 7 -0.1530 -0.3945
-6 7 1 0.5476 0.4247
-6 7 2 0.1949 0.1377
-6 7 3 0.2824 0.0886
-6 7 4 0.6466 -0.0866
-5 -8 1 0.2243 -0.3669
-5 -8 2 -0.0800 -0.1284
-5 -8 3 -0.3506 0.1197
-5 -7 1 0.6408 -0.0643
-5 -7 2 0.5372 -0.1374
-5 -7 3 0.8061 -0.0698
-5 -7 4 1.0633 0.2137
-5 -7 5 0.8942 0.5290
-5 -6 1 -1.8284 0.1097
-5 -6 2 -0.8793 0.1419
-5 -6 3 -1.0870 0.0938
-5 -6 4 -1.5256 -0.1714
-5 -6 5 -1.0665 -0.4459
-5 -6 6 -0.1537 -0.2762
-5 -6 7 0.3949 0.2679
-5 -5 1 2.3845 0.0541
-5 -5 2 0.9042 0.0070
-5 -5 3 1.0661 -0.1337
-5 -5 4 1.5211 -0.1235
-5 -5 5 1.0327 0.1007
-5 -5 6 0.0079 0.1963
-5 -5 7 -0.7248 -0.0539
-5 -5 8 -0.6336 -0.4090
-5 -4 1 -1.0745 0.0221
-5 -4 2 -0.0515 -0.0857
-5 -4 3 -0.6690 -0.0407
-5 -4 4 -1.0792 0.0616
-5 -4 5 -0.7867 -0.0276
-5 -4 6 -0.3655 -0.1921
-5 -4 7 -0.0023 -0.1070
-5 -4 8 -0.0824 0.2425
-5 -4 9 -0.6218 0.5276
-5 -3 1 -1.3398 -0.0552
-5 -3 2 -0.7455 0.0085
-5 -3 3 1.2066 0.0193
-5 -3 4 1.6396 0.0035
-5 -3 5 0.9519 0.0562
-5 -3 6 0.6964 0.0935
-5 -3 7 0.9086 0.0045
-5 -3 8 1.1879 -0.1614
-5 -3 9 1.2581 -0.2843
-5 -2 1 3.4459 -0.1963
-5 -2 2 1.2570 -0.0801
-5 -2 3 -1.6503 0.0583
-5 -2 4 -2.3755 0.0474
-5 -2 5 -1.7537 -0.0386
-5 -2 6 -1.5485 -0.0855
-5 -2 7 -1.7576 -0.1183
-5 -2 8 -1.5617 -0.0943
-5 -2 9 -0.6405 0.1016
-5 -2 10 0.3361 0.3893
-5 -1 1 -3.3530 0.0493
-5 -1 2 0.0457 -0.0521
-5 -1 3 2.1529 -0.1438
-5 -1 4 1.9881 -0.1181
-5 -1 5 1.3076 -0.0907
-5 -1 6 1.3559 -0.0626
-5 -1 7 1.5432 0.0266
-5 -1 8 0.9005 0.0801
-5 -1 9 -0.4771 0.0267
-5 -1 10 -1.3592 -0.0885
-5 -1 11 -0.9974 -0.2398
-5 0 1 1.5779 0.0611
-5 0 2 -2.2500 0.0748
-5 0 3 -3.0669 0.0087
-5 0 4 -1.4512 -0.0629
-5 0 5 -0.0379 -0.0567
-5 0 6 -0.0056 -0.0033
-5 0 7 -0.2875 0.0984
-5 0 8 0.2420 0.1437
-5 0 9 1.1781 -0.0713
-5 0 10 1.4235 -0.4104
-5 0 11 0.8237 -0.4849
-5 1 1 0.4744 0.0320
-5 1 2 2.1119 0.0474
-5 1 3 1.2347 0.0754
-5 1 4 -0.8861 0.0320
-5 1 5 -1.8313 0.0045
-5 1 6 -1.0941 0.0040
-5 1 7 -0.3513 -0.0863
-5 1 8 -0.5079 -0.1529
-5 1 9 -0.8176 -0.0566
-5 1 10 -0.7326 0.0902
-5 1 11 -0.5100 0.2404
-5 2 1 -1.2154 0.0382
-5 2 2 -0.2142 0.0050
-5 2 3 2.1457 0.0249
-5 2 4 3.7755 0.1239
-5 2 5 2.9819 0.1514
-5 2 6 1.0271 0.0908
-5 2 7 0.2141 -0.0166
-5 2 8 0.3550 -0.1125
-5 2 9 0.2123 -0.0032
-5 2 10 -0.0470 0.2036
-5 2 11 -0.0039 0.1003
-5 3 1 -0.0507 -0.0481
-5 3 2 -1.1604 -0.0302
-5 3 3 -3.0032 -0.0164
-5 3 4 -3.3510 0.0695
-5 3 5 -1.3370 0.1128
-5 3 6 0.5786 0.0456
-5 3 7 0.5739 0.0833
-5 3 8 0.0176 0.1402
-5 3 9 0.0380 -0.0133
-5 3 10 0.1125 0.0018
-5 3 11 0.1284 0.3744
-5 4 1 1.2355 -0.1524
-5 4 2 1.4303 -0.0170
-5 4 3 1.6940 0.0630
-5 4 4 0.8360 -0.0946
-5 4 5 -0.9472 -0.0802
-5 4 6 -1.6080 0.1063
-5 4 7 -0.8669 0.0703
-5 4 8 -0.2157 0.0434
-5 4 9 0.0752 0.1453
-5 4 10 0.2469 -0.1307
-5 4 11 0.0021 -0.5278
-5 5 1 -0.7402 0.1172
-5 5 2 -0.8965 -0.0558
-5 5 3 -0.3997 -0.0670
-5 5 4 0.8596 0.0765
-5 5 5 1.7534 -0.0622
-5 5 6 1.2933 -0.1313
-5 5 7 0.4005 0.1091
-5 5 8 -0.0805 0.0888
-5 5 9 -0.4498 -0.0867
-5 5 10 -0.4794 0.1112
-5 6 1 -0.2975 0.0748
-5 6 2 -0.0619 0.2288
-5 6 3 -0.7160 0.0948
-5 6 4 -1.9075 0.0112
-5 6 5 -2.1368 0.1665
-5 6 6 -1.1512 -0.0083
-5 6 7 -0.2907 -0.2705
-5 6 8 0.0259 -0.0253
-5 6 9 0.1910 0.1358
-5 7 1 0.3384 0.0568
-5 7 2 -0.2758 -0.1210
-5 7 3 0.1463 0.0228
-5 7 4 1.2398 0.0352
-5 7 5 1.4600 -0.0048
-5 7 6 0.6579 0.1923
-5 7 7 0.0584 0.0011
-5 8 1 0.0470 0.1281
-5 8 2 0.8208 0.1768
-5 8 3 0.7794 -0.0239
-5 8 4 0.0505 -0.1069
-5 8 5 -0.2610 -0.3329
-4 -9 1 -0.5305 -0.0239
-4 -9 2 -0.3200 -0.1051
-4 -8 1 0.4124 0.0819
-4 -8 2 0.2551 0.0463
-4 -8 3 0.2588 0.0828
-4 -8 4 0.3394 0.1961
-4 -8 5 0.1853 0.3575
-4 -7 1 0.8063 0.0237
-4 -7 2 0.3101 -0.0201
-4 -7 3 0.2666 -0.0978
-4 -7 4 0.6826 -0.1213
-4 -7 5 0.9597 -0.0381
-4 -7 6 0.8226 0.0657
-4 -6 1 -2.3711 -0.1960
-4 -6 2 -0.8441 -0.0412
-4 -6 3 -0.6753 0.1467
-4 -6 4 -1.4671 0.1027
-4 -6 5 -1.5142 -0.1644
-4 -6 6 -0.5864 -0.2520
-4 -6 7 0.2856 0.0686
-4 -6 8 0.3570 0.4054
-4 -5 1 3.5587 0.0970
-4 -5 2 1.3550 0.0907
-4 -5 3 0.9678 -0.0190
-4 -5 4 1.6980 -0.1084
-4 -5 5 1.6754 -0.0432
-4 -5 6 0.6011 0.0292
-4 -5 7 -0.5228 -0.1273
-4 -5 8 -0.6484 -0.4419
-4 -5 9 0.0048 -0.6653
-4 -4 1 -1.8469 -0.0022
-4 -4 2 -0.0742 -0.1233
-4 -4 3 -0.4709 -0.1454
-4 -4 4 -1.3828 0.0269
-4 -4 5 -1.6527 0.1436
-4 -4 6 -1.2728 0.0540
-4 -4 7 -0.4067 -0.0562
-4 -4 8 0.0973 0.0348
-4 -4 9 -0.2612 0.3365
-4 -4 10 -0.6131 0.6342
-4 -3 1 -1.9920 0.0078
-4 -3 2 -1.6986 -0.0158
-4 -3 3 0.7413 -0.0538
-4 -3 4 1.8364 -0.0955
-4 -3 5 1.4374 -0.0526
-4 -3 6 1.0470 0.0143
-4 -3 7 0.8671 0.0296
-4 -3 8 0.8770 0.0353
-4 -3 9 1.0647 -0.0164
-4 -3 10 0.9628 -0.2404
-4 -2 1 4.8536 -0.0353
-4 -2 2 2.1992 0.0078
-4 -2 3 -1.6580 0.0829
-4 -2 4 -2.7854 0.0371
-4 -2 5 -1.9388 -0.0699
-4 -2 6 -1.3488 -0.0528
-4 -2 7 -1.3972 0.0319
-4 -2 8 -1.5189 0.0116
-4 -2 9 -1.0564 -0.0463
-4 -2 10 -0.0800 0.0406
-4 -2 11 0.3733 0.2410
-4 -1 1 -5.3816 -0.0234
-4 -1 2 -0.7557 0.0259
-4 -1 3 2.3029 0.0207
-4 -1 4 2.1673 0.0093
-4 -1 5 1.2408 -0.0509
-4 -1 6 1.1962 -0.0954
-4 -1 7 1.5882 -0.0273
-4 -1 8 1.5235 0.0639
-4 -1 9 0.4160 0.0690
-4 -1 10 -1.0587 -0.0008
-4 -1 11 -1.4485 -0.1822
-4 -1 12 -0.8286 -0.5052
-4 0 1 4.3733 -0.0468
-4 0 2 -1.7688 0.0133
-4 0 3 -3.6131 0.0179
-4 0 4 -1.8141 0.0183
-4 0 5 -0.1423 0.0500
-4 0 6 -0.0393 0.0137
-4 0 7 -0.5710 -0.0367
-4 0 8 -0.6230 0.0061
-4 0 9 0.2324 0.0111
-4 0 10 1.1873 -0.0893
-4 0 11 1.1791 -0.0648
-4 0 12 0.5577 0.2025
-4 0 13 0.1678 0.4506
-4 1 1 -1.4128 0.0300
-4 1 2 2.5221 -0.0182
-4 1 3 2.2989 -0.0019
-4 1 4 -0.0573 0.0262
-4 1 5 -1.3406 0.0892
-4 1 6 -1.0104 0.1587
-4 1 7 -0.3705 0.0684
-4 1 8 -0.3253 -0.0863
-4 1 9 -0.8011 -0.0730
-4 1 10 -1.0994 0.0324
-4 1 11 -0.7966 0.1128
-4 1 12 -0.2969 0.2579
-4 1 13 -0.0487 0.4336
-4 2 1 -1.8279 0.0402
-4 2 2 -1.3828 0.0074
-4 2 3 1.5229 -0.0244
-4 2 4 3.5745 0.0044
-4 2 5 2.9966 -0.0033
-4 2 6 1.2879 -0.0220
-4 2 7 0.5018 0.0105
-4 2 8 0.6203 -0.0136
-4 2 9 0.7051 -0.0360
-4 2 10 0.5349 0.0557
-4 2 11 0.2984 0.0549
-4 2 12 0.0978 -0.1121
-4 2 13 -0.0223 -0.1632
-4 3 1 1.8624 0.0435
-4 3 2 -0.3080 0.0169
-4 3 3 -3.4559 0.0046
-4 3 4 -4.2543 0.0048
-4 3 5 -2.0741 -0.0032
-4 3 6 0.2449 -0.0745
-4 3 7 0.7230 -0.0786
-4 3 8 0.4944 -0.0126
-4 3 9 0.6113 -0.0875
-4 3 10 0.5826 -0.1001
-4 3 11 0.2707 0.1711
-4 3 12 0.0934 0.2473
-4 3 13 0.0838 -0.0991
-4 4 1 0.1121 -0.0512
-4 4 2 1.7336 -0.0105
-4 4 3 3.1288 0.0249
-4 4 4 2.4515 -0.0353
-4 4 5 -0.0106 0.0226
-4 4 6 -1.6809 0.1619
-4 4 7 -1.7183 0.0658
-4 4 8 -1.4940 -0.0301
-4 4 9 -1.2610 0.1067
-4 4 10 -0.5868 -0.0078
-4 4 11 -0.0742 -0.3405
-4 4 12 -0.0447 -0.1800
-4 5 1 -0.8942 0.0606
-4 5 2 -1.9077 0.0217
-4 5 3 -1.9396 0.0670
-4 5 4 -0.5494 0.1494
-4 5 5 1.2319 -0.0514
-4 5 6 1.7942 -0.1730
-4 5 7 1.4406 0.0934
-4 5 8 1.0261 0.1707
-4 5 9 0.2760 -0.0399
-4 5 10 -0.4467 0.0324
-4 5 11 -0.3425 0.0750
-4 5 12 0.0132 -0.3168
-4 6 1 0.1516 0.0403
-4 6 2 0.4299 0.1611
-4 6 3 -0.2247 -0.0233
-4 6 4 -1.6668 -0.1432
-4 6 5 -2.4181 0.0535
-4 6 6 -1.7552 0.0170
-4 6 7 -0.8811 -0.1888
-4 6 8 -0.3998 0.0353
-4 6 9 0.1262 0.2447
-4 6 10 0.2986 0.0154
-4 6 11 -0.0622 0.0452
-4 7 1 0.2021 -0.0502
-4 7 2 -0.2778 -0.1546
-4 7 3 0.3068 0.0211
-4 7 4 1.7283 0.0480
-4 7 5 2.1106 -0.0226
-4 7 6 1.0115 0.1392
-4 7 7 0.0907 0.0008
-4 7 8 0.0330 -0.4839
-4 7 9 0.1722 -0.2859
-4 7 10 0.2491 0.3951
-4 8 1 -0.2458 -0.0760
-4 8 2 0.9102 0.0548
-4 8 3 0.9043 0.1004
-4 8 4 -0.1069 0.2010
-4 8 5 -0.4513 -0.0176
-4 8 6 0.1443 -0.4011
-4 8 7 0.4115 -0.1239
-4 8 8 0.0629 0.3573
-4 9 2 -0.4061 -0.1049
-4 9 3 -0.1677 -0.2773
-4 9 4 0.2247 -0.4335
-3 -9 1 -0.4991 0.0173
-3 -9 2 -0.4468 -0.1493
-3 -9 3 -0.2870 -0.3741
-3 -8 1 0.3620 0.0072
-3 -8 2 0.4044 0.0932
-3 -8 3 0.6927 0.1354
-3 -8 4 0.8107 0.0941
-3 -8 5 0.4968 0.1138
-3 -7 1 1.1030 0.0068
-3 -7 2 0.5731 0.0700
-3 -7 3 0.2119 0.1168
-3 -7 4 0.6215 0.0595
-3 -7 5 1.1908 -0.1063
-3 -7 6 1.1893 -0.2595
-3 -7 7 0.4964 -0.3098
-3 -6 1 -2.9738 -0.1388
-3 -6 2 -1.3504 -0.1904
-3 -6 3 -0.8813 -0.0514
-3 -6 4 -1.8592 0.1153
-3 -6 5 -2.3246 0.1177
-3 -6 6 -1.3237 -0.0070
-3 -6 7 0.0637 -0.0595
-3 -6 8 0.4172 -0.0383
-3 -6 9 -0.0136 -0.0382
-3 -5 1 4.3153 0.0211
-3 -5 2 1.8066 0.0362
-3 -5 3 1.1041 -0.0215
-3 -5 4 1.9682 -0.1119
-3 -5 5 2.1722 -0.0899
-3 -5 6 0.9425 0.0897
-3 -5 7 -0.4274 0.2184
-3 -5 8 -0.4392 0.1029
-3 -5 9 0.4760 -0.2076
-3 -5 10 0.7490 -0.4628
-3 -4 1 -2.5965 0.1163
-3 -4 2 -0.3162 0.0808
-3 -4 3 -0.5798 -0.0777
-3 -4 4 -1.7352 -0.1018
-3 -4 5 -2.1739 0.0002
-3 -4 6 -1.7474 0.0132
-3 -4 7 -0.9278 -0.0879
-3 -4 8 -0.5915 -0.1345
-3 -4 9 -0.9004 0.0293
-3 -4 10 -0.8934 0.3822
-3 -4 11 -0.3418 0.6889
-3 -3 1 -2.2122 0.0190
-3 -3 2 -2.0346 0.0434
-3 -3 3 0.7811 0.0662
-3 -3 4 2.2171 0.0120
-3 -3 5 1.7965 -0.0432
-3 -3 6 1.3342 -0.0588
-3 -3 7 1.3186 -0.0380
-3 -3 8 1.4807 0.0993
-3 -3 9 1.4465 0.2397
-3 -3 10 0.7637 0.0412
-3 -3 11 -0.0785 -0.4856
-3 -3 12 -0.3689 -0.8302
-3 -2 1 6.8992 0.0158
-3 -2 2 2.7349 0.0006
-3 -2 3 -2.4687 0.0296
-3 -2 4 -3.7214 0.0417
-3 -2 5 -2.1740 -0.0199
-3 -2 6 -1.1742 -0.0211
-3 -2 7 -1.3981 0.0776
-3 -2 8 -1.8458 0.0691
-3 -2 9 -1.4073 -0.0799
-3 -2 10 -0.0095 -0.1216
-3 -2 11 0.8749 0.0361
-3 -2 12 0.6160 0.2107
-3 -1 1 -7.9004 -0.1609
-3 -1 2 -0.6704 -0.1430
-3 -1 3 3.8797 -0.0090
-3 -1 4 3.4020 0.1297
-3 -1 5 1.6063 0.1495
-3 -1 6 1.2818 0.0491
-3 -1 7 1.7751 -0.0450
-3 -1 8 1.8583 -0.0649
-3 -1 9 0.7542 -0.0324
-3 -1 10 -1.0370 0.0615
-3 -1 11 -1.7106 0.1403
-3 -1 12 -1.0719 -0.0004
-3 -1 13 -0.5592 -0.3072
-3 0 1 6.0098 -0.0526
-3 0 2 -2.6219 -0.0090
-3 0 3 -5.1196 -0.0406
-3 0 4 -2.5624 -0.0840
-3 0 5 -0.4279 -0.0433
-3 0 6 -0.3164 0.0003
-3 0 7 -0.6941 -0.0127
-3 0 8 -0.6928 -0.0038
-3 0 9 0.0834 0.0065
-3 0 10 1.1898 -0.0551
-3 0 11 1.3123 -0.0455
-3 0 12 0.6312 0.1797
-3 0 13 0.2758 0.3902
-3 0 14 0.1448 0.2867
-3 1 1 -2.7774 0.0574
-3 1 2 3.1755 0.0263
-3 1 3 3.1170 -0.0215
-3 1 4 0.1555 -0.0819
-3 1 5 -1.2377 -0.0896
-3 1 6 -1.0242 0.0016
-3 1 7 -0.7111 0.0333
-3 1 8 -0.6294 -0.0395
-3 1 9 -0.9553 -0.0491
-3 1 10 -1.3134 -0.0181
-3 1 11 -0.8327 -0.0679
-3 1 12 0.0784 -0.0399
-3 1 13 0.5067 0.2319
-3 1 14 0.4953 0.5032
-3 2 1 -1.1465 0.1025
-3 2 2 -1.8299 0.0934
-3 2 3 1.4258 0.0293
-3 2 4 4.0161 0.0510
-3 2 5 3.5550 0.0453
-3 2 6 1.9539 -0.0537
-3 2 7 1.1137 -0.0820
-3 2 8 0.9746 -0.0614
-3 2 9 1.1114 -0.0765
-3 2 10 1.0359 -0.0154
-3 2 11 0.3320 0.0828
-3 2 12 -0.4909 0.0348
-3 2 13 -0.7983 -0.0764
-3 2 14 -0.6909 -0.0451
-3 3 1 2.8386 0.0660
-3 3 2 0.4297 0.0508
-3 3 3 -3.8748 0.0599
-3 3 4 -5.3094 0.0006
-3 3 5 -3.1349 -0.0089
-3 3 6 -0.6128 0.0357
-3 3 7 0.2180 0.0489
-3 3 8 0.2923 0.0468
-3 3 9 0.5587 -0.0085
-3 3 10 0.8093 -0.0528
-3 3 11 0.7816 0.0540
-3 3 12 0.4380 0.0716
-3 3 13 -0.0150 -0.2075
-3 4 1 -1.9683 -0.0203
-3 4 2 0.8445 0.0025
-3 4 3 3.7331 0.0562
-3 4 4 3.5617 0.0707
-3 4 5 0.7674 0.0341
-3 4 6 -1.3282 0.0200
-3 4 7 -1.5476 -0.0349
-3 4 8 -1.5990 -0.0589
-3 4 9 -2.0505 0.0877
-3 4 10 -1.8923 0.1174
-3 4 11 -0.9496 -0.0639
-3 4 12 0.1353 0.0202
-3 4 13 0.7844 0.2654
-3 4 14 0.6661 0.0584
-3 5 1 0.3998 -0.0451
-3 5 2 -1.7583 -0.0861
-3 5 3 -2.7889 -0.0491
-3 5 4 -1.6332 0.0711
-3 5 5 0.6032 0.0442
-3 5 6 1.6780 -0.0474
-3 5 7 1.6157 0.0702
-3 5 8 1.7222 0.1434
-3 5 9 1.6234 -0.0124
-3 5 10 0.7676 -0.0250
-3 5 11 -0.0862 0.0190
-3 5 12 -0.4985 -0.2344
-3 5 13 -0.5736 -0.3108
-3 6 1 0.1764 -0.0808
-3 6 2 1.0178 0.0307
-3 6 3 0.6063 -0.0605
-3 6 4 -0.7764 -0.1645
-3 6 5 -1.7556 -0.0172
-3 6 6 -1.5193 0.0573
-3 6 7 -1.2416 -0.0761
-3 6 8 -1.4646 0.0001
-3 6 9 -1.0699 0.1495
-3 6 10 -0.1520 -0.0101
-3 6 11 0.1950 -0.0698
-3 6 12 0.1685 0.0751
-3 6 13 0.2423 -0.2001
-3 7 1 -0.2644 0.0549
-3 7 2 -0.2631 -0.0227
-3 7 3 0.7897 0.0816
-3 7 4 2.2752 0.0567
-3 7 5 2.4881 -0.0847
-3 7 6 1.2425 -0.0009
-3 7 7 0.4859 0.0133
-3 7 8 0.7611 -0.2499
-3 7 9 0.7937 -0.0993
-3 7 10 0.4257 0.4561
-3 7 11 0.2616 0.4154
-3 7 12 0.1543 -0.0479
-3 8 1 -0.3217 -0.0250
-3 8 2 0.2423 -0.0778
-3 8 3 -0.0943 -0.1018
-3 8 4 -1.0783 0.0878
-3 8 5 -1.1026 0.1271
-3 8 6 -0.0359 -0.1067
-3 8 7 0.4240 -0.0030
-3 8 8 -0.1035 0.2836
-3 8 9 -0.5018 -0.1074
-3 8 10 -0.3840 -0.7231
-3 9 1 0.4053 0.2928
-3 9 2 0.0943 0.3013
-3 9 3 0.2456 0.0597
-3 9 4 0.5606 -0.3148
-3 9 5 0.2508 -0.3012
-3 9 6 -0.2949 0.0122
-3 9 7 -0.1972 0.0703
-3 9 8 0.2400 0.0848
-2 -10 1 0.0366 0.0540
-2 -9 1 0.1531 -0.1173
-2 -9 2 -0.0432 -0.0760
-2 -9 3 -0.3670 -0.1884
-2 -9 4 -0.4044 -0.2198
-2 -8 1 -0.2295 -0.2109
-2 -8 2 0.3269 -0.1020
-2 -8 3 0.9948 0.1048
-2 -8 4 1.0059 0.1548
-2 -8 5 0.4223 -0.0020
-2 -8 6 -0.2417 -0.2430
-2 -7 1 0.6870 0.1056
-2 -7 2 0.4070 0.0532
-2 -7 3 0.0680 0.0173
-2 -7 4 0.6890 0.0689
-2 -7 5 1.6187 0.1703
-2 -7 6 1.7953 0.1933
-2 -7 7 0.9664 0.0395
-2 -7 8 0.0462 -0.1645
-2 -6 1 -2.3037 0.2132
-2 -6 2 -1.4551 0.1358
-2 -6 3 -1.3054 0.0242
-2 -6 4 -2.6009 -0.0525
-2 -6 5 -3.5037 -0.0672
-2 -6 6 -2.5968 -0.0099
-2 -6 7 -0.7358 0.0910
-2 -6 8 0.2105 0.1125
-2 -6 9 0.0074 -0.0044
-2 -5 1 4.6890 -0.0907
-2 -5 2 2.4032 -0.0477
-2 -5 3 1.8036 0.0532
-2 -5 4 2.7418 0.0632
-2 -5 5 2.8651 -0.0620
-2 -5 6 1.2196 -0.1232
-2 -5 7 -0.6172 0.0167
-2 -5 8 -0.7313 0.2084
-2 -5 9 0.3551 0.2205
-2 -5 10 0.7050 0.0530
-2 -4 1 -3.9723 -0.0309
-2 -4 2 -1.1692 0.0745
-2 -4 3 -1.2159 0.0037
-2 -4 4 -2.2011 -0.0647
-2 -4 5 -2.1135 0.0173
-2 -4 6 -0.9678 0.0912
-2 -4 7 -0.0063 0.0146
-2 -4 8 -0.3052 -0.1249
-2 -4 9 -1.3182 -0.1590
-2 -4 10 -1.5016 -0.0223
-2 -4 11 -0.8108 0.1601
-2 -3 1 -1.6952 -0.0420
-2 -3 2 -1.9373 -0.0601
-2 -3 3 0.9539 -0.0088
-2 -3 4 2.4967 0.0100
-2 -3 5 1.7364 0.0033
-2 -3 6 0.7701 -0.0020
-2 -3 7 0.8465 -0.0560
-2 -3 8 1.7382 -0.0416
-2 -3 9 2.3551 0.1376
-2 -3 10 1.6660 0.2166
-2 -3 11 0.2934 -0.0052
-2 -3 12 -0.5275 -0.2572
-2 -3 13 -0.7256 -0.2426
-2 -2 1 10.8072 0.1611
-2 -2 2 4.8363 -0.0017
-2 -2 3 -2.5868 -0.1452
-2 -2 4 -4.8315 -0.0995
-2 -2 5 -2.7343 -0.0161
-2 -2 6 -0.9262 0.0113
-2 -2 7 -1.1664 0.0705
-2 -2 8 -2.2492 0.0735
-2 -2 9 -2.2828 -0.0602
-2 -2 10 -0.6874 -0.1434
-2 -2 11 0.8045 -0.0824
-2 -2 12 0.9117 -0.0245
-2 -2 13 0.5377 -0.0470
-2 -1 1 -15.6580 0.0407
-2 -1 2 -3.9486 -0.0499
-2 -1 3 4.7639 0.0031
-2 -1 4 5.5546 0.0218
-2 -1 5 2.6822 0.0021
-2 -1 6 1.3461 -0.0156
-2 -1 7 1.8500 -0.0266
-2 -1 8 2.3399 -0.0293
-2 -1 9 1.3702 -0.0670
-2 -1 10 -0.6952 -0.0891
-2 -1 11 -1.5478 0.0396
-2 -1 12 -0.6615 0.2148
-2 -1 13 -0.0116 0.2439
-2 -1 14 -0.1000 0.2309
-2 0 1 10.9226 -0.2053
-2 0 2 -2.4877 -0.0601
-2 0 3 -7.4217 0.0898
-2 0 4 -4.2079 0.1200
-2 0 5 -0.7486 0.0187
-2 0 6 -0.4612 -0.0848
-2 0 7 -1.1401 -0.1029
-2 0 8 -1.1344 -0.0371
-2 0 9 -0.1568 0.0483
-2 0 10 1.1104 0.0421
-2 0 11 1.0559 -0.0311
-2 0 12 0.0380 -0.0116
-2 0 13 -0.1521 0.0273
-2 0 14 0.1836 -0.1280
-2 1 1 -2.5592 -0.1103
-2 1 2 6.0206 0.0569
-2 1 3 5.1552 0.0378
-2 1 4 -0.1639 -0.0335
-2 1 5 -2.2252 -0.0380
-2 1 6 -1.0997 0.0060
-2 1 7 -0.2827 -0.0150
-2 1 8 -0.3788 -0.0887
-2 1 9 -0.9040 -0.0577
-2 1 10 -1.3210 0.0477
-2 1 11 -0.7401 0.0179
-2 1 12 0.1536 -0.0767
-2 1 13 0.2329 0.0742
-2 1 14 0.1388 0.3859
-2 1 15 0.3363 0.3934
-2 2 1 -2.6830 0.0397
-2 2 2 -3.4645 0.0922
-2 2 3 1.7772 -0.0172
-2 2 4 6.0223 -0.0447
-2 2 5 5.1196 0.0413
-2 2 6 2.3256 0.0709
-2 2 7 0.9792 0.0663
-2 2 8 0.8247 0.0516
-2 2 9 1.1528 -0.0310
-2 2 10 1.3228 -0.0505
-2 2 11 0.5751 0.0784
-2 2 12 -0.3980 0.1341
-2 2 13 -0.7265 0.0060
-2 2 14 -0.8232 -0.0401
-2 2 15 -0.8345 0.1551
-2 3 1 3.3152 0.0421
-2 3 2 -0.1391 -0.0490
-2 3 3 -5.8406 0.0588
-2 3 4 -7.4010 0.0483
-2 3 5 -4.1745 -0.0251
-2 3 6 -0.8419 0.0100
-2 3 7 0.1420 0.0445
-2 3 8 0.0532 0.0317
-2 3 9 0.0208 0.0201
-2 3 10 0.2456 0.0026
-2 3 11 0.6913 0.0372
-2 3 12 0.7809 0.0847
-2 3 13 0.3292 -0.0412
-2 3 14 -0.0122 -0.2894
-2 4 1 -2.6335 0.2564
-2 4 2 1.2486 -0.0063
-2 4 3 5.0979 -0.1059
-2 4 4 4.5469 0.0120
-2 4 5 0.6547 0.0487
-2 4 6 -1.9042 -0.0239
-2 4 7 -1.6013 -0.0365
-2 4 8 -0.8690 -0.0036
-2 4 9 -1.2120 0.0413
-2 4 10 -1.7746 0.0238
-2 4 11 -1.5343 -0.1067
-2 4 12 -0.3874 -0.1108
-2 4 13 0.9129 0.0331
-2 4 14 1.4316 -0.0885
-2 5 1 1.3046 0.0803
-2 5 2 -1.4333 0.0421
-2 5 3 -3.0011 -0.0483
-2 5 4 -1.5254 -0.0827
-2 5 5 1.4874 -0.0153
-2 5 6 2.6822 -0.0113
-2 5 7 1.7668 -0.0251
-2 5 8 1.1828 0.0305
-2 5 9 1.5313 0.0411
-2 5 10 1.5398 0.0438
-2 5 11 0.7944 0.0396
-2 5 12 -0.2311 -0.1356
-2 5 13 -0.9554 -0.1953
-2 5 14 -0.9206 0.1721
-2 6 1 0.0139 -0.1508
-2 6 2 1.5334 0.0118
-2 6 3 1.2976 0.0902
-2 6 4 -0.3337 0.0258
-2 6 5 -1.6389 -0.0060
-2 6 6 -1.3915 0.0512
-2 6 7 -0.9547 0.0267
-2 6 8 -1.5996 -0.0048
-2 6 9 -2.0031 0.0490
-2 6 10 -1.2083 0.0166
-2 6 11 -0.2586 -0.0340
-2 6 12 0.1992 -0.0487
-2 6 13 0.3849 -0.3865
-2 6 14 0.2814 -0.8340
-2 7 1 -0.5190 -0.1186
-2 7 2 -0.7823 0.0304
-2 7 3 0.5677 0.1006
-2 7 4 2.2097 0.0400
-2 7 5 2.2778 -0.0895
-2 7 6 0.8652 -0.0592
-2 7 7 0.3774 0.0601
-2 7 8 1.3875 -0.0068
-2 7 9 1.7931 -0.0280
-2 7 10 1.0113 0.1737
-2 7 11 0.3975 0.1038
-2 7 12 0.2731 -0.2135
-2 7 13 0.1306 -0.0343
-2 8 1 0.3702 -0.0152
-2 8 2 0.1601 -0.0100
-2 8 3 -0.9141 -0.0443
-2 8 4 -2.0392 0.0141
-2 8 5 -1.8148 0.0453
-2 8 6 -0.4519 -0.1024
-2 8 7 0.0710 -0.1105
-2 8 8 -0.5951 0.1157
-2 8 9 -0.9459 0.0131
-2 8 10 -0.6395 -0.3517
-2 8 11 -0.4133 -0.1513
-2 8 12 -0.3623 0.5006
-2 9 1 -0.0561 -0.1243
-2 9 2 0.1670 -0.1071
-2 9 3 0.4570 0.0145
-2 9 4 0.6079 0.0746
-2 9 5 0.1490 0.1113
-2 9 6 -0.5367 0.1693
-2 9 7 -0.4622 0.0753
-2 9 8 0.2054 -0.0189
-2 9 9 0.5819 0.1798
-2 9 10 0.5438 0.2957
-2 10 3 0.0787 -0.2398
-2 10 4 0.0617 -0.1698
-2 10 5 0.2402 -0.1047
-2 10 6 0.2024 -0.0397
-1 -10 1 0.2865 -0.1378
-1 -9 1 0.0849 -0.1638
-1 -9 2 0.2722 -0.1456
-1 -9 3 -0.0944 -0.0177
-1 -9 4 -0.2478 0.2178
-1 -8 1 -0.8551 -0.0970
-1 -8 2 0.0522 0.0229
-1 -8 3 0.9959 0.0430
-1 -8 4 0.9057 0.0215
-1 -8 5 0.2885 0.0120
-1 -8 6 -0.0924 -0.0621
-1 -8 7 -0.1138 -0.2175
-1 -7 1 0.9953 -0.0218
-1 -7 2 0.3889 0.1470
-1 -7 3 -0.2992 0.1144
-1 -7 4 0.2097 -0.0574
-1 -7 5 1.1284 -0.0926
-1 -7 6 1.3362 0.1058
-1 -7 7 0.7146 0.3061
-1 -7 8 0.0479 0.3002
-1 -6 1 -1.4234 0.1513
-1 -6 2 -0.9489 0.0719
-1 -6 3 -0.9259 0.0542
-1 -6 4 -2.2215 0.0721
-1 -6 5 -3.3733 0.0059
-1 -6 6 -2.9821 -0.0896
-1 -6 7 -1.4676 -0.0765
-1 -6 8 -0.3936 0.0303
-1 -6 9 -0.2856 0.0981
-1 -5 1 3.9481 0.1588
-1 -5 2 2.1310 -0.0637
-1 -5 3 2.0438 -0.0754
-1 -5 4 3.3223 0.0463
-1 -5 5 3.6326 0.0708
-1 -5 6 2.0277 -0.0541
-1 -5 7 0.0324 -0.1319
-1 -5 8 -0.4129 -0.0710
-1 -5 9 0.3203 0.0114
-1 -5 10 0.4145 0.0421
-1 -4 1 -4.7312 0.0279
-1 -4 2 -2.0520 -0.0040
-1 -4 3 -2.3112 -0.0671
-1 -4 4 -3.2876 -0.1515
-1 -4 5 -2.6181 -0.0991
-1 -4 6 -0.5177 0.0543
-1 -4 7 1.0258 0.1268
-1 -4 8 0.5950 0.0810
-1 -4 9 -0.8435 0.0024
-1 -4 10 -1.2787 -0.0371
-1 -4 11 -0.7266 -0.0628
-1 -4 12 -0.4409 -0.1824
-1 -3 1 -0.2227 0.0042
-1 -3 2 -1.1049 0.0576
-1 -3 3 1.1146 -0.0074
-1 -3 4 2.1520 -0.1071
-1 -3 5 0.9123 -0.1084
-1 -3 6 -0.5138 0.0115
-1 -3 7 -0.4749 0.0360
-1 -3 8 0.9303 -0.0875
-1 -3 9 2.2943 -0.1207
-1 -3 10 2.2251 -0.0245
-1 -3 11 1.1984 0.0577
-1 -3 12 0.4788 0.1767
-1 -3 13 0.0845 0.3615
-1 -2 1 12.7337 -0.0139
-1 -2 2 7.4993 0.1060
-1 -2 3 -0.0356 0.0394
-1 -2 4 -2.9177 0.0216
-1 -2 5 -1.4220 0.0235
-1 -2 6 -0.1002 -0.0627
-1 -2 7 -0.8887 -0.0799
-1 -2 8 -2.4875 -0.0021
-1 -2 9 -2.9404 0.0174
-1 -2 10 -1.6066 0.0148
-1 -2 11 -0.1054 0.0201
-1 -2 12 0.1865 -0.0683
-1 -2 13 0.0858 -0.1735
-1 -2 14 0.1389 -0.1665
-1 -1 1 -24.4174 0.0466
-1 -1 2 -11.8849 -0.1284
-1 -1 3 0.1779 0.0228
-1 -1 4 4.1955 0.1159
-1 -1 5 2.7263 0.0503
-1 -1 6 1.7077 -0.0484
-1 -1 7 2.4393 -0.0891
-1 -1 8 3.0751 -0.0081
-1 -1 9 2.0154 0.0609
-1 -1 10 -0.4018 -0.0381
-1 -1 11 -1.6209 -0.1149
-1 -1 12 -0.7111 -0.0062
-1 -1 13 0.1662 0.1245
-1 -1 14 0.1520 0.2175
-1 0 1 20.7639 -0.2564
-1 0 2 4.1623 -0.2695
-1 0 3 -5.3568 -0.1053
-1 0 4 -4.8068 0.1456
-1 0 5 -1.6956 0.1902
-1 0 6 -1.2887 0.0781
-1 0 7 -1.9608 -0.0082
-1 0 8 -1.6485 -0.0580
-1 0 9 -0.1655 -0.0489
-1 0 10 1.5089 0.0252
-1 0 11 1.4169 0.0667
-1 0 12 -0.1404 0.0815
-1 0 13 -0.6741 0.0667
-1 0 14 -0.1699 -0.1113
-1 0 15 -0.1190 -0.3053
-1 1 1 -5.9435 -0.4831
-1 1 2 6.6859 0.0543
-1 1 3 7.5213 0.1177
-1 1 4 0.8569 -0.0561
-1 1 5 -2.5794 -0.0529
-1 1 6 -1.1410 0.0799
-1 1 7 0.1729 0.1037
-1 1 8 -0.2350 0.0119
-1 1 9 -1.1316 -0.0215
-1 1 10 -1.4022 0.0690
-1 1 11 -0.2825 0.1191
-1 1 12 0.8799 0.0137
-1 1 13 0.3582 -0.0449
-1 1 14 -0.5684 0.0736
-1 1 15 -0.4633 0.0794
-1 2 1 -5.1334 0.1475
-1 2 2 -7.4245 0.0788
-1 2 3 -0.1944 -0.0517
-1 2 4 7.3866 -0.1684
-1 2 5 7.4050 -0.1522
-1 2 6 3.2906 -0.0463
-1 2 7 0.9659 0.0657
-1 2 8 0.7624 0.1100
-1 2 9 1.0760 0.0196
-1 2 10 0.9406 -0.0951
-1 2 11 -0.1109 -0.0558
-1 2 12 -0.7419 0.0497
-1 2 13 0.0481 0.0226
-1 2 14 0.7675 -0.0234
-1 2 15 0.5009 0.1329
-1 3 1 6.0571 0.5863
-1 3 2 1.1213 0.0833
-1 3 3 -7.4060 -0.0349
-1 3 4 -10.5315 -0.0021
-1 3 5 -6.3790 -0.0288
-1 3 6 -1.4869 -0.0319
-1 3 7 0.0949 -0.0265
-1 3 8 0.0099 -0.0325
-1 3 9 -0.0587 -0.0044
-1 3 10 0.1904 -0.0170
-1 3 11 0.7695 -0.0780
-1 3 12 0.8403 -0.0581
-1 3 13 0.0777 -0.0002
-1 3 14 -0.4655 -0.0793
-1 3 15 -0.3471 -0.2677
-1 4 1 -3.5087 0.5731
-1 4 2 2.4682 0.2553
-1 4 3 8.0365 -0.0226
-1 4 4 7.2361 -0.0024
-1 4 5 1.7113 0.0294
-1 4 6 -2.0178 -0.0743
-1 4 7 -1.8168 -0.0739
-1 4 8 -0.7283 0.0278
-1 4 9 -0.7947 0.0759
-1 4 10 -1.3986 0.0727
-1 4 11 -1.5031 0.0006
-1 4 12 -0.7143 -0.1016
-1 4 13 0.4540 -0.1260
-1 4 14 1.1317 -0.1687
-1 4 15 1.1420 -0.2933
-1 5 1 1.4475 -0.1909
-1 5 2 -2.0189 0.0704
-1 5 3 -4.0426 0.1437
-1 5 4 -2.0635 0.0380
-1 5 5 2.0270 0.0566
-1 5 6 3.8779 0.0662
-1 5 7 2.6963 -0.0720
-1 5 8 1.4080 -0.1032
-1 5 9 1.4427 0.0106
-1 5 10 1.6636 0.0732
-1 5 11 1.1679 0.0438
-1 5 12 0.1714 -0.0989
-1 5 13 -0.6906 -0.2291
-1 5 14 -0.9382 -0.0515
-1 5 15 -0.7080 0.3006
-1 6 1 0.4607 -0.5909
-1 6 2 1.9814 -0.2165
-1 6 3 1.5133 0.1256
-1 6 4 -0.6743 0.1938
-1 6 5 -2.6746 0.0263
-1 6 6 -2.6969 -0.0052
-1 6 7 -1.7845 0.0632
-1 6 8 -1.8447 -0.0027
-1 6 9 -2.2191 -0.0662
-1 6 10 -1.6076 -0.0157
-1 6 11 -0.5673 0.0607
-1 6 12 0.0855 0.0992
-1 6 13 0.3536 -0.0819
-1 6 14 0.2477 -0.4511
-1 6 15 -0.0420 -0.4998
-1 7 1 -0.5978 -0.5806
-1 7 2 -1.2013 -0.2559
-1 7 3 0.1757 -0.0641
-1 7 4 2.0334 0.0052
-1 7 5 2.3035 0.0094
-1 7 6 0.8334 0.0116
-1 7 7 0.0782 0.1093
-1 7 8 1.1057 0.1403
-1 7 9 1.8251 -0.0061
-1 7 10 1.1232 -0.1084
-1 7 11 0.3529 -0.1553
-1 7 12 0.1966 -0.2183
-1 7 13 0.1146 0.0266
-1 7 14 -0.0065 0.5374
-1 8 1 0.5990 0.1666
-1 8 2 0.1444 -0.1211
-1 8 3 -1.1892 -0.2095
-1 8 4 -2.2877 -0.0978
-1 8 5 -1.9155 0.0806
-1 8 6 -0.4051 0.0848
-1 8 7 0.1995 -0.0343
-1 8 8 -0.5788 0.0344
-1 8 9 -1.0332 0.1271
-1 8 10 -0.6178 -0.0520
-1 8 11 -0.3441 -0.1031
-1 8 12 -0.4437 0.2846
-1 9 1 -0.8470 0.4816
-1 9 2 -0.0502 0.0141
-1 9 3 0.4693 -0.2396
-1 9 4 0.4239 -0.1849
-1 9 5 -0.1833 -0.0599
-1 9 6 -0.8916 0.0394
-1 9 7 -0.7940 0.0585
-1 9 8 0.0396 0.0231
-1 9 9 0.6005 0.1969
-1 9 10 0.5816 0.5024
-1 9 11 0.4179 0.4466
-1 10 1 0.6767 0.3193
-1 10 2 0.3367 0.4085
-1 10 3 0.3380 0.2243
-1 10 4 0.6766 -0.0777
-1 10 5 1.0601 -0.2076
-1 10 6 1.1662 -0.1296
-1 10 7 0.7619 -0.0093
-1 10 8 0.0675 -0.1413
-1 10 9 -0.3959 -0.5674
0 -10 1 0.4122 0.0691
0 -9 1 -0.6116 -0.2429
0 -9 2 -0.1553 -0.0540
0 -9 3 -0.3900 0.1558
0 -9 4 -0.4007 0.4652
0 -8 1 -0.5197 -0.4892
0 -8 2 0.4619 -0.0343
0 -8 3 1.3428 0.0621
0 -8 4 0.7702 -0.1117
0 -8 5 -0.2542 -0.2011
0 -8 6 -0.3830 -0.0941
0 -8 7 0.1284 0.0614
0 -7 1 1.7620 -0.1200
0 -7 2 0.6202 -0.0702
0 -7 3 -0.4293 0.0380
0 -7 4 0.1186 -0.0328
0 -7 5 1.0079 -0.1879
0 -7 6 0.8920 -0.2128
0 -7 7 0.0832 -0.0829
0 -7 8 -0.4517 0.1054
0 -7 9 -0.3268 0.2405
0 -6 1 -1.8258 0.6050
0 -6 2 -1.1340 0.0926
0 -6 3 -0.7951 -0.2159
0 -6 4 -1.6688 -0.1249
0 -6 5 -2.5364 0.0624
0 -6 6 -2.3814 0.1040
0 -6 7 -1.5101 0.0109
0 -6 8 -0.8168 -0.1036
0 -6 9 -0.5993 -0.1220
0 -6 10 -0.3474 -0.0571
0 -5 1 2.8569 0.6322
0 -5 2 1.1575 0.3018
0 -5 3 1.3499 -0.0046
0 -5 4 2.9008 -0.1239
0 -5 5 3.6281 -0.0703
0 -5 6 2.7417 -0.0235
0 -5 7 1.3735 0.0038
0 -5 8 0.9015 0.0344
0 -5 9 1.1009 -0.0106
0 -5 10 0.7417 -0.0844
0 -5 11 0.0160 -0.0698
0 -4 1 -3.5222 0.0255
0 -4 2 -1.1938 0.0846
0 -4 3 -2.1060 0.1659
0 -4 4 -3.8658 0.0813
0 -4 5 -3.6408 -0.0882
0 -4 6 -1.4805 -0.1438
0 -4 7 0.4032 -0.0940
0 -4 8 0.3102 -0.0084
0 -4 9 -0.9467 0.0652
0 -4 10 -1.2868 0.0806
0 -4 11 -0.5634 0.0568
0 -4 12 -0.1369 -0.0191
0 -4 13 -0.1600 -0.1706
0 -3 1 0.2597 -0.5742
0 -3 2 -0.7845 -0.0888
0 -3 3 1.2309 0.0980
0 -3 4 2.1923 0.0454
0 -3 5 0.7433 -0.0084
0 -3 6 -1.1122 0.0728
0 -3 7 -1.4000 0.1333
0 -3 8 0.0204 0.0171
0 -3 9 1.6867 -0.1090
0 -3 10 1.9644 -0.1096
0 -3 11 1.1317 -0.0671
0 -3 12 0.5887 0.0446
0 -3 13 0.4571 0.2379
0 -3 14 0.2480 0.2983
0 -2 1 11.2930 -0.6065
0 -2 2 7.7695 -0.2970
0 -2 3 1.8446 -0.0550
0 -2 4 -0.0776 0.1260
0 -2 5 1.5358 0.1950
0 -2 6 2.1932 0.0589
0 -2 7 0.3316 -0.0869
0 -2 8 -2.1113 -0.0828
0 -2 9 -2.9958 -0.0245
0 -2 10 -1.9087 0.0633
0 -2 11 -0.5871 0.1462
0 -2 12 -0.4793 0.0832
0 -2 13 -0.6268 0.0040
0 -2 14 -0.2157 0.1193
0 -1 1 -27.1373 0.3875
0 -1 2 -17.2325 -0.1865
0 -1 3 -5.6986 -0.2715
0 -1 4 -0.6715 -0.0734
0 -1 5 -0.6537 0.0993
0 -1 6 0.0100 0.1143
0 -1 7 2.3666 -0.0030
0 -1 8 3.9220 -0.0162
0 -1 9 3.0014 0.1013
0 -1 10 0.2615 0.0733
0 -1 11 -1.5336 -0.0643
0 -1 12 -1.1399 -0.0818
0 -1 13 -0.6393 -0.0868
0 -1 14 -0.9258 -0.1542
0 -1 15 -0.5259 -0.1036
0 0 1 28.2760 0.1135
0 0 2 13.0307 -0.0201
0 0 3 1.2245 -0.1188
0 0 4 -1.6638 -0.0500
0 0 5 -0.9713 -0.0347
0 0 6 -2.0347 -0.0340
0 0 7 -3.4441 0.0687
0 0 8 -2.9150 0.0849
0 0 9 -0.6631 -0.0254
0 0 10 1.8952 -0.0583
0 0 11 2.6146 -0.0173
0 0 12 1.4414 0.0273
0 0 13 0.8390 0.0926
0 0 14 0.9413 0.0502
0 0 15 0.1435 -0.1075
0 0 16 -0.6557 -0.1163
0 1 0 -25.6649 -0.8926
0 1 1 -12.2595 -0.6115
0 1 2 2.3324 0.0676
0 1 3 6.5080 0.2528
0 1 4 1.7442 -0.0206
0 1 5 -1.3295 -0.1512
0 1 6 0.3295 -0.0460
0 1 7 1.4603 0.0453
0 1 8 -0.0126 0.0443
0 1 9 -1.9905 -0.0121
0 1 10 -2.6431 -0.0400
0 1 11 -1.2080 0.0136
0 1 12 0.6651 0.0219
0 1 13 0.6431 -0.0719
0 1 14 -0.1347 -0.1288
0 1 15 0.0879 -0.1774
0 1 16 0.2656 -0.3007
0 2 0 6.2514 0.7345
0 2 1 -4.4955 0.5392
0 2 2 -9.7527 0.2723
0 2 3 -3.4116 0.1125
0 2 4 6.0650 -0.0127
0 2 5 7.9126 -0.1027
0 2 6 3.9713 -0.0938
0 2 7 1.5778 -0.0390
0 2 8 1.8470 -0.0042
0 2 9 2.3333 0.0079
0 2 10 1.6023 -0.0127
0 2 11 -0.5377 -0.0521
0 2 12 -2.0143 -0.0632
0 2 13 -1.0370 -0.0584
0 2 14 0.6186 -0.0401
0 2 15 1.1406 0.0579
0 2 16 1.0930 0.1500
0 3 0 5.5168 0.9969
0 3 1 9.4876 0.8788
0 3 2 5.2009 0.3610
0 3 3 -5.3376 0.0088
0 3 4 -11.5005 -0.0390
0 3 5 -8.5806 -0.0227
0 3 6 -3.1913 -0.0428
0 3 7 -1.1232 -0.0641
0 3 8 -1.0078 -0.0437
0 3 9 -0.6539 0.0321
0 3 10 0.2100 0.0666
0 3 11 1.4279 -0.0083
0 3 12 1.8063 -0.0771
0 3 13 0.6155 -0.0310
0 3 14 -0.7574 0.0528
0 3 15 -1.2187 0.0415
0 3 16 -0.9645 -0.0448
0 4 0 -6.9293 -0.0162
0 4 1 -5.9692 0.0287
0 4 2 1.3204 0.0182
0 4 3 9.0144 0.0001
0 4 4 9.4292 0.1200
0 4 5 3.5379 0.1829
0 4 6 -0.9622 0.0376
0 4 7 -1.1144 -0.0839
0 4 8 -0.3230 -0.0751
0 4 9 -0.8106 -0.0485
0 4 10 -1.7169 0.0060
0 4 11 -1.9862 0.0745
0 4 12 -1.2598 0.0505
0 4 13 -0.0239 -0.0493
0 4 14 0.7802 -0.1389
0 4 15 0.9259 -0.1188
0 4 16 0.6227 0.0861
0 5 0 3.9516 -0.8573
0 5 1 1.9086 -0.7590
0 5 2 -2.4442 -0.3111
0 5 3 -5.1227 0.0323
0 5 4 -3.1359 0.0681
0 5 5 1.3060 0.1073
0 5 6 3.3645 0.1659
0 5 7 2.3085 0.0487
0 5 8 1.3599 -0.0554
0 5 9 1.9173 -0.0104
0 5 10 2.5302 0.0135
0 5 11 2.0480 -0.0049
0 5 12 0.7458 -0.0194
0 5 13 -0.4485 -0.0873
0 5 14 -0.8701 -0.1401
0 5 15 -0.6729 -0.1309
0 5 16 -0.3733 -0.1320
0 6 0 -0.9616 -0.8487
0 6 1 1.1039 -0.7622
0 6 2 2.2226 -0.4891
0 6 3 1.2116 -0.1114
0 6 4 -1.3820 0.0760
0 6 5 -3.5704 -0.0377
0 6 6 -3.6332 -0.0508
0 6 7 -2.5871 0.1282
0 6 8 -2.4697 0.1297
0 6 9 -2.8858 -0.0345
0 6 10 -2.3980 -0.1027
0 6 11 -1.1925 -0.0838
0 6 12 -0.1036 -0.0105
0 6 13 0.5449 0.1031
0 6 14 0.5208 0.1518
0 6 15 0.0011 0.2005
0 7 0 0.8527 0.0083
0 7 1 -1.0894 -0.0658
0 7 2 -1.5118 -0.0894
0 7 3 0.1318 -0.1553
0 7 4 2.3126 -0.1332
0 7 5 3.0406 -0.0264
0 7 6 1.8987 0.0069
0 7 7 0.8792 0.0600
0 7 8 1.2858 0.1586
0 7 9 1.6614 0.0966
0 7 10 0.9404 -0.0446
0 7 11 0.1699 -0.0706
0 7 12 -0.0230 -0.0602
0 7 13 -0.0856 0.0270
0 7 14 -0.0465 0.2706
0 7 15 0.1491 0.3526
0 8 0 -0.2056 0.8489
0 8 1 0.4439 0.7263
0 8 2 0.0674 0.2969
0 8 3 -1.1585 -0.0862
0 8 4 -2.1868 -0.2230
0 8 5 -1.9550 -0.0790
0 8 6 -0.5547 0.0722
0 8 7 0.3427 0.0011
0 8 8 -0.0491 -0.0039
0 8 9 -0.4958 0.2176
0 8 10 -0.3057 0.2528
0 8 11 -0.1810 0.0012
0 8 12 -0.3511 -0.1208
0 8 13 -0.4028 -0.0599
0 9 0 -1.3980 0.5270
0 9 1 -1.1831 0.6490
0 9 2 -0.0906 0.4411
0 9 3 0.6053 0.1791
0 9 4 0.4590 0.0319
0 9 5 -0.2284 -0.1093
0 9 6 -0.9742 -0.1852
0 9 7 -1.0055 -0.1479
0 9 8 -0.1427 -0.1710
0 9 9 0.6932 -0.1477
0 9 10 0.7934 0.1982
0 9 11 0.4603 0.6239
0 9 12 0.2380 0.6954
0 10 0 1.0803 -0.3413
0 10 1 0.8641 -0.3256
0 10 2 0.1963 0.0066
0 10 3 0.0958 0.2180
0 10 4 0.6034 0.1581
0 10 5 1.1652 0.0365
0 10 6 1.4659 -0.0010
0 10 7 1.2192 0.0618
0 10 8 0.3484 0.0441
0 10 9 -0.4622 -0.3250
0 10 10 -0.4931 -0.8279
1 -10 0 0.7788 -0.1863
1 -10 1 0.2675 -0.1246
1 -9 0 -0.9990 -0.7154
1 -9 1 -0.2358 -0.5916
1 -9 2 0.2582 -0.3186
1 -9 3 -0.1272 0.0031
1 -9 4 -0.4796 0.2945
1 -8 0 -0.0854 -0.4294
1 -8 1 -0.6602 -0.3820
1 -8 2 0.1686 -0.1436
1 -8 3 1.2945 -0.0476
1 -8 4 0.9428 -0.1442
1 -8 5 -0.2964 -0.2725
1 -8 6 -0.7979 -0.3073
1 -8 7 -0.3774 -0.2190
1 -7 0 1.4011 0.7321
1 -7 1 2.1740 0.5197
1 -7 2 0.5793 0.1968
1 -7 3 -0.9052 -0.0325
1 -7 4 -0.2292 -0.1583
1 -7 5 1.1895 -0.1332
1 -7 6 1.4194 -0.0250
1 -7 7 0.5965 0.0100
1 -7 8 -0.1873 -0.0145
1 -7 9 -0.3810 -0.0371
1 -6 0 -1.7007 0.8903
1 -6 1 -2.2922 0.8891
1 -6 2 -1.0800 0.4720
1 -6 3 -0.4008 0.0261
1 -6 4 -1.2965 -0.1430
1 -6 5 -2.2661 -0.1338
1 -6 6 -2.2281 -0.0365
1 -6 7 -1.6550 0.0717
1 -6 8 -1.2510 0.0674
1 -6 9 -1.0550 0.0162
1 -6 10 -0.6424 0.0035
1 -5 0 2.9236 0.3028
1 -5 1 1.6182 0.2790
1 -5 2 -0.0593 0.2321
1 -5 3 0.3606 0.1138
1 -5 4 2.1690 0.0458
1 -5 5 3.1230 0.0785
1 -5 6 2.7271 0.0324
1 -5 7 2.0675 -0.0426
1 -5 8 1.9486 -0.0100
1 -5 9 1.9851 0.0119
1 -5 10 1.3460 -0.0080
1 -5 11 0.4091 0.0408
1 -5 12 0.1627 0.0824
1 -4 0 -4.3275 -0.6552
1 -4 1 -1.1640 -0.5887
1 -4 2 0.8239 -0.3342
1 -4 3 -0.7043 0.0707
1 -4 4 -3.2246 0.2513
1 -4 5 -3.6880 0.1372
1 -4 6 -2.1252 0.0197
1 -4 7 -0.5544 -0.0189
1 -4 8 -0.4665 -0.0240
1 -4 9 -1.4084 0.0017
1 -4 10 -1.7350 -0.0127
1 -4 11 -1.0624 -0.0507
1 -4 12 -0.4014 -0.0203
1 -4 13 -0.1054 0.0210
1 -3 0 3.7099 -1.0278
1 -3 1 -0.8018 -0.8947
1 -3 2 -1.7592 -0.4369
1 -3 3 0.5813 -0.1019
1 -3 4 2.1753 0.0406
1 -3 5 1.1780 0.0672
1 -3 6 -0.6970 0.0621
1 -3 7 -1.4014 0.0592
1 -3 8 -0.4399 0.0087
1 -3 9 1.1940 -0.0157
1 -3 10 1.8302 0.0622
1 -3 11 1.1120 0.1052
1 -3 12 0.2558 0.0705
1 -3 13 -0.0681 0.0657
1 -3 14 -0.1095 0.0333
1 -2 0 3.6552 -0.2153
1 -2 1 8.8998 -0.2557
1 -2 2 6.6932 -0.2327
1 -2 3 2.0303 -0.2093
1 -2 4 0.9022 -0.1441
1 -2 5 2.9522 0.0016
1 -2 6 3.7850 0.0900
1 -2 7 1.8150 0.0744
1 -2 8 -0.9700 0.0293
1 -2 9 -2.3638 -0.0340
1 -2 10 -1.7097 -0.0463
1 -2 11 -0.4448 0.0158
1 -2 12 -0.3310 -0.0063
1 -2 13 -0.8133 -0.0506
1 -2 14 -0.6179 0.1152
1 -2 15 -0.1626 0.3221
1 -1 0 -20.3634 0.9543
1 -1 1 -24.6062 0.7767
1 -1 2 -17.5317 0.2123
1 -1 3 -8.0265 -0.1473
1 -1 4 -4.0987 -0.1660
1 -1 5 -4.4315 -0.0258
1 -1 6 -3.2792 0.0580
1 -1 7 0.3139 -0.0164
1 -1 8 3.1929 -0.0682
1 -1 9 3.2290 0.0193
1 -1 10 0.9826 0.0366
1 -1 11 -0.7596 -0.0340
1 -1 12 -0.3806 0.0124
1 -1 13 0.0742 0.0365
1 -1 14 -0.8422 -0.1262
1 -1 15 -1.3226 -0.2284
1 0 0 32.2298 0.2924
1 0 1 30.3564 0.3429
1 0 2 18.3956 0.2418
1 0 3 7.1172 0.1336
1 0 4 3.0327 0.0814
1 0 5 2.2661 -0.0841
1 0 6 -0.3559 -0.2162
1 0 7 -3.3435 -0.0799
1 0 8 -3.7191 0.0891
1 0 9 -1.6463 0.0617
1 0 10 1.0701 -0.0171
1 0 11 2.1874 -0.0812
1 0 12 1.5240 -0.1474
1 0 13 1.5948 -0.1122
1 0 14 2.5283 -0.0603
1 0 15 1.8768 -0.1340
1 0 16 0.1433 -0.1607
1 1 0 -26.9081 -0.4191
1 1 1 -17.1120 -0.3333
1 1 2 -3.6237 0.1591
1 1 3 2.4888 0.3190
1 1 4 0.5034 0.0561
1 1 5 -0.7683 -0.1105
1 1 6 1.9784 -0.0726
1 1 7 3.5327 -0.0265
1 1 8 1.3971 0.0038
1 1 9 -1.7225 -0.0160
1 1 10 -3.2303 -0.0978
1 1 11 -2.2515 -0.0846
1 1 12 -0.4579 0.0102
1 1 13 -0.3831 0.0134
1 1 14 -0.8860 -0.0355
1 1 15 0.1631 -0.0772
1 1 16 1.1734 -0.1815
1 2 0 8.9688 0.2324
1 2 1 -1.6935 0.2362
1 2 2 -8.7864 0.1316
1 2 3 -5.0185 0.1429
1 2 4 3.4325 0.1516
1 2 5 5.8494 0.0826
1 2 6 2.6400 0.0519
1 2 7 1.0457 0.0129
1 2 8 2.4284 -0.0882
1 2 9 3.6971 -0.0756
1 2 10 3.1063 0.0812
1 2 11 0.6117 0.1437
1 2 12 -1.6365 0.0420
1 2 13 -1.4630 -0.0533
1 2 14 -0.3796 -0.0372
1 2 15 -0.2228 0.0699
1 2 16 -0.0117 0.1670
1 3 0 5.5382 0.1590
1 3 1 11.2511 0.2098
1 3 2 9.2370 0.0112
1 3 3 -0.7042 -0.1571
1 3 4 -8.8274 -0.0602
1 3 5 -8.4600 0.0905
1 3 6 -4.4525 0.0723
1 3 7 -2.8809 -0.0161
1 3 8 -2.7941 -0.0352
1 3 9 -1.9639 -0.0045
1 3 10 -0.4918 0.0194
1 3 11 1.2584 0.0262
1 3 12 2.1956 0.0150
1 3 13 1.3573 -0.0004
1 3 14 -0.0299 0.0310
1 3 15 -0.7965 0.1098
1 3 16 -1.1136 0.1426
1 3 17 -0.8224 0.0935
1 4 0 -8.6109 -0.1301
1 4 1 -8.6092 -0.2517
1 4 2 -2.0265 -0.3037
1 4 3 6.4471 -0.2566
1 4 4 8.8165 -0.0955
1 4 5 4.3918 0.0685
1 4 6 0.2189 0.0940
1 4 7 -0.1668 0.0467
1 4 8 0.1743 0.0249
1 4 9 -0.8338 -0.0081
1 4 10 -2.0373 -0.0560
1 4 11 -2.3945 -0.0622
1 4 12 -1.6836 -0.0156
1 4 13 -0.3597 0.0328
1 4 14 0.5739 -0.0054
1 4 15 0.8665 -0.0639
1 4 16 0.7447 0.0861
1 4 17 0.2109 0.3679
1 5 0 4.7887 -0.4426
1 5 1 2.1647 -0.5179
1 5 2 -2.8677 -0.2825
1 5 3 -6.0774 -0.0250
1 5 4 -4.2424 0.0003
1 5 5 0.4253 -0.0411
1 5 6 2.7333 0.0027
1 5 7 1.7393 0.0312
1 5 8 0.8950 0.0316
1 5 9 1.8232 0.0400
1 5 10 2.9683 -0.0056
1 5 11 2.8585 -0.0480
1 5 12 1.4872 0.0034
1 5 13 -0.1197 0.0710
1 5 14 -0.9055 0.0764
1 5 15 -0.8310 -0.0493
1 5 16 -0.4576 -0.3394
1 6 0 -0.2781 -0.1653
1 6 1 2.1816 -0.1087
1 6 2 3.4586 -0.0517
1 6 3 2.0647 0.0220
1 6 4 -1.1660 0.0369
1 6 5 -3.7063 -0.0742
1 6 6 -3.6167 -0.1048
1 6 7 -2.1158 0.0429
1 6 8 -1.7378 0.1319
1 6 9 -2.5032 0.0894
1 6 10 -2.7905 0.0477
1 6 11 -2.1169 -0.0190
1 6 12 -0.9150 -0.1090
1 6 13 0.2666 -0.0806
1 6 14 0.7181 0.0962
1 6 15 0.3140 0.3721
1 6 16 -0.1754 0.5849
1 7 0 -0.1804 0.2444
1 7 1 -2.0782 0.3794
1 7 2 -2.1963 0.3291
1 7 3 -0.0635 0.1290
1 7 4 2.5853 -0.0068
1 7 5 3.6959 -0.0059
1 7 6 2.8052 -0.0156
1 7 7 1.6702 -0.0427
1 7 8 1.6573 -0.0080
1 7 9 1.7620 0.0169
1 7 10 1.0592 0.0381
1 7 11 0.3403 0.1296
1 7 12 0.1258 0.1492
1 7 13 0.0622 0.0134
1 7 14 0.1651 -0.1256
1 7 15 0.4670 -0.2385
1 8 0 -0.5044 0.2387
1 8 1 0.3383 0.3045
1 8 2 0.2598 0.2638
1 8 3 -0.7589 0.1185
1 8 4 -1.8018 -0.0279
1 8 5 -1.9810 -0.0264
1 8 6 -1.1623 0.0288
1 8 7 -0.3394 -0.0615
1 8 8 -0.1901 -0.1518
1 8 9 -0.1374 -0.0234
1 8 10 0.1152 0.1160
1 8 11 0.0411 0.0452
1 8 12 -0.3980 -0.0532
1 8 13 -0.7346 -0.0468
1 8 14 -0.7760 -0.0581
1 9 0 -0.6515 0.1514
1 9 1 -0.8067 0.0414
1 9 2 -0.1075 -0.1038
1 9 3 0.4326 -0.0777
1 9 4 0.3046 0.0532
1 9 5 -0.1811 0.0649
1 9 6 -0.7629 0.0274
1 9 7 -1.0728 0.0773
1 9 8 -0.6724 0.0516
1 9 9 0.1888 -0.1381
1 9 10 0.7692 -0.2235
1 9 11 0.7889 -0.0337
1 9 12 0.6075 0.2500
1 9 13 0.5130 0.4128
1 10 0 1.1187 -0.0245
1 10 1 1.1334 -0.1449
1 10 2 0.4277 -0.1285
1 10 3 0.1054 -0.0880
1 10 4 0.4593 -0.0634
1 10 5 0.9207 -0.0617
1 10 6 1.2246 -0.1050
1 10 7 1.1612 -0.0879
1 10 8 0.3227 0.0423
1 10 9 -0.8098 0.0819
1 10 10 -1.0554 -0.0922
1 10 11 -0.3934 -0.2862
2 -9 0 -0.0242 0.0250
2 -9 1 0.4633 -0.0766
2 -9 2 0.8592 -0.1587
2 -9 3 0.6294 -0.1924
2 -9 4 0.1898 -0.1422
2 -8 0 -0.3275 0.1046
2 -8 1 -1.1837 0.2125
2 -8 2 -1.0439 0.2704
2 -8 3 -0.1550 0.2342
2 -8 4 0.1944 0.1163
2 -8 5 -0.1357 -0.0369
2 -8 6 -0.3939 -0.1549
2 -7 0 1.0804 0.2821
2 -7 1 2.0007 0.3638
2 -7 2 0.9066 0.3073
2 -7 3 -0.4904 0.1101
2 -7 4 -0.2204 -0.0907
2 -7 5 0.9102 -0.0854
2 -7 6 1.3437 0.0721
2 -7 7 0.9777 0.1765
2 -7 8 0.4030 0.1996
2 -6 0 -2.1042 0.2656
2 -6 1 -2.5713 0.2324
2 -6 2 -0.9485 0.0773
2 -6 3 0.1925 0.0059
2 -6 4 -0.6375 0.0349
2 -6 5 -1.8574 0.0081
2 -6 6 -2.0350 -0.0076
2 -6 7 -1.5690 0.0408
2 -6 8 -1.2701 0.0254
2 -6 9 -1.2849 -0.0004
2 -6 10 -1.1177 0.0410
2 -5 0 2.4767 -0.1431
2 -5 1 1.0249 -0.2046
2 -5 2 -1.0198 -0.2156
2 -5 3 -0.8296 -0.2096
2 -5 4 1.1603 -0.0708
2 -5 5 2.3766 0.1557
2 -5 6 2.1162 0.1556
2 -5 7 1.6000 -0.0043
2 -5 8 1.7282 -0.0263
2 -5 9 2.1511 0.0073
2 -5 10 1.8759 0.0040
2 -5 11 0.8870 0.0967
2 -5 12 0.2060 0.1966
2 -4 0 -2.3396 -0.4341
2 -4 1 1.1350 -0.5119
2 -4 2 3.0009 -0.4047
2 -4 3 0.9450 -0.1023
2 -4 4 -2.1452 0.0480
2 -4 5 -2.9248 -0.0177
2 -4 6 -1.6915 0.0012
2 -4 7 -0.5223 0.0740
2 -4 8 -0.5338 0.0428
2 -4 9 -1.3208 0.0081
2 -4 10 -1.6492 -0.0120
2 -4 11 -1.1366 -0.0655
2 -4 12 -0.5604 -0.0470
2 -4 13 -0.2821 0.0263
2 -3 0 1.0452 -0.2767
2 -3 1 -3.0831 -0.2610
2 -3 2 -3.5256 -0.0727
2 -3 3 -0.2931 0.0259
2 -3 4 2.0824 0.0710
2 -3 5 1.3854 0.0574
2 -3 6 -0.4380 -0.0527
2 -3 7 -1.2860 -0.1182
2 -3 8 -0.7911 -0.0993
2 -3 9 0.4578 -0.0531
2 -3 10 1.2836 0.0417
2 -3 11 1.0406 0.0994
2 -3 12 0.3876 0.0301
2 -3 13 0.0062 -0.0420
2 -3 14 -0.0858 -0.0403
2 -2 0 3.3624 0.1306
2 -2 1 7.2230 0.2364
2 -2 2 5.0726 0.2503
2 -2 3 0.9657 0.1276
2 -2 4 0.3807 -0.0829
2 -2 5 2.8463 -0.1450
2 -2 6 4.0647 -0.0332
2 -2 7 2.5781 0.0572
2 -2 8 0.1788 0.0536
2 -2 9 -1.3680 -0.0088
2 -2 10 -1.2931 -0.0545
2 -2 11 -0.2860 -0.0325
2 -2 12 0.0084 -0.0476
2 -2 13 -0.5547 -0.1161
2 -2 14 -0.7819 -0.0640
2 -2 15 -0.4727 0.0537
2 -1 0 -13.8748 0.3634
2 -1 1 -17.6810 0.3924
2 -1 2 -12.4730 0.1638
2 -1 3 -5.8936 -0.0115
2 -1 4 -4.5444 -0.0013
2 -1 5 -6.3833 0.0495
2 -1 6 -5.7448 0.0291
2 -1 7 -1.9780 -0.0465
2 -1 8 1.5304 -0.0687
2 -1 9 2.4943 -0.0090
2 -1 10 1.0567 -0.0234
2 -1 11 -0.4370 -0.0990
2 -1 12 0.1199 -0.0235
2 -1 13 1.3208 0.1041
2 -1 14 0.9505 0.0465
2 -1 15 -0.0987 -0.0634
2 0 0 22.7318 0.2772
2 0 1 24.0730 0.2381
2 0 2 16.4014 0.1070
2 0 3 8.6576 0.0431
2 0 4 6.4650 0.0839
2 0 5 6.2544 0.0422
2 0 6 3.1059 -0.0716
2 0 7 -1.2853 -0.0576
2 0 8 -3.0895 0.0262
2 0 9 -1.8522 0.0345
2 0 10 0.5226 0.0210
2 0 11 1.4388 -0.0100
2 0 12 0.2426 -0.0763
2 0 13 -0.3108 -0.0498
2 0 14 1.0235 0.0214
2 0 15 1.7678 -0.0395
2 0 16 0.9732 -0.1092
2 1 0 -20.7237 -0.2574
2 1 1 -15.7426 -0.2313
2 1 2 -6.6150 0.0648
2 1 3 -1.9244 0.1767
2 1 4 -2.8561 0.0215
2 1 5 -2.6656 -0.0490
2 1 6 1.4928 0.0105
2 1 7 4.5360 0.0221
2 1 8 3.1121 0.0127
2 1 9 -0.4306 0.0092
2 1 10 -2.7994 -0.0217
2 1 11 -2.3758 0.0054
2 1 12 -0.5350 0.0655
2 1 13 -0.4073 0.0251
2 1 14 -1.5529 -0.0133
2 1 15 -1.1085 0.0571
2 1 16 0.2498 0.0746
2 2 0 8.8347 -0.2091
2 2 1 0.6578 -0.2640
2 2 2 -5.3688 -0.2784
2 2 3 -3.4346 -0.1343
2 2 4 2.1983 -0.0116
2 2 5 3.1712 -0.0096
2 2 6 -0.2725 0.0416
2 2 7 -1.5243 0.0991
2 2 8 0.8685 -0.0023
2 2 9 3.4029 -0.0962
2 2 10 3.7696 -0.0060
2 2 11 1.7814 0.0963
2 2 12 -0.4509 0.0548
2 2 13 -0.4197 -0.0383
2 2 14 0.5601 -0.0681
2 2 15 0.1369 -0.0035
2 2 16 -0.5601 0.1178
2 2 17 -0.2526 0.1938
2 3 0 3.5777 -0.0117
2 3 1 9.4687 -0.0461
2 3 2 9.3441 -0.1522
2 3 3 2.2706 -0.2409
2 3 4 -4.5624 -0.1052
2 3 5 -5.1819 0.0979
2 3 6 -2.8896 0.0967
2 3 7 -2.8590 0.0000
2 3 8 -3.9379 0.0038
2 3 9 -3.4289 0.0352
2 3 10 -1.5637 0.0028
2 3 11 0.6581 -0.0218
2 3 12 1.8823 0.0045
2 3 13 1.1143 0.0156
2 3 14 -0.1504 -0.0163
2 3 15 -0.4234 -0.0346
2 3 16 -0.3710 -0.0295
2 3 17 -0.3414 -0.0472
2 4 0 -8.0319 0.1647
2 4 1 -9.0825 0.1619
2 4 2 -4.7114 0.0912
2 4 3 2.1539 0.0179
2 4 4 5.3638 -0.0533
2 4 5 3.2791 -0.0780
2 4 6 0.8435 -0.0622
2 4 7 1.1213 -0.0402
2 4 8 1.4579 0.0173
2 4 9 -0.1081 0.0873
2 4 10 -2.1132 0.0646
2 4 11 -3.0103 -0.0509
2 4 12 -2.3118 -0.0925
2 4 13 -0.6028 0.0455
2 4 14 0.5609 0.1895
2 4 15 0.7130 0.1424
2 4 16 0.5849 0.0482
2 4 17 0.3135 0.0802
2 5 0 5.6513 0.0697
2 5 1 2.9667 0.0572
2 5 2 -2.0532 0.0922
2 5 3 -5.6188 0.1395
2 5 4 -4.7606 0.0962
2 5 5 -0.8087 -0.0343
2 5 6 1.7302 -0.1021
2 5 7 1.3483 -0.0521
2 5 8 0.8455 0.0149
2 5 9 1.9645 0.0191
2 5 10 3.4124 -0.0137
2 5 11 3.5680 -0.0070
2 5 12 2.0972 0.0290
2 5 13 0.1101 0.0199
2 5 14 -0.8805 0.0192
2 5 15 -0.7949 0.0554
2 5 16 -0.5209 -0.0363
2 5 17 -0.3362 -0.2164
2 6 0 -1.2589 -0.1699
2 6 1 1.9229 0.0049
2 6 2 4.5001 0.1696
2 6 3 4.1933 0.1887
2 6 4 1.2169 0.1185
2 6 5 -1.9683 0.0715
2 6 6 -2.7880 0.0484
2 6 7 -1.6564 0.0027
2 6 8 -1.1101 -0.0594
2 6 9 -1.8627 -0.0595
2 6 10 -2.5823 0.0394
2 6 11 -2.3668 0.1230
2 6 12 -1.2861 0.0884
2 6 13 -0.0282 -0.0248
2 6 14 0.5158 -0.1326
2 6 15 0.3048 -0.1106
2 6 16 0.0431 0.0817
2 7 0 -0.6231 -0.1102
2 7 1 -2.7261 -0.1004
2 7 2 -3.1507 -0.0853
2 7 3 -1.0814 -0.0338
2 7 4 1.8518 0.0099
2 7 5 3.3480 0.0107
2 7 6 2.6511 0.0177
2 7 7 1.4330 0.0401
2 7 8 1.3381 0.0251
2 7 9 1.6290 -0.0298
2 7 10 1.1346 -0.0552
2 7 11 0.3137 -0.0155
2 7 12 -0.0624 0.0204
2 7 13 0.0463 -0.0066
2 7 14 0.4471 -0.0761
2 7 15 0.7545 -0.1959
2 7 16 0.6185 -0.3161
2 8 0 0.1924 0.1017
2 8 1 0.9719 -0.0419
2 8 2 0.7445 -0.1059
2 8 3 -0.5477 -0.1438
2 8 4 -1.7467 -0.1240
2 8 5 -1.9163 -0.0271
2 8 6 -1.2370 0.0330
2 8 7 -0.7514 0.0181
2 8 8 -0.8311 0.0019
2 8 9 -0.6682 -0.0054
2 8 10 0.0552 -0.0471
2 8 11 0.5472 -0.1061
2 8 12 0.2510 -0.1047
2 8 13 -0.5574 -0.0047
2 8 14 -1.1943 0.1319
2 8 15 -1.0875 0.2018
2 9 0 -0.1097 0.2536
2 9 1 -0.2952 0.1762
2 9 2 0.0552 -0.0599
2 9 3 0.3440 -0.1634
2 9 4 0.0354 -0.1256
2 9 5 -0.4843 -0.0775
2 9 6 -0.7885 -0.0353
2 9 7 -0.9151 0.0114
2 9 8 -0.8781 0.0678
2 9 9 -0.5902 0.1105
2 9 10 -0.1955 0.0635
2 9 11 0.0998 -0.0301
2 9 12 0.3921 -0.0355
2 9 13 0.7270 0.0175
2 10 0 0.5314 -0.0605
2 10 1 0.7353 0.0667
2 10 2 0.3838 0.1460
2 10 3 0.2340 0.0944
2 10 4 0.6609 0.0518
2 10 5 1.0666 0.0294
2 10 6 1.2256 -0.0266
2 10 7 1.3746 -0.0592
2 10 8 1.1376 -0.0767
2 10 9 0.2696 -0.0986
2 10 10 -0.4040 -0.0286
2 10 11 -0.3600 0.1050
3 -9 0 0.6823 -0.1809
3 -9 1 0.7251 0.0304
3 -9 2 0.6032 0.1646
3 -8 0 -0.9941 0.0322
3 -8 1 -1.3488 -0.0348
3 -8 2 -1.2007 -0.0223
3 -8 3 -0.7144 0.1928
3 -8 4 -0.3503 0.3365
3 -8 5 -0.1327 0.2260
3 -8 6 0.0857 0.0916
3 -7 0 0.3635 -0.1782
3 -7 1 0.7547 -0.1347
3 -7 2 0.3787 -0.0856
3 -7 3 0.0660 -0.1307
3 -7 4 0.5585 -0.0997
3 -7 5 1.0714 0.0338
3 -7 6 0.9379 0.0591
3 -7 7 0.5633 -0.0211
3 -7 8 0.2725 0.0317
3 -6 0 -1.2287 0.1244
3 -6 1 -1.6371 -0.0312
3 -6 2 -0.5744 -0.1931
3 -6 3 0.0285 -0.2165
3 -6 4 -0.9548 -0.1537
3 -6 5 -2.0246 -0.0485
3 -6 6 -1.9533 0.1182
3 -6 7 -1.2441 0.1855
3 -6 8 -0.7372 -0.0025
3 -6 9 -0.7505 -0.1966
3 -6 10 -0.8877 -0.1687
3 -5 0 1.8861 0.0419
3 -5 1 1.2793 0.0418
3 -5 2 -0.5009 -0.0261
3 -5 3 -0.7915 -0.1150
3 -5 4 0.6988 -0.0847
3 -5 5 1.7726 0.0008
3 -5 6 1.5102 -0.0700
3 -5 7 0.8463 -0.1500
3 -5 8 0.7805 -0.0070
3 -5 9 1.4353 0.1186
3 -5 10 1.8426 0.0387
3 -5 11 1.2726 -0.0047
3 -4 0 -1.7029 0.0397
3 -4 1 1.2592 0.0605
3 -4 2 3.1798 0.1230
3 -4 3 1.6554 0.2132
3 -4 4 -0.9793 0.1339
3 -4 5 -1.6473 -0.0493
3 -4 6 -0.7345 -0.0455
3 -4 7 -0.0732 0.0122
3 -4 8 -0.3694 -0.1055
3 -4 9 -1.2269 -0.1771
3 -4 10 -1.5804 -0.0546
3 -4 11 -0.9610 0.0890
3 -4 12 -0.2113 0.2006
3 -4 13 0.0282 0.2767
3 -3 0 0.4326 -0.1216
3 -3 1 -3.8170 -0.0190
3 -3 2 -4.5099 0.1503
3 -3 3 -1.1363 0.1812
3 -3 4 1.5636 0.1594
3 -3 5 1.0198 0.0991
3 -3 6 -0.5825 -0.0555
3 -3 7 -1.1030 -0.1027
3 -3 8 -0.6120 0.0186
3 -3 9 0.2100 0.0782
3 -3 10 0.5996 0.0294
3 -3 11 0.2524 -0.0547
3 -3 12 -0.1284 -0.2114
3 -3 13 -0.0419 -0.3624
3 -2 0 3.4432 -0.0459
3 -2 1 6.4789 -0.0361
3 -2 2 4.3058 0.0116
3 -2 3 0.2302 0.0874
3 -2 4 -0.3923 0.0527
3 -2 5 2.1244 0.0067
3 -2 6 3.5529 0.0331
3 -2 7 2.5455 0.0040
3 -2 8 0.7916 -0.0620
3 -2 9 -0.4013 -0.0501
3 -2 10 -0.4915 -0.0053
3 -2 11 0.2194 0.0286
3 -2 12 0.4337 0.0755
3 -2 13 -0.2047 0.1301
3 -2 14 -0.6711 0.1821
3 -1 0 -10.0741 -0.0213
3 -1 1 -11.3087 -0.0002
3 -1 2 -6.0479 -0.1050
3 -1 3 -1.3473 -0.1699
3 -1 4 -2.3204 -0.0683
3 -1 5 -5.7958 0.0302
3 -1 6 -6.1128 0.0273
3 -1 7 -3.0139 0.0188
3 -1 8 0.1720 0.0509
3 -1 9 1.4625 0.0789
3 -1 10 0.7382 0.0426
3 -1 11 -0.5069 -0.0356
3 -1 12 -0.2649 -0.0398
3 -1 13 0.9935 0.0240
3 -1 14 1.2746 0.0394
3 -1 15 0.6154 0.0155
3 0 0 13.7003 0.0802
3 0 1 13.7961 0.0376
3 0 2 8.1411 -0.0512
3 0 3 4.2091 -0.1376
3 0 4 5.5101 -0.1431
3 0 5 7.5479 -0.0542
3 0 6 5.3978 0.0492
3 0 7 0.8177 0.0956
3 0 8 -1.8768 0.0489
3 0 9 -1.5121 -0.0414
3 0 10 0.4297 -0.0575
3 0 11 1.4442 -0.0012
3 0 12 0.2664 0.0609
3 0 13 -1.0396 0.1439
3 0 14 -0.5447 0.1856
3 0 15 0.3347 0.1090
3 0 16 0.2895 0.0572
3 1 0 -11.2199 0.0680
3 1 1 -8.3878 -0.0042
3 1 2 -3.6988 0.0050
3 1 3 -2.5284 -0.0111
3 1 4 -4.8104 -0.0722
3 1 5 -5.0638 -0.0629
3 1 6 -0.8471 -0.0032
3 1 7 3.4091 0.0130
3 1 8 3.6253 0.0135
3 1 9 0.7794 0.0194
3 1 10 -2.0513 0.0245
3 1 11 -2.4547 0.0690
3 1 12 -0.7364 0.0688
3 1 13 0.0679 -0.0742
3 1 14 -0.8628 -0.1743
3 1 15 -1.1374 -0.0673
3 1 16 -0.3740 0.0783
3 2 0 5.2865 -0.0448
3 2 1 0.1006 -0.0822
3 2 2 -2.7556 -0.0698
3 2 3 -0.6080 0.0269
3 2 4 2.9560 0.0440
3 2 5 2.4272 -0.0751
3 2 6 -1.6031 -0.1146
3 2 7 -3.5398 -0.0201
3 2 8 -1.5214 0.0331
3 2 9 1.5750 0.0162
3 2 10 3.1243 -0.0038
3 2 11 2.2291 -0.0414
3 2 12 0.3107 -0.0732
3 2 13 0.0965 -0.0624
3 2 14 1.2202 -0.0554
3 2 15 1.1831 -0.0725
3 2 16 0.2959 -0.0896
3 2 17 0.1001 -0.0943
3 3 0 1.7475 -0.0245
3 3 1 5.8360 0.0262
3 3 2 5.5565 0.0788
3 3 3 1.0939 0.0699
3 3 4 -2.6778 0.0984
3 3 5 -2.0446 0.1342
3 3 6 0.2468 0.0403
3 3 7 -0.2477 -0.0844
3 3 8 -2.6110 -0.0788
3 3 9 -3.5700 -0.0005
3 3 10 -2.4165 0.0360
3 3 11 -0.0605 0.0161
3 3 12 1.7271 -0.0075
3 3 13 1.2827 0.0157
3 3 14 -0.2137 0.0487
3 3 15 -0.6380 0.0367
3 3 16 -0.3032 0.0067
3 3 17 -0.0907 -0.0369
3 4 0 -5.8653 0.0100
3 4 1 -6.7192 0.1064
3 4 2 -4.0104 0.1373
3 4 3 0.1642 0.1472
3 4 4 2.2529 0.1178
3 4 5 1.0664 0.0812
3 4 6 -0.2094 0.0449
3 4 7 0.9921 -0.0324
3 4 8 2.5172 -0.0763
3 4 9 1.7597 -0.0198
3 4 10 -0.6917 0.0419
3 4 11 -2.9457 0.0268
3 4 12 -3.3956 -0.0139
3 4 13 -1.8229 0.0157
3 4 14 -0.1300 0.1036
3 4 15 0.3185 0.0943
3 4 16 0.2273 -0.0369
3 4 17 0.1511 -0.1035
3 5 0 5.6209 0.0599
3 5 1 3.6419 0.1279
3 5 2 -0.0990 0.0889
3 5 3 -2.8610 0.0190
3 5 4 -2.9263 -0.0055
3 5 5 -0.7626 -0.0415
3 5 6 0.8402 -0.0521
3 5 7 0.3505 0.0294
3 5 8 -0.2528 0.0820
3 5 9 0.9681 0.0125
3 5 10 3.1843 -0.0631
3 5 11 4.3737 -0.0202
3 5 12 3.3577 0.0759
3 5 13 1.0351 0.0507
3 5 14 -0.4094 -0.0683
3 5 15 -0.4296 -0.0520
3 5 16 -0.2456 0.0813
3 5 17 -0.3157 0.1106
3 6 0 -2.9645 -0.0545
3 6 1 -0.3337 -0.1559
3 6 2 2.6316 -0.1012
3 6 3 3.6278 -0.0976
3 6 4 2.2672 -0.1572
3 6 5 -0.1042 -0.0810
3 6 6 -1.3195 0.0609
3 6 7 -0.9439 0.0622
3 6 8 -0.8448 -0.0332
3 6 9 -2.0145 -0.0788
3 6 10 -3.2725 -0.0454
3 6 11 -3.2439 0.0081
3 6 12 -1.7908 0.0236
3 6 13 -0.1206 -0.0041
3 6 14 0.4293 -0.0979
3 6 15 0.1214 -0.2615
3 6 16 0.0374 -0.3364
3 7 0 0.3194 -0.0003
3 7 1 -1.6305 -0.1215
3 7 2 -2.6652 -0.2444
3 7 3 -1.5594 -0.1561
3 7 4 0.7140 -0.0055
3 7 5 2.1334 -0.0274
3 7 6 1.6647 -0.0833
3 7 7 0.6214 -0.0277
3 7 8 0.8371 0.0404
3 7 9 1.8242 0.0721
3 7 10 1.8541 0.0671
3 7 11 0.6815 -0.0245
3 7 12 -0.5277 -0.1362
3 7 13 -0.7264 -0.1247
3 7 14 0.0128 0.0262
3 7 15 0.5623 0.1863
3 8 0 1.0303 0.0042
3 8 1 1.8688 0.0278
3 8 2 1.4638 0.0536
3 8 3 -0.3971 -0.0271
3 8 4 -2.1087 -0.0734
3 8 5 -2.1210 -0.0068
3 8 6 -0.7856 0.0165
3 8 7 0.0542 0.0260
3 8 8 -0.4664 0.0968
3 8 9 -1.1127 0.0818
3 8 10 -0.5795 0.0005
3 8 11 0.7000 0.0307
3 8 12 1.3378 0.0866
3 8 13 0.6533 0.0432
3 8 14 -0.5411 0.0117
3 8 15 -0.8981 0.0576
3 9 0 -0.6566 0.0543
3 9 1 -0.7622 0.1182
3 9 2 -0.2410 0.1038
3 9 3 0.5163 0.1140
3 9 4 0.4230 0.0848
3 9 5 -0.5237 0.0402
3 9 6 -1.2629 0.0379
3 9 7 -1.2147 -0.0538
3 9 8 -0.7344 -0.1520
3 9 9 -0.3847 -0.0508
3 9 10 -0.4348 0.0400
3 9 11 -0.7136 -0.0448
3 9 12 -0.6455 -0.0381
3 9 13 -0.0176 0.0934
3 10 0 0.0976 -0.0998
3 10 1 0.1486 -0.0197
3 10 2 -0.0712 0.0229
3 10 3 -0.0593 -0.0329
3 10 4 0.7089 -0.0181
3 10 5 1.4819 0.0186
3 10 6 1.5358 0.0352
3 10 7 1.3755 0.1336
3 10 8 1.4085 0.1399
3 10 9 1.2954 -0.0506
3 10 10 1.0282 -0.1109
3 10 11 0.8142 0.0117
4 -8 0 -1.2476 0.1612
4 -8 1 -1.4289 -0.1746
4 -8 2 -0.9943 -0.4747
4 -8 3 -0.3596 -0.2201
4 -8 4 0.1027 0.1229
4 -7 0 0.6450 -0.0684
4 -7 1 0.4194 0.0955
4 -7 2 -0.1836 0.1114
4 -7 3 -0.2737 -0.0976
4 -7 4 0.3532 -0.0388
4 -7 5 0.7551 0.2042
4 -7 6 0.5182 0.1256
4 -7 7 0.1991 -0.1511
4 -6 0 -0.3190 0.0466
4 -6 1 -0.0968 -0.0030
4 -6 2 0.7108 0.0732
4 -6 3 0.5402 0.1094
4 -6 4 -1.0231 -0.0772
4 -6 5 -2.2361 -0.1528
4 -6 6 -2.0905 0.0362
4 -6 7 -1.2891 0.0780
4 -6 8 -0.6105 -0.2046
4 -6 9 -0.3807 -0.3744
4 -5 0 0.2389 0.0730
4 -5 1 0.3670 0.2116
4 -5 2 -0.4111 0.1649
4 -5 3 -0.3021 0.1251
4 -5 4 1.0164 0.1710
4 -5 5 1.8591 0.0988
4 -5 6 1.5701 -0.0922
4 -5 7 0.8614 -0.1062
4 -5 8 0.4591 0.0797
4 -5 9 0.7785 0.0740
4 -5 10 1.2758 -0.2147
4 -5 11 1.0199 -0.3803
4 -4 0 -0.2155 0.0136
4 -4 1 0.9042 0.0255
4 -4 2 1.6975 0.1222
4 -4 3 0.6066 0.1751
4 -4 4 -0.8623 0.0810
4 -4 5 -0.7817 -0.0412
4 -4 6 0.0393 -0.0034
4 -4 7 0.2537 0.0696
4 -4 8 -0.2388 -0.0031
4 -4 9 -1.1472 -0.0318
4 -4 10 -1.6753 0.1376
4 -4 11 -1.1365 0.3113
4 -4 12 -0.2496 0.3616
4 -3 0 0.8098 -0.1080
4 -3 1 -2.0262 -0.1189
4 -3 2 -2.7435 -0.0741
4 -3 3 -0.4749 -0.0635
4 -3 4 1.1209 -0.0267
4 -3 5 0.0951 0.0142
4 -3 6 -1.2639 -0.0601
4 -3 7 -1.2110 -0.0956
4 -3 8 -0.3274 0.0412
4 -3 9 0.5865 0.1412
4 -3 10 0.8194 0.0960
4 -3 11 0.1162 0.0245
4 -3 12 -0.5628 -0.0793
4 -3 13 -0.5059 -0.2455
4 -2 0 0.9985 -0.0617
4 -2 1 3.8443 -0.1737
4 -2 2 3.1985 -0.2478
4 -2 3 0.5700 -0.1577
4 -2 4 0.2362 -0.0324
4 -2 5 2.2362 0.0643
4 -2 6 3.1528 0.1147
4 -2 7 2.1237 0.0197
4 -2 8 0.7217 -0.0850
4 -2 9 -0.1512 0.0031
4 -2 10 -0.1019 0.1058
4 -2 11 0.6961 0.0315
4 -2 12 1.0044 -0.0288
4 -2 13 0.3685 0.1102
4 -2 14 -0.2384 0.3108
4 -1 0 -6.5383 -0.0546
4 -1 1 -7.6040 -0.0074
4 -1 2 -3.8518 -0.0214
4 -1 3 -0.5343 -0.0722
4 -1 4 -1.7224 -0.0581
4 -1 5 -4.6568 -0.0592
4 -1 6 -4.7713 -0.0656
4 -1 7 -2.2893 0.0253
4 -1 8 -0.0293 0.0858
4 -1 9 0.7686 0.0058
4 -1 10 0.1727 -0.0498
4 -1 11 -0.8501 0.0210
4 -1 12 -0.7922 0.0901
4 -1 13 0.1738 0.0840
4 -1 14 0.5262 0.0959
4 -1 15 0.1160 0.1552
4 0 0 9.6113 0.0730
4 0 1 8.9091 0.0717
4 0 2 3.9727 0.0859
4 0 3 1.1133 0.0117
4 0 4 3.0326 -0.1259
4 0 5 5.5862 -0.1212
4 0 6 4.3830 0.0258
4 0 7 0.8119 0.1122
4 0 8 -1.3285 0.0568
4 0 9 -0.9044 -0.0504
4 0 10 0.7640 -0.0959
4 0 11 1.6276 -0.0384
4 0 12 0.6993 0.0753
4 0 13 -0.4807 0.1143
4 0 14 -0.2930 -0.0492
4 0 15 0.3292 -0.2821
4 0 16 0.2245 -0.2543
4 1 0 -6.9754 0.1543
4 1 1 -4.3793 0.2144
4 1 2 -1.1763 0.1221
4 1 3 -1.0406 0.0134
4 1 4 -3.5239 0.0038
4 1 5 -4.4796 0.0335
4 1 6 -1.6531 0.0044
4 1 7 1.9896 -0.0488
4 1 8 2.7577 -0.0344
4 1 9 0.7018 0.0096
4 1 10 -1.7095 0.0087
4 1 11 -2.2301 -0.0116
4 1 12 -0.8339 -0.0522
4 1 13 0.1072 -0.1118
4 1 14 -0.4591 -0.0684
4 1 15 -0.7966 0.0711
4 1 16 -0.2099 0.1149
4 2 0 2.9889 -0.0097
4 2 1 -0.7224 -0.0347
4 2 2 -1.8334 0.0511
4 2 3 0.2784 0.1937
4 2 4 2.6294 0.2256
4 2 5 2.0163 0.1010
4 2 6 -1.1087 -0.0306
4 2 7 -2.9632 -0.0765
4 2 8 -1.7696 -0.0548
4 2 9 0.6097 0.0205
4 2 10 2.0278 0.0582
4 2 11 1.6572 -0.0183
4 2 12 0.3200 -0.0848
4 2 13 0.0446 -0.0414
4 2 14 0.9544 0.0351
4 2 15 1.1201 0.0805
4 2 16 0.3859 0.0414
4 3 0 1.0528 -0.0754
4 3 1 3.6688 -0.1038
4 3 2 2.8292 -0.0292
4 3 3 -0.1923 0.0581
4 3 4 -2.0604 0.0837
4 3 5 -0.8477 0.0397
4 3 6 1.4870 -0.0291
4 3 7 1.4412 -0.0411
4 3 8 -0.8221 -0.0245
4 3 9 -2.3765 -0.0370
4 3 10 -1.9418 -0.0144
4 3 11 -0.1301 0.0243
4 3 12 1.5691 -0.0156
4 3 13 1.5326 -0.0556
4 3 14 0.2669 -0.0382
4 3 15 -0.3293 -0.0416
4 3 16 -0.1391 -0.0146
4 4 0 -4.4645 -0.0194
4 4 1 -4.8527 -0.0032
4 4 2 -2.6340 -0.0545
4 4 3 0.1851 -0.1283
4 4 4 1.5758 -0.1281
4 4 5 0.6517 -0.0197
4 4 6 -0.8325 0.0726
4 4 7 -0.2992 0.0363
4 4 8 1.5375 -0.0161
4 4 9 2.0176 -0.0059
4 4 10 0.4324 -0.0061
4 4 11 -1.9666 0.0174
4 4 12 -3.3290 0.0760
4 4 13 -2.6224 0.0355
4 4 14 -1.0845 -0.0879
4 4 15 -0.3504 -0.2057
4 4 16 -0.1634 -0.3375
4 4 17 0.0479 -0.3658
4 5 0 5.0213 -0.0165
4 5 1 3.6942 0.0440
4 5 2 1.0760 -0.0070
4 5 3 -0.7888 -0.0848
4 5 4 -1.3028 -0.0899
4 5 5 -0.4891 -0.0802
4 5 6 0.3924 -0.0556
4 5 7 -0.1564 0.0246
4 5 8 -1.1453 0.0628
4 5 9 -0.5239 0.0258
4 5 10 1.6861 -0.0105
4 5 11 3.6338 -0.0335
4 5 12 3.6074 -0.0144
4 5 13 1.8291 0.0240
4 5 14 0.3496 -0.0288
4 5 15 0.1179 -0.0441
4 5 16 0.1003 0.1322
4 6 0 -2.9571 0.1487
4 6 1 -1.3223 0.0363
4 6 2 0.7300 0.0261
4 6 3 1.4656 -0.0048
4 6 4 0.9049 -0.1217
4 6 5 -0.2152 -0.1439
4 6 6 -0.7250 -0.0608
4 6 7 -0.2010 -0.0148
4 6 8 -0.0986 0.0001
4 6 9 -1.5449 0.0174
4 6 10 -3.4185 0.0308
4 6 11 -3.8691 0.0317
4 6 12 -2.4248 -0.0332
4 6 13 -0.5207 -0.0766
4 6 14 0.1329 0.0251
4 6 15 -0.1879 0.0642
4 6 16 -0.1743 -0.0997
4 7 0 0.5520 0.0212
4 7 1 -0.8067 0.0320
4 7 2 -1.7322 -0.0442
4 7 3 -1.0843 -0.0117
4 7 4 0.4498 0.1185
4 7 5 1.3848 0.1281
4 7 6 0.9505 0.0571
4 7 7 0.1621 0.0137
4 7 8 0.7123 -0.0296
4 7 9 2.3250 -0.0176
4 7 10 2.9782 0.0478
4 7 11 1.7135 0.0492
4 7 12 -0.2892 0.0304
4 7 13 -1.1555 0.0446
4 7 14 -0.4772 0.0494
4 7 15 0.2628 0.1384
4 8 0 1.0454 -0.2103
4 8 1 1.9561 -0.2312
4 8 2 1.8279 -0.0665
4 8 3 0.0748 0.0539
4 8 4 -1.8243 0.0769
4 8 5 -2.0018 0.0795
4 8 6 -0.5214 0.0287
4 8 7 0.6739 0.0294
4 8 8 0.2435 0.1075
4 8 9 -0.8492 0.0248
4 8 10 -0.8067 -0.1253
4 8 11 0.6304 -0.0316
4 8 12 1.9555 0.1463
4 8 13 1.7260 0.1510
4 8 14 0.3979 0.0842
4 9 0 -0.7655 0.0371
4 9 1 -1.1435 -0.0009
4 9 2 -0.8457 -0.0952
4 9 3 0.3084 -0.0889
4 9 4 0.9409 -0.0533
4 9 5 0.1701 -0.0129
4 9 6 -1.0821 0.0778
4 9 7 -1.5548 0.0559
4 9 8 -1.0965 -0.0026
4 9 9 -0.4135 0.1331
4 9 10 -0.2484 0.1432
4 9 11 -0.7102 -0.2120
4 9 12 -1.0325 -0.4282
4 10 1 -0.1141 0.2387
4 10 2 -0.2242 0.2841
4 10 3 -0.3861 0.0911
4 10 4 0.2534 -0.0434
4 10 5 1.3411 -0.0819
4 10 6 1.7155 -0.1180
4 10 7 1.3750 -0.0669
4 10 8 1.0350 -0.0775
4 10 9 0.8449 -0.2210
4 10 10 0.7688 -0.0883
4 10 11 0.7932 0.2847
5 -8 0 -0.6163 0.0788
5 -8 1 -0.7918 -0.1768
5 -7 0 0.9943 -0.1581
5 -7 1 1.0092 0.1704
5 -7 2 0.5156 0.2282
5 -7 3 0.1131 -0.0844
5 -7 4 0.0822 0.0278
5 -7 5 0.0542 0.4085
5 -6 0 -0.6018 -0.0683
5 -6 1 -0.1518 -0.1525
5 -6 2 0.8203 0.1411
5 -6 3 0.9189 0.3415
5 -6 4 -0.2289 0.0273
5 -6 5 -1.1897 -0.1376
5 -6 6 -1.1843 0.1216
5 -6 7 -0.7857 0.0975
5 -6 8 -0.4129 -0.3573
5 -5 0 -0.4273 -0.0083
5 -5 1 -0.6357 0.1111
5 -5 2 -1.2616 -0.0305
5 -5 3 -0.9119 -0.0365
5 -5 4 0.5532 0.0950
5 -5 5 1.5285 -0.0506
5 -5 6 1.4447 -0.2093
5 -5 7 0.9308 0.0870
5 -5 8 0.4526 0.4528
5 -5 9 0.4429 0.2523
5 -5 10 0.7343 -0.3326
5 -4 0 1.4266 0.0551
5 -4 1 1.8143 -0.0587
5 -4 2 1.6576 -0.0702
5 -4 3 0.2615 -0.1054
5 -4 4 -1.0717 -0.1252
5 -4 5 -0.8993 -0.0860
5 -4 6 -0.1508 -0.0924
5 -4 7 0.0743 -0.1341
5 -4 8 -0.1013 -0.0569
5 -4 9 -0.6852 0.1993
5 -4 10 -1.2786 0.4915
5 -4 11 -1.0219 0.6011
5 -3 0 -0.4750 0.0629
5 -3 1 -1.5745 0.0384
5 -3 2 -1.3279 -0.0050
5 -3 3 0.5793 -0.0816
5 -3 4 1.3947 -0.1083
5 -3 5 -0.0477 0.0008
5 -3 6 -1.4116 0.0889
5 -3 7 -1.3418 0.0312
5 -3 8 -0.6038 -0.0469
5 -3 9 0.3254 -0.0480
5 -3 10 0.8904 0.0013
5 -3 11 0.4752 0.0784
5 -3 12 -0.1853 0.1360
5 -3 13 -0.2977 0.1277
5 -2 0 -0.2519 -0.0177
5 -2 1 1.3581 -0.0163
5 -2 2 1.3911 -0.0338
5 -2 3 0.2769 0.0181
5 -2 4 0.7706 0.0673
5 -2 5 2.6850 0.0558
5 -2 6 3.2666 0.0158
5 -2 7 2.1991 -0.0681
5 -2 8 0.9572 -0.0925
5 -2 9 0.0296 0.0652
5 -2 10 -0.1959 0.1793
5 -2 11 0.4501 0.0196
5 -2 12 0.8655 -0.1757
5 -2 13 0.4805 -0.1158
5 -2 14 0.0846 0.0637
5 -1 0 -2.4161 -0.0520
5 -1 1 -3.8865 -0.0326
5 -1 2 -2.8561 0.0113
5 -1 3 -1.8483 0.0779
5 -1 4 -3.2949 0.1265
5 -1 5 -5.1552 0.0382
5 -1 6 -4.3833 -0.0488
5 -1 7 -1.8071 0.0580
5 -1 8 0.1774 0.1046
5 -1 9 0.8051 -0.1251
5 -1 10 0.1922 -0.2850
5 -1 11 -0.8704 -0.1075
5 -1 12 -1.0184 0.1142
5 -1 13 -0.2839 0.1286
5 -1 14 0.1164 0.1285
5 0 0 5.4994 -0.0346
5 0 1 6.1504 0.0271
5 0 2 3.8370 0.1355
5 0 3 2.3191 0.1135
5 0 4 3.5898 -0.0227
5 0 5 4.9329 -0.0250
5 0 6 3.3419 0.0750
5 0 7 0.0681 0.0670
5 0 8 -1.7329 -0.0075
5 0 9 -1.0266 -0.0259
5 0 10 0.8535 -0.0234
5 0 11 1.8361 -0.0136
5 0 12 1.1095 0.0503
5 0 13 0.0635 0.0407
5 0 14 0.0397 -0.2496
5 0 15 0.4160 -0.6426
5 1 0 -4.9819 0.0116
5 1 1 -3.8297 0.0844
5 1 2 -1.9235 -0.0010
5 1 3 -1.5812 -0.1009
5 1 4 -2.8502 -0.0627
5 1 5 -3.3155 0.0271
5 1 6 -1.1953 0.0361
5 1 7 1.7320 -0.0117
5 1 8 2.3469 -0.0087
5 1 9 0.2937 0.0348
5 1 10 -1.9944 0.0115
5 1 11 -2.2822 -0.0903
5 1 12 -0.8279 -0.1719
5 1 13 0.1988 -0.0968
5 1 14 -0.1360 0.1986
5 1 15 -0.5491 0.4881
5 1 16 -0.2658 0.4521
5 2 0 2.2715 0.1441
5 2 1 -0.2428 0.0131
5 2 2 -0.9051 -0.0513
5 2 3 0.3402 -0.0307
5 2 4 1.5904 -0.0130
5 2 5 1.1875 -0.0341
5 2 6 -0.8198 -0.0360
5 2 7 -2.1353 -0.0242
5 2 8 -1.0794 -0.0310
5 2 9 0.9992 0.0056
5 2 10 1.9083 0.0659
5 2 11 1.1579 0.0425
5 2 12 -0.1011 -0.0159
5 2 13 -0.3661 -0.0273
5 2 14 0.3907 -0.0093
5 2 15 0.7596 0.0739
5 2 16 0.3239 0.1767
5 3 0 0.8250 0.0385
5 3 1 2.7705 -0.0491
5 3 2 2.1624 -0.0580
5 3 3 0.2600 0.0163
5 3 4 -0.8005 0.0335
5 3 5 0.0185 -0.0771
5 3 6 1.7212 -0.1716
5 3 7 1.7319 -0.0776
5 3 8 -0.3647 0.0618
5 3 9 -1.9404 0.0435
5 3 10 -1.3982 0.0114
5 3 11 0.3004 0.0673
5 3 12 1.5683 0.0369
5 3 13 1.4270 -0.0803
5 3 14 0.3227 -0.1778
5 3 15 -0.3055 -0.3139
5 3 16 -0.1254 -0.3803
5 4 0 -3.2881 -0.0740
5 4 1 -3.9800 0.0057
5 4 2 -2.5194 0.0526
5 4 3 -0.4035 -0.0303
5 4 4 1.0646 -0.1055
5 4 5 0.8435 -0.0296
5 4 6 -0.5697 0.0432
5 4 7 -0.7974 -0.0407
5 4 8 0.5895 -0.0752
5 4 9 1.2904 0.0239
5 4 10 0.1766 0.0230
5 4 11 -1.6490 -0.0320
5 4 12 -2.6841 0.0231
5 4 13 -2.1881 -0.0115
5 4 14 -0.9379 -0.1976
5 4 15 -0.2757 -0.3032
5 4 16 -0.1811 -0.3433
5 5 0 3.9728 0.0088
5 5 1 3.4773 0.0287
5 5 2 1.6095 -0.0390
5 5 3 -0.0816 -0.0562
5 5 4 -1.2436 0.0243
5 5 5 -1.4528 0.0766
5 5 6 -0.9362 0.0843
5 5 7 -1.0574 0.0642
5 5 8 -1.6216 -0.0478
5 5 9 -0.9594 -0.1018
5 5 10 0.9964 0.0263
5 5 11 2.6186 0.0771
5 5 12 2.6418 -0.0192
5 5 13 1.3394 -0.0185
5 5 14 0.2616 0.0100
5 5 15 0.1723 -0.0203
5 5 16 0.1855 0.1029
5 6 0 -2.3547 -0.1224
5 6 1 -1.0337 -0.1050
5 6 2 0.6517 0.0287
5 6 3 1.0300 0.1411
5 6 4 0.4592 0.1173
5 6 5 -0.1207 0.0576
5 6 6 0.0185 0.0357
5 6 7 0.9242 0.0619
5 6 8 1.1518 0.1113
5 6 9 -0.4039 0.0485
5 6 10 -2.4974 -0.0644
5 6 11 -3.1098 -0.0181
5 6 12 -1.8784 0.0435
5 6 13 -0.3408 0.0379
5 6 14 -0.0467 0.2644
5 6 15 -0.5366 0.5688
5 6 16 -0.4612 0.4699
5 7 0 0.2190 0.0520
5 7 1 -1.2298 0.1049
5 7 2 -2.1841 0.0527
5 7 3 -1.3894 -0.0690
5 7 4 0.2261 -0.1176
5 7 5 1.0398 -0.0754
5 7 6 0.5752 0.0265
5 7 7 -0.0679 0.0852
5 7 8 0.6183 0.0405
5 7 9 2.3939 0.0025
5 7 10 3.2798 -0.0450
5 7 11 2.1218 -0.1190
5 7 12 0.0136 0.0251
5 7 13 -1.0026 0.2664
5 7 14 -0.3659 0.1443
5 7 15 0.4062 -0.1309
5 8 0 0.7682 0.2588
5 8 1 1.6808 -0.0814
5 8 2 1.8735 -0.2156
5 8 3 0.6237 -0.0850
5 8 4 -0.8438 0.0598
5 8 5 -0.9855 0.0463
5 8 6 -0.0134 -0.0927
5 8 7 0.5529 -0.1134
5 8 8 -0.1136 0.0234
5 8 9 -1.1305 0.0455
5 8 10 -1.0365 -0.0227
5 8 11 0.4207 -0.0141
5 8 12 1.9192 -0.1096
5 8 13 1.9943 -0.2761
5 9 0 -0.4018 -0.3194
5 9 1 -0.7345 -0.0778
5 9 2 -0.7913 -0.0291
5 9 3 0.0176 -0.0764
5 9 4 0.7419 -0.0918
5 9 5 0.4220 -0.0482
5 9 6 -0.4204 0.0229
5 9 7 -0.8740 -0.0197
5 9 8 -0.7983 -0.0475
5 9 9 -0.5439 0.1791
5 9 10 -0.5218 0.3181
5 9 11 -0.9001 0.0495
5 9 12 -1.1895 -0.2143
5 10 3 -0.3727 0.3153
5 10 4 -0.2293 0.1201
5 10 5 0.4601 0.0442
5 10 6 0.8963 0.0454
5 10 7 0.8478 0.0547
5 10 8 0.6886 -0.1271
5 10 9 0.4483 -0.4786
6 -7 0 0.8278 -0.5010
6 -7 1 0.8334 -0.0379
6 -7 2 0.6849 0.0587
6 -6 0 -0.9429 0.1238
6 -6 1 -0.6598 -0.1653
6 -6 2 0.0256 0.1552
6 -6 3 0.2985 0.4589
6 -6 4 -0.0770 0.0439
6 -6 5 -0.2982 -0.2237
6 -6 6 -0.1083 0.1366
6 -5 0 0.0175 0.0786
6 -5 1 -0.6368 0.1835
6 -5 2 -1.4747 -0.1074
6 -5 3 -1.3614 -0.1321
6 -5 4 -0.1768 0.1066
6 -5 5 0.6872 -0.1239
6 -5 6 0.7186 -0.4348
6 -5 7 0.4581 -0.0490
6 -5 8 0.1286 0.4842
6 -4 0 1.8193 0.0607
6 -4 1 2.4839 0.0649
6 -4 2 2.4439 0.0796
6 -4 3 1.1551 -0.0744
6 -4 4 -0.4623 -0.0925
6 -4 5 -0.9531 0.1381
6 -4 6 -0.6817 0.1226
6 -4 7 -0.4081 -0.1771
6 -4 8 -0.0949 -0.2090
6 -4 9 -0.1498 0.1045
6 -4 10 -0.6121 0.3573
6 -3 0 -1.9201 0.0140
6 -3 1 -2.3958 0.0044
6 -3 2 -1.7439 0.0939
6 -3 3 0.0714 0.1431
6 -3 4 1.0352 0.0266
6 -3 5 0.1759 0.0006
6 -3 6 -0.7221 0.1577
6 -3 7 -0.7358 0.1518
6 -3 8 -0.5432 -0.0840
6 -3 9 -0.0598 -0.1593
6 -3 10 0.5664 0.0533
6 -3 11 0.4548 0.2479
6 -3 12 -0.0188 0.2361
6 -2 0 0.6803 -0.0155
6 -2 1 1.3382 0.0261
6 -2 2 1.0614 0.0073
6 -2 3 0.1526 0.0490
6 -2 4 0.6707 0.1284
6 -2 5 2.4214 0.0871
6 -2 6 2.9732 -0.0443
6 -2 7 2.1159 -0.1127
6 -2 8 1.1807 -0.0589
6 -2 9 0.3394 0.0183
6 -2 10 -0.1085 -0.0602
6 -2 11 0.2949 -0.2707
6 -2 12 0.6293 -0.3241
6 -2 13 0.2733 -0.1151
6 -1 0 -0.9314 -0.0190
6 -1 1 -1.8299 -0.0569
6 -1 2 -1.5851 -0.0942
6 -1 3 -1.4251 -0.0394
6 -1 4 -3.0105 0.0623
6 -1 5 -4.8410 0.0220
6 -1 6 -4.3943 -0.0474
6 -1 7 -2.2708 0.0811
6 -1 8 -0.3921 0.1671
6 -1 9 0.5553 -0.0316
6 -1 10 0.3318 -0.1699
6 -1 11 -0.5855 0.0244
6 -1 12 -0.8306 0.2080
6 -1 13 -0.2501 0.0977
6 -1 14 0.1373 -0.0427
6 0 0 2.0934 -0.0640
6 0 1 2.9053 -0.0783
6 0 2 2.2492 0.0071
6 0 3 1.9938 -0.0405
6 0 4 3.4657 -0.1662
6 0 5 4.8167 -0.0805
6 0 6 3.6750 0.0741
6 0 7 0.7913 0.0168
6 0 8 -1.2952 -0.0817
6 0 9 -1.2668 -0.0224
6 0 10 0.1799 0.0304
6 0 11 1.2063 -0.0401
6 0 12 0.8980 -0.0959
6 0 13 0.2687 -0.0926
6 0 14 0.2276 -0.1893
6 1 0 -2.5930 0.0690
6 1 1 -2.2637 0.0951
6 1 2 -1.4343 0.0210
6 1 3 -1.4137 -0.0568
6 1 4 -2.4965 -0.0982
6 1 5 -3.1457 -0.1148
6 1 6 -1.6491 -0.0718
6 1 7 1.0547 0.0010
6 1 8 2.1140 0.0481
6 1 9 0.5556 0.0636
6 1 10 -1.5129 0.0214
6 1 11 -1.8380 -0.0602
6 1 12 -0.7436 -0.0678
6 1 13 -0.0406 0.0753
6 1 14 -0.2201 0.3333
6 1 15 -0.3637 0.5312
6 2 0 1.8749 0.0923
6 2 1 -0.0140 0.0974
6 2 2 -0.7851 0.0242
6 2 3 -0.1723 -0.0378
6 2 4 0.8532 -0.0477
6 2 5 1.0479 -0.0763
6 2 6 -0.3029 -0.0919
6 2 7 -1.7375 -0.0330
6 2 8 -1.1240 0.0210
6 2 9 0.8660 0.0388
6 2 10 1.7791 0.0643
6 2 11 1.0189 0.0510
6 2 12 -0.0098 -0.0101
6 2 13 -0.2425 -0.0596
6 2 14 0.0846 -0.1015
6 2 15 0.2770 -0.0955
6 3 0 0.4772 0.0634
6 3 1 2.2921 -0.0338
6 3 2 2.2564 -0.0646
6 3 3 0.9786 0.0198
6 3 4 -0.1495 0.1264
6 3 5 -0.0183 0.1185
6 3 6 1.3378 -0.0136
6 3 7 1.7609 -0.0720
6 3 8 0.0330 -0.0069
6 3 9 -1.6151 0.0085
6 3 10 -1.1681 0.0137
6 3 11 0.2926 0.0965
6 3 12 1.0765 0.0597
6 3 13 0.8978 -0.1329
6 3 14 0.2339 -0.2728
6 3 15 -0.2789 -0.3749
6 4 0 -2.2129 -0.1237
6 4 1 -3.1780 -0.1169
6 4 2 -2.4277 0.0233
6 4 3 -0.7847 0.0892
6 4 4 0.7236 0.0424
6 4 5 0.8430 0.0805
6 4 6 -0.4983 0.1500
6 4 7 -1.0221 0.0203
6 4 8 0.2107 -0.1131
6 4 9 0.9906 -0.0203
6 4 10 0.0427 0.0352
6 4 11 -1.3241 -0.0386
6 4 12 -1.8852 -0.0166
6 4 13 -1.4848 -0.0462
6 4 14 -0.5422 -0.2593
6 4 15 0.1187 -0.3350
6 5 0 2.5584 0.0226
6 5 1 2.7254 0.0862
6 5 2 1.5591 -0.0106
6 5 3 0.0590 -0.0767
6 5 4 -1.2632 -0.0057
6 5 5 -1.7646 0.0388
6 5 6 -1.4402 0.0634
6 5 7 -1.5281 0.1182
6 5 8 -1.9346 0.0187
6 5 9 -1.0939 -0.1309
6 5 10 0.8361 -0.0359
6 5 11 2.1043 0.0693
6 5 12 1.9246 -0.0146
6 5 13 0.8728 0.0426
6 5 14 0.0261 0.2246
6 5 15 -0.0602 0.2041
6 6 0 -1.9850 -0.0727
6 6 1 -1.0662 -0.1608
6 6 2 0.5802 -0.0794
6 6 3 1.1941 0.0208
6 6 4 0.7513 0.0101
6 6 5 0.3218 -0.0434
6 6 6 0.7702 -0.0796
6 6 7 1.9801 -0.0088
6 6 8 2.3445 0.1593
6 6 9 0.7272 0.1073
6 6 10 -1.4808 -0.1580
6 6 11 -2.1624 -0.1648
6 6 12 -1.1332 0.0273
6 6 13 0.0337 0.0776
6 6 14 0.0412 0.2691
6 6 15 -0.5850 0.6652
6 7 0 0.5553 -0.2495
6 7 1 -0.9188 0.0289
6 7 2 -2.3065 0.1710
6 7 3 -1.8061 0.0731
6 7 4 -0.0869 -0.0991
6 7 5 0.8823 -0.1462
6 7 6 0.4266 -0.0582
6 7 7 -0.3407 -0.0256
6 7 8 0.0529 -0.0604
6 7 9 1.5237 0.0191
6 7 10 2.3904 0.0269
6 7 11 1.5631 -0.1903
6 7 12 -0.0773 -0.1378
6 7 13 -0.7807 0.2541
6 7 14 -0.0906 0.2285
6 8 0 0.2514 0.8515
6 8 1 1.1156 0.3668
6 8 2 1.5808 -0.1144
6 8 3 0.7167 -0.1721
6 8 4 -0.3904 0.0180
6 8 5 -0.3464 0.0893
6 8 6 0.3768 -0.0150
6 8 7 0.4185 -0.0627
6 8 8 -0.5130 -0.0114
6 8 9 -1.4385 0.0145
6 8 10 -1.3287 0.1541
6 8 11 -0.1650 0.3331
6 8 12 1.0404 0.0390
6 8 13 1.2487 -0.5379
6 9 3 0.1262 0.0338
6 9 4 0.4573 0.0497
6 9 5 0.0503 0.0793
6 9 6 -0.4305 0.0976
6 9 7 -0.3900 0.0123
6 9 8 -0.1447 -0.0661
6 9 9 -0.0676 0.0155
6 9 10 -0.1974 0.0483
6 9 11 -0.5161 -0.0483
7 -5 0 0.7081 -0.1004
7 -5 1 -0.1227 0.2181
7 -5 2 -0.9652 -0.0309
7 -5 3 -1.0170 -0.1144
7 -5 4 -0.2929 0.1881
7 -5 5 0.1432 0.0414
7 -5 6 0.0209 -0.3209
7 -4 0 1.0341 -0.0262
7 -4 1 2.0803 -0.0161
7 -4 2 2.3776 0.1362
7 -4 3 1.5719 0.0289
7 -4 4 0.1927 -0.0323
7 -4 5 -0.5284 0.2563
7 -4 6 -0.5773 0.3114
7 -4 7 -0.4788 -0.0390
7 -4 8 -0.1726 -0.1244
7 -3 0 -2.5088 0.0130
7 -3 1 -2.7071 -0.1452
7 -3 2 -1.9632 -0.0834
7 -3 3 -0.5061 0.1133
7 -3 4 0.4310 0.0363
7 -3 5 0.1200 -0.1318
7 -3 6 -0.2429 -0.0346
7 -3 7 -0.1001 -0.0107
7 -3 8 -0.1305 -0.3200
7 -3 9 -0.0415 -0.4334
7 -3 10 0.4054 -0.0388
7 -2 0 1.5513 0.0597
7 -2 1 1.5697 0.1619
7 -2 2 0.9708 -0.0019
7 -2 3 0.0778 -0.1769
7 -2 4 0.4224 -0.1093
7 -2 5 1.9133 -0.0150
7 -2 6 2.4075 -0.0555
7 -2 7 1.6300 -0.0115
7 -2 8 0.8703 0.2125
7 -2 9 0.2124 0.2771
7 -2 10 -0.2407 -0.0781
7 -2 11 0.0988 -0.5320
7 -1 0 -0.6461 0.0334
7 -1 1 -1.1336 0.0303
7 -1 2 -0.8868 0.0097
7 -1 3 -0.5066 -0.0100
7 -1 4 -1.5786 -0.0236
7 -1 5 -3.3688 -0.1024
7 -1 6 -3.5984 -0.1368
7 -1 7 -2.3133 -0.0069
7 -1 8 -0.9139 0.0505
7 -1 9 0.0722 -0.0662
7 -1 10 0.1845 0.0228
7 -1 11 -0.5347 0.4130
7 -1 12 -0.8432 0.5947
7 0 0 0.6732 -0.0013
7 0 1 1.3284 -0.0927
7 0 2 1.0607 -0.0059
7 0 3 0.8232 0.0131
7 0 4 1.9522 -0.0877
7 0 5 3.4314 -0.0316
7 0 6 3.2092 0.0714
7 0 7 1.4151 -0.0143
7 0 8 -0.2647 -0.0678
7 0 9 -0.7022 0.0551
7 0 10 0.0081 0.0717
7 0 11 0.6612 -0.1441
7 0 12 0.4106 -0.3516
7 0 13 -0.0321 -0.3567
7 1 0 -0.9681 -0.0215
7 1 1 -1.1429 -0.0158
7 1 2 -0.8474 -0.0239
7 1 3 -0.9408 0.0576
7 1 4 -1.9681 0.0889
7 1 5 -2.8321 -0.0059
7 1 6 -1.8894 -0.0208
7 1 7 0.3673 0.0719
7 1 8 1.5548 0.0991
7 1 9 0.5981 0.0441
7 1 10 -0.8443 -0.0383
7 1 11 -0.8627 -0.0727
7 1 12 0.0636 0.0851
7 1 13 0.3169 0.3603
7 1 14 -0.1700 0.4675
7 2 0 1.5806 -0.0566
7 2 1 0.4782 0.0552
7 2 2 -0.3237 0.0055
7 2 3 -0.2136 -0.0961
7 2 4 0.5721 -0.0178
7 2 5 0.9383 0.0836
7 2 6 -0.1991 0.0520
7 2 7 -1.7312 0.0252
7 2 8 -1.3795 0.0312
7 2 9 0.5112 0.0020
7 2 10 1.3920 0.0063
7 2 11 0.6179 0.0058
7 2 12 -0.1406 -0.1084
7 2 13 -0.0391 -0.2264
7 2 14 0.1961 -0.2293
7 3 0 -0.4426 0.1321
7 3 1 1.0917 0.0236
7 3 2 1.6747 -0.0367
7 3 3 1.1841 -0.0682
7 3 4 0.2938 -0.0480
7 3 5 0.1176 0.0625
7 3 6 1.1494 0.0942
7 3 7 1.6621 -0.0046
7 3 8 0.2289 -0.0624
7 3 9 -1.2654 -0.0555
7 3 10 -0.8119 -0.0106
7 3 11 0.3383 0.0885
7 3 12 0.4729 0.0379
7 3 13 0.0652 -0.2481
7 3 14 -0.0368 -0.4443
7 4 0 -1.2341 0.0549
7 4 1 -2.2619 -0.1129
7 4 2 -2.1344 -0.0526
7 4 3 -1.0797 0.1205
7 4 4 0.1819 0.0891
7 4 5 0.4916 -0.0309
7 4 6 -0.3750 -0.0105
7 4 7 -0.5985 -0.0233
7 4 8 0.5234 -0.1100
7 4 9 0.9463 -0.0428
7 4 10 -0.1704 0.0521
7 4 11 -1.1028 0.0311
7 4 12 -1.0318 0.1127
7 4 13 -0.6953 0.2008
7 4 14 -0.3488 0.0108
7 5 0 1.5761 -0.2219
7 5 1 2.0674 0.0503
7 5 2 1.5458 0.0734
7 5 3 0.5046 -0.0133
7 5 4 -0.4848 0.0353
7 5 5 -0.8402 0.0066
7 5 6 -0.6999 -0.1203
7 5 7 -1.0595 -0.0596
7 5 8 -1.5699 0.0451
7 5 9 -0.7720 -0.0218
7 5 10 0.8844 -0.0586
7 5 11 1.6615 -0.0847
7 5 12 1.3285 -0.2226
7 5 13 0.6957 -0.1166
7 5 14 0.1724 0.2798
7 6 0 -1.4967 0.2084
7 6 1 -1.2497 0.0363
7 6 2 -0.0866 0.0346
7 6 3 0.6355 0.0380
7 6 4 0.4199 -0.0569
7 6 5 0.0250 -0.0781
7 6 6 0.3757 -0.0473
7 6 7 1.4506 -0.0377
7 6 8 1.8467 0.0309
7 6 9 0.5707 -0.0127
7 6 10 -1.1905 -0.2411
7 6 11 -1.7106 -0.2162
7 6 12 -0.9563 0.0756
7 6 13 -0.1143 0.1425
7 6 14 -0.0243 0.1356
7 7 0 0.6386 -0.6369
7 7 1 -0.1071 -0.3065
7 7 2 -1.3663 -0.0448
7 7 3 -1.3910 0.0416
7 7 4 -0.1644 0.0219
7 7 5 0.7283 0.0384
7 7 6 0.5064 0.1313
7 7 7 -0.0895 0.1168
7 7 8 0.0061 0.0093
7 7 9 0.8277 0.1174
7 7 10 1.3522 0.2559
7 7 11 0.8686 0.0213
7 7 12 -0.1126 -0.1594
7 7 13 -0.5002 0.0932
7 8 1 0.5236 0.5387
7 8 2 0.9973 0.0219
7 8 3 0.4947 -0.1695
7 8 4 -0.3574 -0.0595
7 8 5 -0.3764 0.0235
7 8 6 0.0757 0.0021
7 8 7 -0.0174 0.0457
7 8 8 -0.6380 0.0745
7 8 9 -1.0386 -0.0386
7 8 10 -0.8144 0.0530
7 8 11 -0.1749 0.4178
8 -4 1 0.5305 -0.0455
8 -4 2 1.0340 0.0022
8 -4 3 0.8728 -0.0249
8 -4 4 0.2286 -0.0474
8 -4 5 -0.1110 0.2156
8 -3 0 -1.4013 0.1822
8 -3 1 -1.7779 0.0488
8 -3 2 -1.3685 -0.0299
8 -3 3 -0.4835 0.0392
8 -3 4 0.1959 -0.0952
8 -3 5 0.0847 -0.3302
8 -3 6 -0.1200 -0.2389
8 -3 7 0.0472 -0.0984
8 -3 8 0.0292 -0.3366
8 -2 0 1.5524 -0.2228
8 -2 1 1.3828 0.1605
8 -2 2 0.6961 0.1662
8 -2 3 -0.1673 -0.0616
8 -2 4 -0.1094 -0.0572
8 -2 5 0.9846 0.0593
8 -2 6 1.4253 -0.0236
8 -2 7 0.8301 -0.0809
8 -2 8 0.3748 0.1933
8 -2 9 0.1319 0.4724
8 -1 0 -0.1752 0.0505
8 -1 1 -0.3380 -0.0716
8 -1 2 -0.1539 -0.0294
8 -1 3 0.2273 0.0449
8 -1 4 -0.4487 0.0319
8 -1 5 -1.9358 -0.0410
8 -1 6 -2.3691 0.0242
8 -1 7 -1.6428 0.2143
8 -1 8 -0.9029 0.1395
8 -1 9 -0.2968 -0.1990
8 -1 10 0.0316 -0.1929
8 -1 11 -0.2635 0.2926
8 0 0 -0.3191 0.1579
8 0 1 0.3249 -0.0760
8 0 2 0.5382 -0.1037
8 0 3 0.4994 0.0113
8 0 4 1.2590 0.0580
8 0 5 2.3408 0.1087
8 0 6 2.2896 0.0855
8 0 7 1.2803 -0.0500
8 0 8 0.3980 0.0333
8 0 9 0.0442 0.3315
8 0 10 0.2293 0.3425
8 0 11 0.5496 -0.0394
8 1 0 0.2692 -0.0047
8 1 1 -0.4389 -0.0377
8 1 2 -0.9019 -0.1269
8 1 3 -1.4169 -0.0836
8 1 4 -2.3942 0.0113
8 1 5 -2.9820 -0.0037
8 1 6 -1.9919 0.0189
8 1 7 -0.0357 0.0858
8 1 8 1.0355 0.0120
8 1 9 0.4918 -0.1222
8 1 10 -0.4968 -0.1869
8 1 11 -0.5044 -0.1753
8 1 12 0.2497 0.0352
8 2 0 0.2485 -0.1351
8 2 1 0.0901 0.1063
8 2 2 0.0329 0.1344
8 2 3 0.4994 -0.0795
8 2 4 1.3615 -0.1128
8 2 5 1.5551 0.0229
8 2 6 0.1508 0.0450
8 2 7 -1.6732 0.0062
8 2 8 -1.6953 -0.0393
8 2 9 -0.0191 -0.1509
8 2 10 1.0279 -0.1644
8 2 11 0.5038 -0.0606
8 2 12 -0.2424 -0.1283
8 2 13 -0.2586 -0.3323
8 3 0 -0.0882 0.0427
8 3 1 0.6135 -0.0083
8 3 2 0.8926 0.0550
8 3 3 0.5996 0.0650
8 3 4 0.1486 -0.0591
8 3 5 0.4156 -0.0735
8 3 6 1.6723 -0.0063
8 3 7 2.2879 -0.0566
8 3 8 0.9333 -0.1043
8 3 9 -0.7322 -0.0469
8 3 10 -0.6859 0.0179
8 3 11 0.1407 0.0844
8 3 12 0.1082 0.0696
8 3 13 -0.3288 -0.1628
8 4 0 -0.7152 0.1580
8 4 1 -1.2055 -0.1331
8 4 2 -1.1659 -0.2115
8 4 3 -0.7559 0.0601
8 4 4 -0.4142 0.1881
8 4 5 -0.6867 -0.0058
8 4 6 -1.2950 -0.1298
8 4 7 -0.8272 -0.0978
8 4 8 0.6910 -0.0846
8 4 9 1.0874 -0.0044
8 4 10 -0.1706 0.1026
8 4 11 -1.0239 0.0817
8 4 12 -0.6377 0.1476
8 4 13 -0.1888 0.3560
8 5 0 0.7260 -0.3774
8 5 1 1.0676 0.0470
8 5 2 1.0085 0.1564
8 5 3 0.7717 0.0067
8 5 4 0.6888 0.0721
8 5 5 0.8344 0.1427
8 5 6 0.6525 -0.0590
8 5 7 -0.4456 -0.1530
8 5 8 -1.4656 0.0024
8 5 9 -0.8645 0.0559
8 5 10 0.6583 -0.0238
8 5 11 1.2592 -0.1390
8 5 12 0.8979 -0.3361
8 6 0 -0.6615 0.1904
8 6 1 -0.8056 -0.0096
8 6 2 -0.3857 0.0322
8 6 3 -0.0702 0.0437
8 6 4 -0.3468 -0.1393
8 6 5 -0.7237 -0.1103
8 6 6 -0.4252 0.1809
8 6 7 0.4727 0.3070
8 6 8 0.8326 0.1973
8 6 9 -0.0183 -0.0096
8 6 10 -1.1337 -0.2450
8 6 11 -1.3688 -0.2123
8 7 2 -0.4580 -0.1250
8 7 3 -0.6878 -0.0805
8 7 4 -0.1767 -0.0170
8 7 5 0.2304 -0.0202
8 7 6 0.1046 -0.0189
8 7 7 -0.0594 -0.0128
8 7 8 0.2016 -0.0259
8 7 9 0.7036 0.1593
8 7 10 0.9308 0.4503
9 -2 1 0.6550 -0.1111
9 -2 2 0.5543 0.0546
9 -2 3 0.1543 -0.0216
9 -2 4 -0.0924 0.0781
9 -2 5 0.2416 0.2907
9 -1 0 0.0847 0.3699
9 -1 1 -0.0249 -0.0048
9 -1 2 -0.0212 -0.1243
9 -1 3 0.2831 -0.0686
9 -1 4 0.0719 -0.0712
9 -1 5 -0.7539 -0.1407
9 -1 6 -0.9481 0.0115
9 -1 7 -0.4572 0.4009
9 0 0 -0.6126 0.3742
9 0 1 -0.2946 0.1162
9 0 2 -0.0883 -0.0934
9 0 3 -0.0323 -0.0774
9 0 4 0.5516 -0.0044
9 0 5 1.2931 0.0524
9 0 6 1.1790 -0.0505
9 0 7 0.6426 -0.2723
9 0 8 0.5181 -0.1501
9 0 9 0.4980 0.3278
9 1 0 0.5195 -0.1097
9 1 1 0.0149 0.0368
9 1 2 -0.4600 0.0403
9 1 3 -1.0238 -0.0083
9 1 4 -1.8738 -0.0130
9 1 5 -2.2736 -0.0396
9 1 6 -1.5041 -0.0016
9 1 7 -0.2760 0.0317
9 1 8 0.3195 -0.1612
9 1 9 0.1860 -0.4062
9 1 10 -0.1373 -0.4401
9 2 0 -0.1787 -0.3911
9 2 1 -0.3562 -0.1211
9 2 2 -0.3713 0.1154
9 2 3 0.1354 0.0417
9 2 4 1.0890 -0.0423
9 2 5 1.5739 0.0104
9 2 6 0.7984 0.0150
9 2 7 -0.5304 -0.0037
9 2 8 -0.9690 -0.0226
9 2 9 -0.3148 -0.1702
9 2 10 0.3243 -0.2597
9 3 0 0.2449 -0.0300
9 3 1 0.8631 -0.1339
9 3 2 1.1048 -0.0779
9 3 3 0.7834 0.0630
9 3 4 0.1864 0.0366
9 3 5 0.1023 -0.0106
9 3 6 0.9274 0.0190
9 3 7 1.6390 -0.0237
9 3 8 1.1294 -0.0473
9 3 9 0.0957 0.0678
9 3 10 -0.2162 0.1401
9 4 4 -0.0002 0.1217
9 4 5 -0.5580 0.0323
9 4 6 -1.3750 -0.0929
9 4 7 -1.2555 -0.0423
9 4 8 -0.1737 0.0266
9 4 9 0.3008 0.1146
9 4 10 -0.3142 0.2256
9 5 4 0.3011 -0.0031
9 5 5 1.0513 0.1339
9 5 6 1.2942 0.0137
9 5 7 0.3349 -0.1476
9 5 8 -0.8988 -0.0472
9 5 9 -0.9155 0.0360
9 6 6 -0.9070 0.0987
0 0 0 0.0 0.0
;
_shelx_fab_checksum              16254
_olex2_submission_special_instructions 'No special instructions were received'
loop_
_space_group_symop_operation_xyz
'x, y, z'
'-x, -y, -z'
loop_
_atom_site_label
_atom_site_type_symbol
_atom_site_fract_x
_atom_site_fract_y
_atom_site_fract_z
_atom_site_U_iso_or_equiv
_atom_site_adp_type
_atom_site_occupancy
_atom_site_site_symmetry_order
_atom_site_calc_flag
_atom_site_refinement_flags_posn
_atom_site_refinement_flags_adp
_atom_site_refinement_flags_occupancy
_atom_site_disorder_assembly
_atom_site_disorder_group
O1 O 0.6438(2) 0.09002(18) 0.31516(12) 0.0227(3) Uani 1 1 d . . . . .
O2 O 0.6499(2) 0.01035(18) 0.51930(12) 0.0214(3) Uani 1 1 d . . . . .
O3 O 0.6824(3) 0.4304(2) 0.29420(16) 0.0478(5) Uani 1 1 d . . . . .
O4 O 0.7809(3) 0.3298(3) 0.43327(18) 0.0485(5) Uani 1 1 d . . . . .
N1 N 0.3523(3) 0.3155(2) 0.35254(16) 0.0275(4) Uani 1 1 d . . . . .
N2 N 0.3805(3) 0.2494(2) 0.54233(16) 0.0246(4) Uani 1 1 d . . . . .
N3 N 0.6773(3) 0.3303(2) 0.38189(16) 0.0277(4) Uani 1 1 d . . . . .
C1 C 0.6129(3) 0.1336(3) 0.22034(18) 0.0267(5) Uani 1 1 d . . . . .
Co1 Co 0.51291(4) 0.17062(4) 0.42809(3) 0.01999(12) Uani 1 1 d . . . . .
C2 C 0.7197(4) 0.0521(3) 0.1477(2) 0.0329(5) Uani 1 1 d . . . . .
H2 H 0.812034 -0.025393 0.167228 0.039 Uiso 1 1 calc R U . . .
C3 C 0.6898(4) 0.0851(4) 0.0486(2) 0.0460(7) Uani 1 1 d . . . . .
H3 H 0.759555 0.027267 0.002901 0.055 Uiso 1 1 calc R U . . .
C4 C 0.5562(5) 0.2042(5) 0.0157(2) 0.0571(9) Uani 1 1 d . . . . .
H4 H 0.538281 0.227279 -0.051879 0.069 Uiso 1 1 calc R U . . .
C5 C 0.4522(4) 0.2863(4) 0.0838(2) 0.0502(8) Uani 1 1 d . . . . .
H5 H 0.363820 0.366367 0.061660 0.060 Uiso 1 1 calc R U . . .
C6 C 0.4754(4) 0.2529(3) 0.1870(2) 0.0333(5) Uani 1 1 d . . . . .
C7 C 0.3532(3) 0.3375(3) 0.2557(2) 0.0332(5) Uani 1 1 d . . . . .
H7 H 0.267485 0.414696 0.227667 0.040 Uiso 1 1 calc R U . . .
C8 C 0.2220(3) 0.4138(3) 0.4141(2) 0.0329(5) Uani 1 1 d . . . . .
H8A H 0.108138 0.433341 0.393804 0.039 Uiso 1 1 calc R U . . .
H8B H 0.264944 0.517327 0.402039 0.039 Uiso 1 1 calc R U . . .
C9 C 0.2009(3) 0.3195(3) 0.5283(2) 0.0302(5) Uani 1 1 d . . . . .
H9A H 0.149850 0.390554 0.573064 0.036 Uiso 1 1 calc R U . . .
H9B H 0.123232 0.234864 0.545757 0.036 Uiso 1 1 calc R U . . .
C10 C 0.4306(3) 0.2400(3) 0.62581(19) 0.0280(5) Uani 1 1 d . . . . .
H10 H 0.353306 0.288198 0.674753 0.034 Uiso 1 1 calc R U . . .
C11 C 0.5994(3) 0.1592(3) 0.64856(18) 0.0262(5) Uani 1 1 d . . . . .
C12 C 0.6580(4) 0.1873(3) 0.72887(19) 0.0322(5) Uani 1 1 d . . . . .
H12 H 0.588021 0.258238 0.765603 0.039 Uiso 1 1 calc R U . . .
C13 C 0.8170(4) 0.1122(3) 0.7546(2) 0.0354(6) Uani 1 1 d . . . . .
H13 H 0.855537 0.134191 0.806994 0.042 Uiso 1 1 calc R U . . .
C14 C 0.9202(3) 0.0025(3) 0.70128(19) 0.0325(5) Uani 1 1 d . . . . .
H14 H 1.027284 -0.049586 0.718857 0.039 Uiso 1 1 calc R U . . .
C15 C 0.8636(3) -0.0290(3) 0.62212(18) 0.0267(5) Uani 1 1 d . . . . .
H15 H 0.933106 -0.102149 0.587088 0.032 Uiso 1 1 calc R U . . .
C16 C 0.7041(3) 0.0478(3) 0.59482(17) 0.0227(4) Uani 1 1 d . . . . .
loop_
_atom_site_aniso_label
_atom_site_aniso_U_11
_atom_site_aniso_U_22
_atom_site_aniso_U_33
_atom_site_aniso_U_23
_atom_site_aniso_U_13
_atom_site_aniso_U_12
O1 0.0239(8) 0.0230(7) 0.0239(8) -0.0101(6) -0.0071(6) -0.0002(6)
O2 0.0222(8) 0.0214(7) 0.0249(8) -0.0120(6) -0.0057(6) -0.0022(6)
O3 0.0570(14) 0.0406(11) 0.0424(11) -0.0021(9) -0.0066(10) -0.0197(10)
O4 0.0498(13) 0.0452(11) 0.0542(13) -0.0084(10) -0.0158(10) -0.0181(10)
N1 0.0259(10) 0.0203(9) 0.0342(11) -0.0073(8) -0.0037(8) -0.0013(8)
N2 0.0239(10) 0.0190(9) 0.0329(10) -0.0128(8) -0.0027(8) -0.0024(7)
N3 0.0270(10) 0.0224(9) 0.0361(11) -0.0146(8) -0.0033(9) -0.0028(8)
C1 0.0281(12) 0.0300(12) 0.0240(11) -0.0074(9) -0.0065(9) -0.0077(9)
Co1 0.0197(2) 0.01621(18) 0.0260(2) -0.00980(13) -0.00443(14) -0.00068(13)
C2 0.0339(13) 0.0392(13) 0.0279(12) -0.0125(10) -0.0061(10) -0.0048(11)
C3 0.0485(18) 0.0631(19) 0.0278(13) -0.0179(13) -0.0068(12) -0.0021(15)
C4 0.0527(19) 0.092(3) 0.0254(13) -0.0152(15) -0.0140(13) 0.0007(18)
C5 0.0437(17) 0.068(2) 0.0344(15) -0.0067(14) -0.0163(13) 0.0055(15)
C6 0.0318(13) 0.0378(13) 0.0285(12) -0.0042(10) -0.0102(10) -0.0031(11)
C7 0.0287(13) 0.0309(12) 0.0356(13) -0.0025(10) -0.0098(10) -0.0001(10)
C8 0.0269(12) 0.0223(11) 0.0475(15) -0.0128(10) -0.0062(11) 0.0053(9)
C9 0.0239(12) 0.0247(11) 0.0423(14) -0.0166(10) -0.0019(10) 0.0014(9)
C10 0.0297(12) 0.0231(11) 0.0329(12) -0.0157(9) 0.0010(10) -0.0050(9)
C11 0.0277(12) 0.0282(11) 0.0261(11) -0.0133(9) -0.0014(9) -0.0080(9)
C12 0.0368(14) 0.0379(13) 0.0274(12) -0.0182(10) 0.0007(10) -0.0130(11)
C13 0.0371(14) 0.0487(15) 0.0282(12) -0.0163(11) -0.0059(11) -0.0164(12)
C14 0.0269(12) 0.0453(14) 0.0289(12) -0.0109(11) -0.0070(10) -0.0107(11)
C15 0.0232(12) 0.0326(12) 0.0257(11) -0.0111(9) -0.0027(9) -0.0050(9)
C16 0.0229(11) 0.0257(11) 0.0223(10) -0.0109(8) -0.0008(8) -0.0089(9)
loop_
_atom_type_symbol
_atom_type_description
_atom_type_scat_dispersion_real
_atom_type_scat_dispersion_imag
_atom_type_scat_source
C C 0.0181 0.0091 'International Tables Vol C Tables 4.2.6.8 and 6.1.1.4'
Co Co -2.3653 3.6143 'International Tables Vol C Tables 4.2.6.8 and 6.1.1.4'
H H 0.0000 0.0000 'International Tables Vol C Tables 4.2.6.8 and 6.1.1.4'
N N 0.0311 0.0180 'International Tables Vol C Tables 4.2.6.8 and 6.1.1.4'
O O 0.0492 0.0322 'International Tables Vol C Tables 4.2.6.8 and 6.1.1.4'
loop_
_geom_angle_atom_site_label_1
_geom_angle_atom_site_label_2
_geom_angle_atom_site_label_3
_geom_angle
_geom_angle_site_symmetry_1
_geom_angle_site_symmetry_3
_geom_angle_publ_flag
C1 O1 Co1 126.11(15) . . ?
Co1 O2 Co1 99.31(7) . 2_656 ?
C16 O2 Co1 121.00(13) . . ?
C16 O2 Co1 115.47(13) . 2_656 ?
C7 N1 Co1 126.14(17) . . ?
C7 N1 C8 120.1(2) . . ?
C8 N1 Co1 113.70(16) . . ?
C9 N2 Co1 111.56(15) . . ?
C10 N2 Co1 127.07(17) . . ?
C10 N2 C9 121.3(2) . . ?
O3 N3 Co1 118.62(17) . . ?
O4 N3 O3 120.2(2) . . ?
O4 N3 Co1 121.08(17) . . ?
O1 C1 C2 117.7(2) . . ?
O1 C1 C6 124.6(2) . . ?
C2 C1 C6 117.7(2) . . ?
O1 Co1 O2 89.28(6) . . ?
O1 Co1 O2 91.81(6) . 2_656 ?
O1 Co1 N1 95.24(8) . . ?
O1 Co1 N2 179.39(7) . . ?
O1 Co1 N3 87.10(8) . . ?
O2 Co1 O2 80.69(7) . 2_656 ?
N1 Co1 O2 92.96(8) . 2_656 ?
N1 Co1 O2 172.33(8) . . ?
N1 Co1 N2 85.01(9) . . ?
N1 Co1 N3 90.60(9) . . ?
N2 Co1 O2 90.40(7) . . ?
N2 Co1 O2 87.62(7) . 2_656 ?
N2 Co1 N3 93.46(8) . . ?
N3 Co1 O2 176.35(7) . 2_656 ?
N3 Co1 O2 95.81(8) . . ?
C1 C2 H2 119.4 . . ?
C3 C2 C1 121.2(3) . . ?
C3 C2 H2 119.4 . . ?
C2 C3 H3 119.6 . . ?
C2 C3 C4 120.9(3) . . ?
C4 C3 H3 119.6 . . ?
C3 C4 H4 120.4 . . ?
C5 C4 C3 119.2(3) . . ?
C5 C4 H4 120.4 . . ?
C4 C5 H5 119.2 . . ?
C4 C5 C6 121.6(3) . . ?
C6 C5 H5 119.2 . . ?
C1 C6 C7 122.5(2) . . ?
C5 C6 C1 119.4(2) . . ?
C5 C6 C7 118.1(2) . . ?
N1 C7 C6 125.4(2) . . ?
N1 C7 H7 117.3 . . ?
C6 C7 H7 117.3 . . ?
N1 C8 H8A 110.3 . . ?
N1 C8 H8B 110.3 . . ?
N1 C8 C9 107.17(18) . . ?
H8A C8 H8B 108.5 . . ?
C9 C8 H8A 110.3 . . ?
C9 C8 H8B 110.3 . . ?
N2 C9 C8 106.09(19) . . ?
N2 C9 H9A 110.5 . . ?
N2 C9 H9B 110.5 . . ?
C8 C9 H9A 110.5 . . ?
C8 C9 H9B 110.5 . . ?
H9A C9 H9B 108.7 . . ?
N2 C10 H10 118.0 . . ?
N2 C10 C11 124.0(2) . . ?
C11 C10 H10 118.0 . . ?
C12 C11 C10 118.8(2) . . ?
C12 C11 C16 119.1(2) . . ?
C16 C11 C10 122.0(2) . . ?
C11 C12 H12 119.4 . . ?
C13 C12 C11 121.3(2) . . ?
C13 C12 H12 119.4 . . ?
C12 C13 H13 120.2 . . ?
C12 C13 C14 119.5(2) . . ?
C14 C13 H13 120.2 . . ?
C13 C14 H14 119.9 . . ?
C15 C14 C13 120.2(2) . . ?
C15 C14 H14 119.9 . . ?
C14 C15 H15 119.7 . . ?
C16 C15 C14 120.7(2) . . ?
C16 C15 H15 119.7 . . ?
O2 C16 C11 121.7(2) . . ?
O2 C16 C15 119.10(19) . . ?
C15 C16 C11 119.2(2) . . ?
loop_
_geom_bond_atom_site_label_1
_geom_bond_atom_site_label_2
_geom_bond_distance
_geom_bond_site_symmetry_2
_geom_bond_publ_flag
O1 C1 1.314(3) . ?
O1 Co1 1.8800(15) . ?
O2 Co1 2.0355(16) 2_656 ?
O2 Co1 1.9389(15) . ?
O2 C16 1.360(3) . ?
O3 N3 1.246(3) . ?
O4 N3 1.202(3) . ?
N1 Co1 1.886(2) . ?
N1 C7 1.283(3) . ?
N1 C8 1.474(3) . ?
N2 Co1 1.8888(19) . ?
N2 C9 1.462(3) . ?
N2 C10 1.280(3) . ?
N3 Co1 1.907(2) . ?
C1 C2 1.410(3) . ?
C1 C6 1.418(3) . ?
C2 H2 0.9300 . ?
C2 C3 1.376(4) . ?
C3 H3 0.9300 . ?
C3 C4 1.394(5) . ?
C4 H4 0.9300 . ?
C4 C5 1.363(5) . ?
C5 H5 0.9300 . ?
C5 C6 1.409(4) . ?
C6 C7 1.433(4) . ?
C7 H7 0.9300 . ?
C8 H8A 0.9700 . ?
C8 H8B 0.9700 . ?
C8 C9 1.510(4) . ?
C9 H9A 0.9700 . ?
C9 H9B 0.9700 . ?
C10 H10 0.9300 . ?
C10 C11 1.442(3) . ?
C11 C12 1.399(3) . ?
C11 C16 1.416(3) . ?
C12 H12 0.9300 . ?
C12 C13 1.375(4) . ?
C13 H13 0.9300 . ?
C13 C14 1.397(4) . ?
C14 H14 0.9300 . ?
C14 C15 1.390(3) . ?
C15 H15 0.9300 . ?
C15 C16 1.389(3) . ?
loop_
_geom_torsion_atom_site_label_1
_geom_torsion_atom_site_label_2
_geom_torsion_atom_site_label_3
_geom_torsion_atom_site_label_4
_geom_torsion
_geom_torsion_site_symmetry_1
_geom_torsion_site_symmetry_2
_geom_torsion_site_symmetry_3
_geom_torsion_site_symmetry_4
_geom_torsion_publ_flag
O1 C1 C2 C3 176.7(3) . . . . ?
O1 C1 C6 C5 -178.3(3) . . . . ?
O1 C1 C6 C7 -0.8(4) . . . . ?
N1 C8 C9 N2 41.2(2) . . . . ?
N2 C10 C11 C12 165.5(2) . . . . ?
N2 C10 C11 C16 -16.9(4) . . . . ?
C1 O1 Co1 O2 92.58(18) . . . 2_656 ?
C1 O1 Co1 O2 173.24(18) . . . . ?
C1 O1 Co1 N1 -0.56(19) . . . . ?
C1 O1 Co1 N3 -90.90(19) . . . . ?
C1 C2 C3 C4 2.1(5) . . . . ?
C1 C6 C7 N1 -0.6(4) . . . . ?
Co1 O1 C1 C2 -176.31(17) . . . . ?
Co1 O1 C1 C6 1.3(3) . . . . ?
Co1 O2 C16 C11 -86.1(2) 2_656 . . . ?
Co1 O2 C16 C11 33.6(3) . . . . ?
Co1 O2 C16 C15 91.8(2) 2_656 . . . ?
Co1 O2 C16 C15 -148.46(18) . . . . ?
Co1 N1 C7 C6 1.3(4) . . . . ?
Co1 N1 C8 C9 -25.5(2) . . . . ?
Co1 N2 C9 C8 -40.8(2) . . . . ?
Co1 N2 C10 C11 -2.6(4) . . . . ?
C2 C1 C6 C5 -0.7(4) . . . . ?
C2 C1 C6 C7 176.8(2) . . . . ?
C2 C3 C4 C5 -1.2(6) . . . . ?
C3 C4 C5 C6 -0.5(6) . . . . ?
C4 C5 C6 C1 1.5(5) . . . . ?
C4 C5 C6 C7 -176.1(3) . . . . ?
C5 C6 C7 N1 176.9(3) . . . . ?
C6 C1 C2 C3 -1.1(4) . . . . ?
C7 N1 Co1 O1 -0.7(2) . . . . ?
C7 N1 Co1 O2 -92.8(2) . . . 2_656 ?
C7 N1 Co1 N2 179.8(2) . . . . ?
C7 N1 Co1 N3 86.4(2) . . . . ?
C7 N1 C8 C9 157.1(2) . . . . ?
C8 N1 Co1 O1 -177.95(16) . . . . ?
C8 N1 Co1 O2 89.96(16) . . . 2_656 ?
C8 N1 Co1 N2 2.61(16) . . . . ?
C8 N1 Co1 N3 -90.81(17) . . . . ?
C8 N1 C7 C6 178.4(2) . . . . ?
C9 N2 Co1 O2 -70.89(15) . . . 2_656 ?
C9 N2 Co1 O2 -151.56(15) . . . . ?
C9 N2 Co1 N1 22.29(16) . . . . ?
C9 N2 Co1 N3 112.60(16) . . . . ?
C9 N2 C10 C11 174.1(2) . . . . ?
C10 N2 Co1 O2 106.1(2) . . . 2_656 ?
C10 N2 Co1 O2 25.4(2) . . . . ?
C10 N2 Co1 N1 -160.7(2) . . . . ?
C10 N2 Co1 N3 -70.4(2) . . . . ?
C10 N2 C9 C8 142.0(2) . . . . ?
C10 C11 C12 C13 179.3(2) . . . . ?
C10 C11 C16 O2 -0.5(4) . . . . ?
C10 C11 C16 C15 -178.5(2) . . . . ?
C11 C12 C13 C14 -1.6(4) . . . . ?
C12 C11 C16 O2 177.0(2) . . . . ?
C12 C11 C16 C15 -0.9(4) . . . . ?
C12 C13 C14 C15 0.7(4) . . . . ?
C13 C14 C15 C16 0.0(4) . . . . ?
C14 C15 C16 O2 -177.9(2) . . . . ?
C14 C15 C16 C11 0.1(4) . . . . ?
C16 C11 C12 C13 1.7(4) . . . . ?
loop_
_smtbx_masks_void_nr
_smtbx_masks_void_average_x
_smtbx_masks_void_average_y
_smtbx_masks_void_average_z
_smtbx_masks_void_volume
_smtbx_masks_void_count_electrons
_smtbx_masks_void_content
1 0.000 0.500 0.000 170.4 44.5 '1 C2H5NO2'
