#------------------------------------------------------------------------------
#$Date: 2021-02-05 01:11:21 +0200 (Fri, 05 Feb 2021) $
#$Revision: 261653 $
#$URL: file:///home/coder/svn-repositories/cod/cif/7/70/61/7706197.cif $
#------------------------------------------------------------------------------
#
# This file is available in the Crystallography Open Database (COD),
# http://www.crystallography.net/
#
# All data on this site have been placed in the public domain by the
# contributors.
#
data_7706197
loop_
_publ_author_name
'Li, Yue'
'Kong, Qing-Rong'
'Guo, Ying'
'Tang, Zheng'
_publ_section_title
;
 Thermal hysteresis induced by external pressure in a 3D Hofmann-type
 SCO-MOF.
;
_journal_issue                   4
_journal_name_full
'Dalton transactions (Cambridge, England : 2003)'
_journal_page_first              1384
_journal_page_last               1389
_journal_paper_doi               10.1039/d0dt03796f
_journal_volume                  50
_journal_year                    2021
_chemical_formula_moiety         'C16 H10 Br2 Fe N6 Pt, 2(H4 O2)'
_chemical_formula_sum            'C16 H18 Br2 Fe N6 O4 Pt'
_chemical_formula_weight         769.12
_space_group_crystal_system      tetragonal
_space_group_IT_number           83
_space_group_name_Hall           '-P 4'
_space_group_name_H-M_alt        'P 4/m'
_atom_sites_solution_hydrogens   mixed
_atom_sites_solution_primary     dual
_audit_creation_date             2020-07-14
_audit_creation_method
;
Olex2 1.2
(compiled 2018.05.29 svn.r3508 for OlexSys, GUI svn.r5506)
;
_audit_update_record
;
2020-08-13 deposited with the CCDC.	2020-12-22 downloaded from the CCDC.
;
_cell_angle_alpha                90
_cell_angle_beta                 90
_cell_angle_gamma                90
_cell_formula_units_Z            1
_cell_length_a                   7.4386(2)
_cell_length_b                   7.4386(2)
_cell_length_c                   13.733(2)
_cell_measurement_reflns_used    1657
_cell_measurement_temperature    293(2)
_cell_measurement_theta_max      28.6890
_cell_measurement_theta_min      4.1260
_cell_volume                     759.88(11)
_computing_cell_refinement       'CrysAlisPro 1.171.39.29d (Rigaku OD, 2017)'
_computing_data_collection       'CrysAlisPro 1.171.39.29d (Rigaku OD, 2017)'
_computing_data_reduction        'CrysAlisPro 1.171.39.29d (Rigaku OD, 2017)'
_computing_molecular_graphics    'Olex2 (Dolomanov et al., 2009)'
_computing_publication_material  'Olex2 (Dolomanov et al., 2009)'
_computing_structure_refinement  'XL (Sheldrick, 2008)'
_computing_structure_solution    'ShelXT (Sheldrick, 2015)'
_diffrn_ambient_temperature      293(2)
_diffrn_detector                 'CCD plate'
_diffrn_measured_fraction_theta_full 0.995
_diffrn_measured_fraction_theta_max 0.909
_diffrn_measurement_details
;
List of Runs (angles in degrees, time in seconds):

  # Type    Start    End  Width  t~exp~   \w     \q     \k     \f   Frames
#--------------------------------------------------------------------------
  1  \w    -15.00  10.00   0.50   30.00    --    0.10  47.00 137.00   50
  2  \w    -60.00  28.00   0.50   30.00    --    0.10 -82.00  60.00  176
  3  \w     35.00  60.00   0.50   30.00    --    0.10  38.00  30.00   50
  4  \w     11.00  36.00   0.50   30.00    --    0.10  47.00 137.00   50
;
_diffrn_measurement_device       'four-circle diffractometer'
_diffrn_measurement_device_type  'XtaLAB AFC12 (RINC): Kappa single'
_diffrn_measurement_method       '\w scans'
_diffrn_orient_matrix_type
'CrysAlisPro convention (1999,Acta A55,543-557)'
_diffrn_orient_matrix_UB_11      0.0279586000
_diffrn_orient_matrix_UB_12      0.0254012000
_diffrn_orient_matrix_UB_13      0.0474331000
_diffrn_orient_matrix_UB_21      -0.0807963000
_diffrn_orient_matrix_UB_22      0.0492827000
_diffrn_orient_matrix_UB_23      0.0061914000
_diffrn_orient_matrix_UB_31      -0.0421856000
_diffrn_orient_matrix_UB_32      -0.0776083000
_diffrn_orient_matrix_UB_33      0.0194678000
_diffrn_radiation_monochromator  graphite
_diffrn_radiation_probe          x-ray
_diffrn_radiation_type           MoK\a
_diffrn_radiation_wavelength     0.71073
_diffrn_reflns_av_R_equivalents  0.0749
_diffrn_reflns_av_unetI/netI     0.0553
_diffrn_reflns_Laue_measured_fraction_full 0.995
_diffrn_reflns_Laue_measured_fraction_max 0.909
_diffrn_reflns_limit_h_max       10
_diffrn_reflns_limit_h_min       -9
_diffrn_reflns_limit_k_max       10
_diffrn_reflns_limit_k_min       -7
_diffrn_reflns_limit_l_max       19
_diffrn_reflns_limit_l_min       -17
_diffrn_reflns_number            4726
_diffrn_reflns_point_group_measured_fraction_full 0.995
_diffrn_reflns_point_group_measured_fraction_max 0.909
_diffrn_reflns_theta_full        25.242
_diffrn_reflns_theta_max         29.818
_diffrn_reflns_theta_min         3.874
_diffrn_source                   'fine-focus sealed X-ray tube'
_diffrn_source_type              'Enhance (Mo) X-ray Source'
_diffrn_standards_number         0
_exptl_absorpt_coefficient_mu    7.729
_exptl_absorpt_correction_T_max  1.00000
_exptl_absorpt_correction_T_min  0.35833
_exptl_absorpt_correction_type   multi-scan
_exptl_absorpt_process_details
;
CrysAlisPro 1.171.39.29d (Rigaku Oxford Diffraction, 2017)
Empirical absorption correction using spherical harmonics,
 implemented in SCALE3 ABSPACK scaling algorithm.
;
_exptl_crystal_colour            'clear yellowish yellow'
_exptl_crystal_colour_lustre     clear
_exptl_crystal_colour_modifier   yellowish
_exptl_crystal_colour_primary    yellow
_exptl_crystal_density_diffrn    1.681
_exptl_crystal_description       plate
_exptl_crystal_F_000             362
_exptl_crystal_preparation       'Magnetic properties'
_exptl_crystal_size_max          0.1
_exptl_crystal_size_mid          0.1
_exptl_crystal_size_min          0.05
_refine_diff_density_max         6.245
_refine_diff_density_min         -1.630
_refine_diff_density_rms         0.286
_refine_ls_extinction_method     none
_refine_ls_goodness_of_fit_ref   1.201
_refine_ls_hydrogen_treatment    constr
_refine_ls_matrix_type           full
_refine_ls_number_parameters     91
_refine_ls_number_reflns         1043
_refine_ls_number_restraints     109
_refine_ls_restrained_S_all      1.244
_refine_ls_R_factor_all          0.0883
_refine_ls_R_factor_gt           0.0757
_refine_ls_shift/su_max          0.000
_refine_ls_shift/su_mean         0.000
_refine_ls_structure_factor_coef Fsqd
_refine_ls_weighting_details
'w=1/[\s^2^(Fo^2^)+(0.1258P)^2^+0.3917P] where P=(Fo^2^+2Fc^2^)/3'
_refine_ls_weighting_scheme      calc
_refine_ls_wR_factor_gt          0.1881
_refine_ls_wR_factor_ref         0.1936
_reflns_Friedel_coverage         0.000
_reflns_number_gt                910
_reflns_number_total             1043
_reflns_threshold_expression     'I > 2\s(I)'
_iucr_refine_instructions_details
;
TITL 1015007-4pt_a.res in P4/m
    1015007-4pt.res
    created by SHELXL-2018/3 at 09:42:05 on 14-Jul-2020
REM Old TITL 1015007-4pt_a.res in P4/m
REM SHELXT solution in P4/m
REM R1 0.256, Rweak 0.136, Alpha 0.071, Orientation as input
REM Formula found by SHELXT: C4 Br N4 O1 Pt
CELL 0.71073 7.4386 7.4386 13.7329 90 90 90
ZERR 1 0.0002 0.0002 0.0023 0 0 0
LATT 1
SYMM -X,-Y,+Z
SYMM -Y,+X,+Z
SYMM +Y,-X,+Z
SFAC C H Br Fe N O Pt
UNIT 16 18 2 1 6 4 1
DFIX 1.5 C6 C3
DFIX 1.8 Br1 C6
DFIX 2.6 C4 C6
FLAT Br1 C6 C3 C2 C4 C5 N1 C1
DELU N1 C5 C4 C3 C2 C1 C6 Br1
ISOR 0.01 0.02 N1 C5 C4 C3 C2 C1 C6 Br1
ISOR 0.01 0.02 Pt1 C7 N2 Fe1
ISOR O1
ISOR 0.05 0.1 O2

L.S. 15 0 0
PLAN  20
list 4
fmap 2 53
acta
REM <olex2.extras>
REM <HklSrc "%.\\1015007-4Pt.hkl">
REM </olex2.extras>

WGHT    0.125800    0.391700
FVAR       0.61564
PT1   7    1.000000    0.000000    0.500000    10.12500    0.01445    0.01445 =
         0.08104    0.00000    0.00000    0.00000
FE1   4    0.500000    0.500000    0.500000    10.12500    0.01444    0.01444 =
         0.06026    0.00000    0.00000    0.00000
N2    5    0.702310    0.296932    0.500000    10.50000    0.03060    0.03008 =
         0.07480    0.00000    0.00000    0.00758
PART -1
AFIX  66
N1    5    0.490993    0.503382    0.659994    10.25000    0.08002    0.09463 =
         0.08527    0.00274   -0.00056   -0.00220
C5    1    0.502672    0.329154    0.696028    10.25000    0.10888    0.10294 =
         0.11211    0.00964   -0.00169    0.00033
AFIX  43
H5    2    0.511891    0.232604    0.653295    10.25000   -1.20000
AFIX  65
C4    1    0.500573    0.299231    0.795932    10.25000    0.11595    0.10895 =
         0.11393    0.01624   -0.00236   -0.00074
AFIX  43
H4    2    0.508386    0.182660    0.820041    10.25000   -1.20000
AFIX  65
C3    1    0.486794    0.443536    0.859802    10.25000    0.12655    0.12762 =
         0.12530    0.00003    0.00105    0.00126
C2    1    0.475115    0.617765    0.823768    10.25000    0.12122    0.11891 =
         0.11442   -0.01929    0.00149    0.00081
AFIX  43
H2    2    0.465896    0.714314    0.866502    10.25000   -1.20000
AFIX  65
C1    1    0.477215    0.647690    0.723865    10.25000    0.11405    0.10950 =
         0.11362   -0.01090   -0.00037    0.00078
AFIX  43
H1    2    0.469401    0.764261    0.699756    10.25000   -1.20000
AFIX   0
PART 0
C7    1    0.810909    0.188316    0.500000    10.50000    0.02885    0.02365 =
         0.05730    0.00000    0.00000   -0.00864
PART -1
C6    1    0.482717    0.435141    0.969157    10.25000    0.15730    0.17296 =
         0.13228   -0.00599    0.00055   -0.00293
AFIX  43
H6    2    0.472937    0.532866    1.011062    10.25000   -1.20000
AFIX   0
BR1   3    0.500066    0.202970    1.004828    10.25000    0.42150    0.26079 =
         0.19877    0.10344   -0.00511    0.00607

PART 0
O1    6    0.500000    0.000000    0.718686    10.25000    0.45146    0.15790 =
         0.27110    0.00000    0.00000    0.00881
AFIX   3
H1A   2    0.465900    0.071170    0.763466    10.25000   -1.50000
H1B   2    0.583710    0.056400    0.689676    10.25000   -1.50000
AFIX   0

PART -1
O2    6    0.871171   -0.008583    0.794410    10.25000    0.37586    0.03665 =
         0.32660   -0.01437   -0.01252   -0.00458
AFIX   3
H2A   2    0.779451   -0.049883    0.765040    10.25000   -1.50000
H2B   2    0.828161    0.056497    0.839640    10.25000   -1.50000
AFIX   0
HKLF 4




REM  1015007-4pt_a.res in P4/m
REM wR2 = 0.193569, GooF = S = 1.20129, Restrained GooF = 1.24372 for all data
REM R1 = 0.075682 for 910 Fo > 4sig(Fo) and 0.088252 for all 1043 data
REM 91 parameters refined using 109 restraints

END  
     
WGHT      0.1258      0.3915 

REM Highest difference peak  6.245,  deepest hole -1.630,  1-sigma level  0.286
Q1    1   1.0000  0.0000  0.5782  10.25000  0.05    6.25
Q2    1   0.5000  0.5000  0.5723  10.25000  0.05    2.74
Q3    1   0.7251  0.2628  1.0000  10.50000  0.05    1.28
Q4    1   1.0548 -0.0049  0.5000  10.50000  0.05    1.01
Q5    1   1.0000  0.0000  0.6712  10.25000  0.05    0.95
Q6    1   0.7165  0.2946  0.5597  11.00000  0.05    0.91
Q7    1   0.5000  0.5000  0.8794  10.25000  0.05    0.80
Q8    1   0.6925  0.0096  1.0000  10.50000  0.05    0.78
Q9    1   0.8154  0.1995  0.5539  11.00000  0.05    0.76
Q10   1   0.5000  0.5000  0.7371  10.25000  0.05    0.75
Q11   1   1.0103  0.1596  0.4361  11.00000  0.05    0.72
Q12   1   0.2874  0.0017  1.0000  10.50000  0.05    0.65
Q13   1   1.0269  0.1179  0.4679  11.00000  0.05    0.64
Q14   1   1.0119  0.1053  0.5000  10.50000  0.05    0.63
Q15   1   0.5167  0.3935  0.9190  11.00000  0.05    0.54
Q16   1   0.8050  0.0844  0.5978  11.00000  0.05    0.49
Q17   1   0.5000  0.0000  0.5821  10.50000  0.05    0.48
Q18   1   0.5000  0.2830  0.5000  10.50000  0.05    0.47
Q19   1   0.4060  0.6012  1.0000  10.50000  0.05    0.47
Q20   1   0.4094  0.3456  0.8032  11.00000  0.05    0.46

  REM The information below was added by Olex2.
  REM
  REM R1 = 0.075682 for 910 Fo > 4sig(Fo) and 0.088252 for all 4726 data
  REM n/a parameters refined using n/a restraints
  REM Highest difference peak 6.25, deepest hole -1.63
  REM Mean Shift 0, Max Shift 0.000.

  REM +++ Tabular Listing of Refinement Information +++
  REM R1_all = 0.088252
  REM R1_gt = 0.075682
  REM wR_ref = 0.193569
  REM GOOF = 1.20129
  REM Shift_max = 0.000
  REM Shift_mean = 0
  REM Reflections_all = 4726
  REM Reflections_gt = 910
  REM Parameters = n/a
  REM Hole = -1.63
  REM Peak = 6.25
  REM Flack = n/a

  
;
_cod_data_source_file            d0dt03796f2.cif
_cod_data_source_block           1_293K
_cod_depositor_comments
'Adding full bibliography for 7706197--7706200.cif.'
_cod_original_cell_volume        759.88(13)
_cod_database_code               7706197
_shelx_shelxl_version_number     2018/3
_shelx_space_group_comment
;
The symmetry employed for this shelxl refinement is uniquely defined
by the following loop, which should always be used as a source of
symmetry information in preference to the above space-group names.
They are only intended as comments.
;
_reflns_odcompleteness_completeness 99.24
_reflns_odcompleteness_iscentric 1
_reflns_odcompleteness_theta     26.32
_olex2_refinement_description
;
1. Fixed Uiso
 At 1.2 times of:
  All C(H) groups
 At 1.5 times of:
  All O(H,H) groups
2. Restrained distances
 C6-C3
 1.5 with sigma of 0.02
 Br1-C6
 1.8 with sigma of 0.02
 C4-C6
 2.6 with sigma of 0.02
3. Restrained planarity
 Br1, C6, C3, C2, C4, C5, N1, C1
 with sigma of 0.1
4. Rigid bond restraints
 N1, C5, C4, C3, C2, C1, C6, Br1
 with sigma for 1-2 distances of 0.01 and sigma for 1-3 distances of 0.01
5. Uiso/Uaniso restraints and constraints
Uanis(N1) \\sim Ueq, Uanis(C5) \\sim Ueq, Uanis(C4) \\sim Ueq, Uanis(C3) \\sim
Ueq, Uanis(C2) \\sim Ueq, Uanis(C1) \\sim Ueq, Uanis(C6) \\sim Ueq, Uanis(Br1)
\\sim Ueq: with sigma of 0.01 and sigma for terminal atoms of 0.02
Uanis(Pt1) \\sim Ueq, Uanis(C7) \\sim Ueq, Uanis(N2) \\sim Ueq, Uanis(Fe1)
\\sim Ueq: with sigma of 0.01 and sigma for terminal atoms of 0.02
Uanis(O1) \\sim Ueq: with sigma of 0.1 and sigma for terminal atoms of 0.2
Uanis(O2) \\sim Ueq: with sigma of 0.05 and sigma for terminal atoms of 0.1
6. Others
 Fixed Sof: N1(0.25) C5(0.25) H5(0.25) C4(0.25) H4(0.25) C3(0.25) C2(0.25)
 H2(0.25) C1(0.25) H1(0.25) C6(0.25) H6(0.25) Br1(0.25) O1(0.25) H1A(0.25)
 H1B(0.25) O2(0.25) H2A(0.25) H2B(0.25)
7.a Riding coordinates:
 O1(H1A,H1B), O2(H2A,H2B)
7.b Aromatic/amide H refined with riding coordinates:
 C5(H5), C4(H4), C2(H2), C1(H1), C6(H6)
7.c Fitted hexagon refined as free rotating group:
 N1(C5,C4,C3,C2,C1)
;
_olex2_submission_special_instructions 'No special instructions were received'
_oxdiff_exptl_absorpt_empirical_details
;
Empirical correction (ABSPACK) includes:
- Absorption correction using spherical harmonics
- Frame scaling
;
_oxdiff_exptl_absorpt_empirical_full_max 2.113
_oxdiff_exptl_absorpt_empirical_full_min 0.568
loop_
_space_group_symop_operation_xyz
'x, y, z'
'-x, -y, z'
'-y, x, z'
'y, -x, z'
'-x, -y, -z'
'x, y, -z'
'y, -x, -z'
'-y, x, -z'
loop_
_atom_site_label
_atom_site_type_symbol
_atom_site_fract_x
_atom_site_fract_y
_atom_site_fract_z
_atom_site_U_iso_or_equiv
_atom_site_adp_type
_atom_site_occupancy
_atom_site_site_symmetry_order
_atom_site_calc_flag
_atom_site_refinement_flags_posn
_atom_site_refinement_flags_adp
_atom_site_refinement_flags_occupancy
_atom_site_disorder_assembly
_atom_site_disorder_group
Pt1 Pt 1.000000 0.000000 0.500000 0.0366(4) Uani 1 8 d S TU P A .
Fe1 Fe 0.500000 0.500000 0.500000 0.0297(7) Uani 1 8 d S TU P . .
N2 N 0.7023(17) 0.2969(17) 0.500000 0.045(3) Uani 1 2 d S TU P A .
N1 N 0.491(14) 0.503(12) 0.6600(17) 0.087(8) Uani 0.25 1 d . U . A -1
C5 C 0.503(13) 0.329(11) 0.696(3) 0.108(10) Uani 0.25 1 d G U . A -1
H5 H 0.511891 0.232604 0.653295 0.130 Uiso 0.25 1 calc R . . A -1
C4 C 0.501(9) 0.299(7) 0.796(3) 0.113(10) Uani 0.25 1 d DG U . A -1
H4 H 0.508386 0.182660 0.820041 0.136 Uiso 0.25 1 calc R . . A -1
C3 C 0.487(8) 0.444(6) 0.8598(18) 0.126(10) Uani 0.25 1 d DG U . A -1
C2 C 0.475(12) 0.618(7) 0.824(3) 0.118(10) Uani 0.25 1 d G U . A -1
H2 H 0.465896 0.714314 0.866502 0.142 Uiso 0.25 1 calc R . . A -1
C1 C 0.477(14) 0.648(9) 0.724(3) 0.112(10) Uani 0.25 1 d G U . A -1
H1 H 0.469401 0.764261 0.699756 0.135 Uiso 0.25 1 calc R . . A -1
C7 C 0.8109(18) 0.1883(18) 0.500000 0.037(3) Uani 1 2 d S TU P . .
C6 C 0.483(8) 0.435(4) 0.969(2) 0.154(11) Uani 0.25 1 d D U . A -1
H6 H 0.472937 0.532866 1.011062 0.185 Uiso 0.25 1 calc R . . A -1
Br1 Br 0.500(4) 0.203(4) 1.005(4) 0.294(10) Uani 0.25 1 d D U . A -1
O1 O 0.500000 0.000000 0.719(10) 0.29(7) Uani 0.5 2 d S TU P . .
H1A H 0.465900 0.071170 0.763466 0.440 Uiso 0.25 1 d R . . . .
H1B H 0.583710 0.056400 0.689676 0.440 Uiso 0.25 1 d R . . . .
O2 O 0.871(15) -0.009(11) 0.794(9) 0.25(5) Uani 0.25 1 d . U . B -1
H2A H 0.779451 -0.049883 0.765040 0.370 Uiso 0.25 1 d R . . B -1
H2B H 0.828161 0.056497 0.839640 0.370 Uiso 0.25 1 d R . . B -1
loop_
_atom_site_aniso_label
_atom_site_aniso_U_11
_atom_site_aniso_U_22
_atom_site_aniso_U_33
_atom_site_aniso_U_23
_atom_site_aniso_U_13
_atom_site_aniso_U_12
Pt1 0.0144(4) 0.0144(4) 0.0810(9) 0.000 0.000 0.000
Fe1 0.0144(9) 0.0144(9) 0.060(2) 0.000 0.000 0.000
N2 0.031(5) 0.030(5) 0.075(7) 0.000 0.000 0.008(4)
N1 0.080(12) 0.095(11) 0.085(9) 0.003(7) -0.001(10) -0.002(10)
C5 0.109(15) 0.103(11) 0.112(11) 0.010(9) -0.002(10) 0.000(10)
C4 0.116(15) 0.109(11) 0.114(11) 0.016(7) -0.002(10) -0.001(10)
C3 0.127(16) 0.128(12) 0.125(10) 0.000(6) 0.001(10) 0.001(10)
C2 0.121(15) 0.119(11) 0.114(10) -0.019(8) 0.001(10) 0.001(10)
C1 0.114(15) 0.109(11) 0.114(11) -0.011(8) 0.000(10) 0.001(10)
C7 0.029(5) 0.024(5) 0.057(7) 0.000 0.000 -0.009(4)
C6 0.157(16) 0.173(13) 0.132(11) -0.006(8) 0.001(10) -0.003(10)
Br1 0.42(2) 0.261(14) 0.199(12) 0.103(14) -0.005(18) 0.006(14)
O1 0.45(17) 0.16(7) 0.27(11) 0.000 0.000 0.01(8)
O2 0.38(11) 0.04(3) 0.33(9) -0.01(5) -0.01(7) 0.00(6)
loop_
_atom_type_symbol
_atom_type_description
_atom_type_scat_dispersion_real
_atom_type_scat_dispersion_imag
_atom_type_scat_source
C C 0.0033 0.0016 'International Tables Vol C Tables 4.2.6.8 and 6.1.1.4'
H H 0.0000 0.0000 'International Tables Vol C Tables 4.2.6.8 and 6.1.1.4'
Br Br -0.2901 2.4595 'International Tables Vol C Tables 4.2.6.8 and 6.1.1.4'
Fe Fe 0.3463 0.8444 'International Tables Vol C Tables 4.2.6.8 and 6.1.1.4'
N N 0.0061 0.0033 'International Tables Vol C Tables 4.2.6.8 and 6.1.1.4'
O O 0.0106 0.0060 'International Tables Vol C Tables 4.2.6.8 and 6.1.1.4'
Pt Pt -1.7033 8.3905 'International Tables Vol C Tables 4.2.6.8 and 6.1.1.4'
loop_
_geom_angle_atom_site_label_1
_geom_angle_atom_site_label_2
_geom_angle_atom_site_label_3
_geom_angle
_geom_angle_site_symmetry_1
_geom_angle_site_symmetry_3
_geom_angle_publ_flag
C7 Pt1 C7 90.0 . 7_666 ?
C7 Pt1 C7 180.0(5) 7_666 3_645 ?
C7 Pt1 C7 90.0 . 3_645 ?
C7 Pt1 C7 90.000(2) 7_666 5_756 ?
C7 Pt1 C7 180.0 . 5_756 ?
C7 Pt1 C7 90.000(2) 3_645 5_756 ?
N2 Fe1 N2 180.0(5) 7_566 3_655 ?
N2 Fe1 N2 90.000(1) 7_566 . ?
N2 Fe1 N2 90.000(3) 7_566 5_666 ?
N2 Fe1 N2 90.000(2) 3_655 5_666 ?
N2 Fe1 N2 90.000(3) 3_655 . ?
N2 Fe1 N2 180.0 . 5_666 ?
N2 Fe1 N1 89(3) 7_566 . ?
N2 Fe1 N1 92(2) . . ?
N2 Fe1 N1 88(2) 5_666 . ?
N2 Fe1 N1 91(3) 3_655 . ?
C7 N2 Fe1 179.9(13) . . ?
C5 N1 Fe1 110(4) . . ?
C5 N1 C1 120.0 . . ?
C1 N1 Fe1 130(4) . . ?
N1 C5 C4 120.0 . . ?
C5 C4 C3 120.0 . . ?
C4 C3 C6 127(2) . . ?
C2 C3 C4 120.0 . . ?
C2 C3 C6 113(2) . . ?
C1 C2 C3 120.0 . . ?
C2 C1 N1 120.0 . . ?
N2 C7 Pt1 179.9(13) . . ?
C3 C6 Br1 108(3) . . ?
loop_
_geom_bond_atom_site_label_1
_geom_bond_atom_site_label_2
_geom_bond_distance
_geom_bond_site_symmetry_2
_geom_bond_publ_flag
Pt1 C7 1.985(14) . ?
Pt1 C7 1.985(15) 7_666 ?
Pt1 C7 1.985(15) 3_645 ?
Pt1 C7 1.985(14) 5_756 ?
Fe1 N2 2.132(12) 7_566 ?
Fe1 N2 2.132(12) 5_666 ?
Fe1 N2 2.132(12) 3_655 ?
Fe1 N2 2.132(12) . ?
Fe1 N1 2.20(2) . ?
N2 C7 1.14(2) . ?
N1 C5 1.3900 . ?
N1 C1 1.3900 . ?
C5 C4 1.3900 . ?
C4 C3 1.3900 . ?
C3 C2 1.3900 . ?
C3 C6 1.503(18) . ?
C2 C1 1.3900 . ?
C6 Br1 1.80(2) . ?
