#------------------------------------------------------------------------------
#$Date: 2021-02-05 01:11:21 +0200 (Fri, 05 Feb 2021) $
#$Revision: 261653 $
#$URL: file:///home/coder/svn-repositories/cod/cif/7/70/61/7706199.cif $
#------------------------------------------------------------------------------
#
# This file is available in the Crystallography Open Database (COD),
# http://www.crystallography.net/
#
# All data on this site have been placed in the public domain by the
# contributors.
#
data_7706199
loop_
_publ_author_name
'Li, Yue'
'Kong, Qing-Rong'
'Guo, Ying'
'Tang, Zheng'
_publ_section_title
;
 Thermal hysteresis induced by external pressure in a 3D Hofmann-type
 SCO-MOF.
;
_journal_issue                   4
_journal_name_full
'Dalton transactions (Cambridge, England : 2003)'
_journal_page_first              1384
_journal_page_last               1389
_journal_paper_doi               10.1039/d0dt03796f
_journal_volume                  50
_journal_year                    2021
_chemical_formula_moiety         'C16 H10 Br2 Fe N6 Pd, 4(H2 O)'
_chemical_formula_sum            'C16 H18 Br2 Fe N6 O4 Pd'
_chemical_formula_weight         680.43
_space_group_crystal_system      tetragonal
_space_group_IT_number           83
_space_group_name_Hall           '-P 4'
_space_group_name_H-M_alt        'P 4/m'
_atom_sites_solution_hydrogens   mixed
_atom_sites_solution_primary     direct
_audit_creation_date             2020-11-28
_audit_creation_method
;
Olex2 1.2
(compiled 2018.05.29 svn.r3508 for OlexSys, GUI svn.r5506)
;
_audit_update_record
;
2020-11-29 deposited with the CCDC.	2020-12-22 downloaded from the CCDC.
;
_cell_angle_alpha                90
_cell_angle_beta                 90
_cell_angle_gamma                90
_cell_formula_units_Z            1
_cell_length_a                   7.4285(7)
_cell_length_b                   7.4285(7)
_cell_length_c                   13.648(3)
_cell_measurement_reflns_used    979
_cell_measurement_temperature    249.99(11)
_cell_measurement_theta_max      29.3040
_cell_measurement_theta_min      4.0240
_cell_volume                     753.13(19)
_computing_cell_refinement       'CrysAlisPro 1.171.39.32a (Rigaku OD, 2017)'
_computing_data_collection       'CrysAlisPro 1.171.39.32a (Rigaku OD, 2017)'
_computing_data_reduction        'CrysAlisPro 1.171.39.32a (Rigaku OD, 2017)'
_computing_molecular_graphics    'Olex2 (Dolomanov et al., 2009)'
_computing_publication_material  'Olex2 (Dolomanov et al., 2009)'
_computing_structure_refinement  'ShelXL (Sheldrick, 2015)'
_computing_structure_solution    'ShelXS (Sheldrick, 2008)'
_diffrn_ambient_environment      N~2~
_diffrn_ambient_temperature      249.99(11)
_diffrn_detector                 'CCD plate'
_diffrn_measured_fraction_theta_full 0.992
_diffrn_measured_fraction_theta_max 0.912
_diffrn_measurement_details
;
List of Runs (angles in degrees, time in seconds):

  # Type    Start    End  Width  t~exp~   \w     \q     \k     \f   Frames
#--------------------------------------------------------------------------
  1  \w    -33.00  13.00   0.50   70.00    --    0.10 -63.00  -1.00   92
  2  \w    -52.00 -27.00   0.50   70.00    --    0.10 -82.00   0.00   50
  3  \w    -63.00  26.00   0.50   70.00    --    0.10 -82.00 -30.00  178
;
_diffrn_measurement_device       'four-circle diffractometer'
_diffrn_measurement_device_type  'XtaLAB AFC12 (RINC): Kappa single'
_diffrn_measurement_method       '\w scans'
_diffrn_orient_matrix_type
'CrysAlisPro convention (1999,Acta A55,543-557)'
_diffrn_orient_matrix_UB_11      0.0393812000
_diffrn_orient_matrix_UB_12      -0.0019004000
_diffrn_orient_matrix_UB_13      0.0473185000
_diffrn_orient_matrix_UB_21      0.0868777000
_diffrn_orient_matrix_UB_22      -0.0043980000
_diffrn_orient_matrix_UB_23      -0.0214393000
_diffrn_orient_matrix_UB_31      0.0046268000
_diffrn_orient_matrix_UB_32      0.0953910000
_diffrn_orient_matrix_UB_33      -0.0001184000
_diffrn_radiation_monochromator  graphite
_diffrn_radiation_probe          x-ray
_diffrn_radiation_type           MoK\a
_diffrn_radiation_wavelength     0.71073
_diffrn_reflns_av_R_equivalents  0.0671
_diffrn_reflns_av_unetI/netI     0.0531
_diffrn_reflns_Laue_measured_fraction_full 0.992
_diffrn_reflns_Laue_measured_fraction_max 0.912
_diffrn_reflns_limit_h_max       8
_diffrn_reflns_limit_h_min       -10
_diffrn_reflns_limit_k_max       8
_diffrn_reflns_limit_k_min       -10
_diffrn_reflns_limit_l_max       18
_diffrn_reflns_limit_l_min       -17
_diffrn_reflns_number            4906
_diffrn_reflns_point_group_measured_fraction_full 0.992
_diffrn_reflns_point_group_measured_fraction_max 0.912
_diffrn_reflns_theta_full        25.242
_diffrn_reflns_theta_max         29.505
_diffrn_reflns_theta_min         3.879
_diffrn_source                   'fine-focus sealed X-ray tube'
_diffrn_source_type              'Enhance (Mo) X-ray Source'
_exptl_absorpt_coefficient_mu    3.757
_exptl_absorpt_correction_T_max  1.00000
_exptl_absorpt_correction_T_min  0.21566
_exptl_absorpt_correction_type   multi-scan
_exptl_absorpt_process_details
;
CrysAlisPro 1.171.39.32a (Rigaku Oxford Diffraction, 2017)
Empirical absorption correction using spherical harmonics,
 implemented in SCALE3 ABSPACK scaling algorithm.
;
_exptl_crystal_colour            'clear yellowish yellow'
_exptl_crystal_colour_lustre     clear
_exptl_crystal_colour_modifier   yellowish
_exptl_crystal_colour_primary    yellow
_exptl_crystal_density_diffrn    1.500
_exptl_crystal_description       plate
_exptl_crystal_F_000             330
_exptl_crystal_size_max          0.1
_exptl_crystal_size_mid          0.1
_exptl_crystal_size_min          0.05
_refine_diff_density_max         1.853
_refine_diff_density_min         -1.286
_refine_diff_density_rms         0.201
_refine_ls_extinction_method     none
_refine_ls_goodness_of_fit_ref   1.125
_refine_ls_hydrogen_treatment    constr
_refine_ls_matrix_type           full
_refine_ls_number_parameters     95
_refine_ls_number_reflns         1009
_refine_ls_number_restraints     232
_refine_ls_restrained_S_all      1.171
_refine_ls_R_factor_all          0.0825
_refine_ls_R_factor_gt           0.0680
_refine_ls_shift/su_max          0.000
_refine_ls_shift/su_mean         0.000
_refine_ls_structure_factor_coef Fsqd
_refine_ls_weighting_details
'w=1/[\s^2^(Fo^2^)+(0.1613P)^2^+0.0142P] where P=(Fo^2^+2Fc^2^)/3'
_refine_ls_weighting_scheme      calc
_refine_ls_wR_factor_gt          0.2145
_refine_ls_wR_factor_ref         0.2230
_reflns_Friedel_coverage         0.000
_reflns_number_gt                839
_reflns_number_total             1009
_reflns_threshold_expression     'I > 2\s(I)'
_iucr_refine_instructions_details
;

    exp_1252@.res created by SHELXL-2014/7

TITL exp_1252@_a.res in P4/m
REM Old TITL exp_1252@ in P4/m #83
REM SHELXT solution in P4/m
REM R1 0.180, Rweak 0.027, Alpha 0.093, Orientation as input
REM Formula found by SHELXT: O2 N4 O1 Fe Pd
CELL 0.71073 7.4285 7.4285 13.6479 90 90 90
ZERR 1 0.0007 0.0007 0.0031 0 0 0
LATT 1
SYMM -X,-Y,+Z
SYMM -Y,+X,+Z
SYMM +Y,-X,+Z
SFAC C H Br Fe N O Pd
UNIT 16 18 2 1 6 4 1
EQIV $1 1-X,1-Y,+Z
DFIX 1.9 C6 Br1
DFIX 1.38 C5 C4
DFIX 2.38 C5 C3
DFIX 1.38 C4 C3
DFIX 2.8 C3 Br1
DFIX 1.38 N1 C5
DFIX 2.38 C4 N1
DFIX 1.5 C6 C3
SADI 0.01 C5 Fe1 Fe1 C1
FLAT 0.01 N1 C5 C4 C3 C6 Br1
DELU 0.001 0.001 C3 C6
SIMU 0.01 0.02 2 Br1 N1 C5 C4 C3 C2 C1 C6
SIMU 0.01 0.02 3.8 $C
RIGU 0.01 0.01 Br1 N1 C5 C4 C3 C2 C1 C6
ISOR 0.01 0.02 Br1 N1 C5 C4 C3 C2 C1 C6
ISOR O2
ISOR 0.01 0.02 O1
 
L.S. 54 0 0
PLAN  20
SIZE 0.1 0.1 0.05
HTAB C5 O1_$1
HTAB C2 Br1
HTAB C1 O1
HTAB C2 O1
list 4
fmap 2 53
acta
REM <olex2.extras>
REM <HklSrc "%.\\exp_1252@.hkl">
REM </olex2.extras>
 
WGHT    0.161300    0.014200
FVAR       0.67538
PD1   7    1.000000    1.000000    0.500000    10.12500    0.01381    0.01381 =
         0.04724    0.00000    0.00000    0.00000
PART -1
BR1   3    0.498904    0.191462   -0.001521    10.25000    0.36386    0.12981 =
         0.14022   -0.04938    0.01021   -0.02578
PART 0
FE1   4    0.500000    0.500000    0.500000    10.12500    0.01390    0.01390 =
         0.05223    0.00000    0.00000    0.00000
PART -1
AFIX  66
N1    5    0.501556    0.482765    0.344288    10.25000    0.06236    0.06121 =
         0.06623   -0.00625    0.00190   -0.00437
C5    1    0.483299    0.637157    0.287613    10.25000    0.09512    0.08581 =
         0.08794   -0.00413    0.00258   -0.00331
AFIX  43
H5    2    0.475912    0.749321    0.317614    10.25000   -1.20000
AFIX  65
C4    1    0.476081    0.623909    0.186097    10.25000    0.10136    0.09132 =
         0.09163   -0.00355    0.00128   -0.00347
AFIX  43
H4    2    0.463865    0.727208    0.148178    10.25000   -1.20000
AFIX  65
C3    1    0.487121    0.456267    0.141257    10.25000    0.10178    0.09179 =
         0.09416   -0.00253    0.00180   -0.00330
C2    1    0.505379    0.301873    0.197930    10.25000    0.10137    0.09139 =
         0.09136   -0.00393    0.00305   -0.00380
AFIX  43
H2    2    0.512765    0.189710    0.167928    10.25000   -1.20000
AFIX  65
C1    1    0.512597    0.315119    0.299446    10.25000    0.09578    0.08682 =
         0.08859   -0.00410    0.00115   -0.00454
AFIX  43
H1    2    0.524813    0.211819    0.337364    10.25000   -1.20000
AFIX   0
PART 0
N2    5    0.701838    0.704109    0.500000    10.50000    0.02201    0.01969 =
         0.08222    0.00000    0.00000   -0.00789
PART -1
C6    1    0.479971    0.434232    0.033939    10.25000    0.10915    0.09321 =
         0.09483   -0.00550    0.00172   -0.00424
AFIX  43
H6    2    0.467666    0.528588   -0.010343    10.25000   -1.20000
AFIX   0
PART 0
C7    1    0.808659    0.810150    0.500000    10.50000    0.02097    0.02351 =
         0.06442    0.00000    0.00000    0.00303
PART -1
O1    6    0.537737   -0.020241    0.277772    10.25000    0.12957    0.13246 =
         0.13892    0.02647    0.02159   -0.00739
AFIX   3
H1A   2    0.482267   -0.014451    0.223392    10.25000   -1.50000
H1B   2    0.480967   -0.099631    0.310282    10.25000   -1.50000
AFIX   0
 
O2    6    0.929563   -0.028780    0.193092    10.25000    0.24586    0.05498 =
         0.32969   -0.00456   -0.04883   -0.04181
AFIX   3
H2A   2    0.835123   -0.022480    0.228092    10.25000   -1.50000
H2B   2    0.949103    0.072741    0.166382    10.25000   -1.50000
AFIX   0
HKLF 4
 
REM  exp_1252@_a.res in P4/m
REM R1 =  0.0680 for     839 Fo > 4sig(Fo)  and  0.0825 for all    1009 data
REM     95 parameters refined using    232 restraints
 
END  
     
WGHT      0.1612      0.0142 

REM Highest difference peak  1.853,  deepest hole -1.286,  1-sigma level  0.201
Q1    1   0.7011  0.2401  0.0000  10.50000  0.05    1.29
Q2    1   0.2916  0.2356  0.0000  10.50000  0.05    1.08
Q3    1   0.5384  0.0036  0.0000  10.50000  0.05    0.68
Q4    1   0.6817  0.0099  0.0000  10.50000  0.05    0.65
Q5    1   0.5036  0.1612  0.2255  11.00000  0.05    0.64
Q6    1   1.0000  1.0000  0.4268  10.25000  0.05    0.64
Q7    1   0.4932  0.0393  0.0000  10.50000  0.05    0.57
Q8    1   0.8149  0.9444  0.5000  10.50000  0.05    0.55
Q9    1   0.2393  0.7584  0.1037  11.00000  0.05    0.55
Q10   1   0.9329  0.8149  0.5000  10.50000  0.05    0.45
Q11   1   0.9937  1.1272  0.4397  11.00000  0.05    0.42
Q12   1   0.5000  0.5000  0.4259  10.25000  0.05    0.40
Q13   1   0.3788  0.5876  0.1812  11.00000  0.05    0.39
Q14   1   0.5465  0.6353  0.2888  11.00000  0.05    0.35
Q15   1   0.3126  0.6814  0.1026  11.00000  0.05    0.35
Q16   1   0.6696  0.6345  0.5000  10.50000  0.05    0.34
Q17   1   0.8947  0.0864  0.1595  11.00000  0.05    0.33
Q18   1   0.3937  0.3956  0.0385  11.00000  0.05    0.33
Q19   1   0.9202  0.5100  0.5000  10.50000  0.05    0.31
Q20   1   1.0000  0.0000  0.3306  10.25000  0.05    0.31

  REM The information below was added by Olex2.
  REM
  REM R1 = 0.0680 for 839 Fo > 4sig(Fo) and 0.0825 for all 4906 data
  REM n/a parameters refined using n/a restraints
  REM Highest difference peak 1.85, deepest hole -1.29
  REM Mean Shift 0, Max Shift 0.000.

  REM +++ Tabular Listing of Refinement Information +++
  REM R1_all = 0.0825
  REM R1_gt = 0.0680
  REM wR_ref = 0.2230
  REM GOOF = 1.125
  REM Shift_max = 0.000
  REM Shift_mean = 0
  REM Reflections_all = 4906
  REM Reflections_gt = 839
  REM Parameters = n/a
  REM Hole = -1.29
  REM Peak = 1.85
  REM Flack = n/a

  
;
_cod_data_source_file            d0dt03796f2.cif
_cod_data_source_block           2023231
_cod_depositor_comments
'Adding full bibliography for 7706197--7706200.cif.'
_cod_original_cell_volume        753.1(2)
_cod_database_code               7706199
_shelx_shelxl_version_number     2014/7
_shelx_space_group_comment
;
The symmetry employed for this shelxl refinement is uniquely defined
by the following loop, which should always be used as a source of
symmetry information in preference to the above space-group names.
They are only intended as comments.
;
_shelx_estimated_absorpt_t_max   0.834
_shelx_estimated_absorpt_t_min   0.705
_reflns_odcompleteness_completeness 99.04
_reflns_odcompleteness_iscentric 1
_reflns_odcompleteness_theta     26.32
_olex2_refinement_description
;
1. Fixed Uiso
 At 1.2 times of:
  All C(H) groups
 At 1.5 times of:
  All O(H,H) groups
2. Restrained distances
 C6-Br1
 1.9 with sigma of 0.02
 C5-C4
 1.38 with sigma of 0.02
 C5-C3
 2.38 with sigma of 0.02
 C4-C3
 1.38 with sigma of 0.02
 C3-Br1
 2.8 with sigma of 0.02
 N1-C5
 1.38 with sigma of 0.02
 C4-N1
 2.38 with sigma of 0.02
 C6-C3
 1.5 with sigma of 0.02
 C5-Fe1 \\sim Fe1-C1
 with sigma of 0.01
3. Restrained planarity
 N1, C5, C4, C3, C6, Br1
 with sigma of 0.01
4. Rigid bond restraints
 C3, C6
 with sigma for 1-2 distances of 0.001 and sigma for 1-3 distances of 0.001
5. Uiso/Uaniso restraints and constraints
Br1 \\sim N1 \\sim C5 \\sim C4 \\sim C3 \\sim C2 \\sim C1 \\sim C6: within 2A
with sigma of 0.01 and sigma for terminal atoms of 0.02
C5 \\sim C4 \\sim C3 \\sim C2 \\sim C1 \\sim C6 \\sim C7: within 3.8A with
sigma of 0.01 and sigma for terminal atoms of 0.02
Uanis(Br1) \\sim Ueq, Uanis(N1) \\sim Ueq, Uanis(C5) \\sim Ueq, Uanis(C4) \\sim
Ueq, Uanis(C3) \\sim Ueq, Uanis(C2) \\sim Ueq, Uanis(C1) \\sim Ueq, Uanis(C6)
\\sim Ueq: with sigma of 0.01 and sigma for terminal atoms of 0.02
Uanis(O2) \\sim Ueq: with sigma of 0.1 and sigma for terminal atoms of 0.2
Uanis(O1) \\sim Ueq: with sigma of 0.01 and sigma for terminal atoms of 0.02
6. Rigid body (RIGU) restrains
 Br1, N1, C5, C4, C3, C2, C1, C6
 with sigma for 1-2 distances of 0.01 and sigma for 1-3 distances of 0.01
7. Others
 Fixed Sof: Br1(0.25) N1(0.25) C5(0.25) H5(0.25) C4(0.25) H4(0.25) C3(0.25)
 C2(0.25) H2(0.25) C1(0.25) H1(0.25) C6(0.25) H6(0.25) O1(0.25) H1A(0.25)
 H1B(0.25) O2(0.25) H2A(0.25) H2B(0.25)
8.a Riding coordinates:
 O1(H1A,H1B), O2(H2A,H2B)
8.b Aromatic/amide H refined with riding coordinates:
 C5(H5), C4(H4), C2(H2), C1(H1), C6(H6)
8.c Fitted hexagon refined as free rotating group:
 N1(C5,C4,C3,C2,C1)
;
_olex2_submission_special_instructions 'No special instructions were received'
_oxdiff_exptl_absorpt_empirical_details
;
Empirical correction (ABSPACK) includes:
- Absorption correction using spherical harmonics
- Frame scaling
;
_oxdiff_exptl_absorpt_empirical_full_max 2.164
_oxdiff_exptl_absorpt_empirical_full_min 0.482
loop_
_space_group_symop_operation_xyz
'x, y, z'
'-x, -y, z'
'-y, x, z'
'y, -x, z'
'-x, -y, -z'
'x, y, -z'
'y, -x, -z'
'-y, x, -z'
loop_
_atom_site_label
_atom_site_type_symbol
_atom_site_fract_x
_atom_site_fract_y
_atom_site_fract_z
_atom_site_U_iso_or_equiv
_atom_site_adp_type
_atom_site_occupancy
_atom_site_site_symmetry_order
_atom_site_calc_flag
_atom_site_refinement_flags_posn
_atom_site_refinement_flags_adp
_atom_site_refinement_flags_occupancy
_atom_site_disorder_assembly
_atom_site_disorder_group
Pd1 Pd 1.0000 1.0000 0.5000 0.0250(5) Uani 1 8 d S T P . .
Br1 Br 0.4989(14) 0.1915(10) -0.0015(16) 0.211(4) Uani 0.25 1 d D U . A -1
Fe1 Fe 0.5000 0.5000 0.5000 0.0267(5) Uani 1 8 d DS T P . .
N1 N 0.502(6) 0.4828(17) 0.3443(8) 0.063(3) Uani 0.25 1 d D U . A -1
C5 C 0.483(6) 0.6372(19) 0.2876(9) 0.090(4) Uani 0.25 1 d DG U . A -1
H5 H 0.4759 0.7493 0.3176 0.108 Uiso 0.25 1 calc R . . A -1
C4 C 0.476(5) 0.624(3) 0.1861(8) 0.095(4) Uani 0.25 1 d DG U . A -1
H4 H 0.4639 0.7272 0.1482 0.114 Uiso 0.25 1 calc R . . A -1
C3 C 0.487(3) 0.456(3) 0.1413(8) 0.096(4) Uani 0.25 1 d DG U . A -1
C2 C 0.505(4) 0.302(3) 0.1979(10) 0.095(4) Uani 0.25 1 d G U . A -1
H2 H 0.5128 0.1897 0.1679 0.114 Uiso 0.25 1 calc R . . A -1
C1 C 0.513(6) 0.3151(19) 0.2994(10) 0.090(4) Uani 0.25 1 d DG U . A -1
H1 H 0.5248 0.2118 0.3374 0.108 Uiso 0.25 1 calc R . . A -1
N2 N 0.7018(10) 0.7041(10) 0.5000 0.0413(17) Uani 1 2 d S T P A .
C6 C 0.480(3) 0.434(3) 0.0339(14) 0.099(4) Uani 0.25 1 d D U . A -1
H6 H 0.4677 0.5286 -0.0103 0.119 Uiso 0.25 1 calc R . . A -1
C7 C 0.8087(11) 0.8102(12) 0.5000 0.0363(17) Uani 1 2 d S TU P . .
O1 O 0.538(7) -0.020(8) 0.278(4) 0.134(17) Uani 0.25 1 d . U . B -1
H1A H 0.4823 -0.0145 0.2234 0.200 Uiso 0.25 1 d R . . B -1
H1B H 0.4810 -0.0996 0.3103 0.200 Uiso 0.25 1 d R . . B -1
O2 O 0.930(12) -0.029(7) 0.193(3) 0.21(4) Uani 0.25 1 d . U . C -1
H2A H 0.8351 -0.0225 0.2281 0.315 Uiso 0.25 1 d R . . C -1
H2B H 0.9491 0.0727 0.1664 0.315 Uiso 0.25 1 d R . . C -1
loop_
_atom_site_aniso_label
_atom_site_aniso_U_11
_atom_site_aniso_U_22
_atom_site_aniso_U_33
_atom_site_aniso_U_23
_atom_site_aniso_U_13
_atom_site_aniso_U_12
Pd1 0.0138(5) 0.0138(5) 0.0472(7) 0.000 0.000 0.000
Br1 0.364(10) 0.130(4) 0.140(5) -0.049(8) 0.010(12) -0.026(5)
Fe1 0.0139(6) 0.0139(6) 0.0522(12) 0.000 0.000 0.000
N1 0.062(6) 0.061(6) 0.066(5) -0.006(6) 0.002(7) -0.004(6)
C5 0.095(6) 0.086(6) 0.088(5) -0.004(5) 0.003(5) -0.003(5)
C4 0.101(6) 0.091(6) 0.092(6) -0.004(5) 0.001(5) -0.003(5)
C3 0.102(6) 0.092(6) 0.094(5) -0.003(5) 0.002(5) -0.003(5)
C2 0.101(6) 0.091(6) 0.091(6) -0.004(5) 0.003(5) -0.004(5)
C1 0.096(6) 0.087(6) 0.089(5) -0.004(5) 0.001(5) -0.005(5)
N2 0.022(3) 0.020(3) 0.082(5) 0.000 0.000 -0.008(3)
C6 0.109(6) 0.093(6) 0.095(5) -0.005(5) 0.002(5) -0.004(5)
C7 0.021(3) 0.024(3) 0.064(5) 0.000 0.000 0.003(3)
O1 0.13(3) 0.13(2) 0.14(2) 0.026(17) 0.022(17) -0.007(19)
O2 0.25(12) 0.05(2) 0.33(5) 0.00(4) -0.05(6) -0.04(4)
loop_
_atom_type_symbol
_atom_type_description
_atom_type_scat_dispersion_real
_atom_type_scat_dispersion_imag
_atom_type_scat_source
C C 0.0033 0.0016 'International Tables Vol C Tables 4.2.6.8 and 6.1.1.4'
H H 0.0000 0.0000 'International Tables Vol C Tables 4.2.6.8 and 6.1.1.4'
Br Br -0.2901 2.4595 'International Tables Vol C Tables 4.2.6.8 and 6.1.1.4'
Fe Fe 0.3463 0.8444 'International Tables Vol C Tables 4.2.6.8 and 6.1.1.4'
N N 0.0061 0.0033 'International Tables Vol C Tables 4.2.6.8 and 6.1.1.4'
O O 0.0106 0.0060 'International Tables Vol C Tables 4.2.6.8 and 6.1.1.4'
Pd Pd -0.9988 1.0072 'International Tables Vol C Tables 4.2.6.8 and 6.1.1.4'
loop_
_geom_angle_atom_site_label_1
_geom_angle_atom_site_label_2
_geom_angle_atom_site_label_3
_geom_angle
_geom_angle_site_symmetry_1
_geom_angle_site_symmetry_3
_geom_angle_publ_flag
C7 Pd1 C7 90.0 5_776 7_576 ?
C7 Pd1 C7 180.0 7_576 3_755 ?
C7 Pd1 C7 90.000(1) 3_755 . ?
C7 Pd1 C7 90.000(1) 7_576 . ?
C7 Pd1 C7 90.000(2) 5_776 3_755 ?
C7 Pd1 C7 180.0 5_776 . ?
N1 Fe1 N2 92.2(10) . . ?
N1 Fe1 N2 92.6(9) . 3_655 ?
N1 Fe1 N2 87.4(9) . 7_566 ?
N1 Fe1 N2 87.8(10) . 5_666 ?
N2 Fe1 N2 90.001(2) . 7_566 ?
N2 Fe1 N2 180.0 . 5_666 ?
N2 Fe1 N2 180.0 7_566 3_655 ?
N2 Fe1 N2 90.000(2) 5_666 3_655 ?
N2 Fe1 N2 90.000(1) 5_666 7_566 ?
N2 Fe1 N2 89.999(1) . 3_655 ?
C5 N1 Fe1 120.4(4) . . ?
C5 N1 C1 120.0 . . ?
C1 N1 Fe1 119.6(4) . . ?
C4 C5 N1 120.0 . . ?
C5 C4 C3 120.0 . . ?
C4 C3 C2 120.0 . . ?
C4 C3 C6 122.3(14) . . ?
C2 C3 C6 117.7(14) . . ?
C3 C2 C1 120.0 . . ?
C2 C1 N1 120.0 . . ?
C7 N2 Fe1 179.5(9) . . ?
C3 C6 Br1 111.2(15) . . ?
N2 C7 Pd1 180.0(9) . . ?
loop_
_geom_bond_atom_site_label_1
_geom_bond_atom_site_label_2
_geom_bond_distance
_geom_bond_site_symmetry_2
_geom_bond_publ_flag
Pd1 C7 2.002(9) 5_776 ?
Pd1 C7 2.002(9) 7_576 ?
Pd1 C7 2.002(9) 3_755 ?
Pd1 C7 2.002(9) . ?
Br1 C6 1.873(18) . ?
Fe1 N1 2.129(11) . ?
Fe1 N2 2.132(7) 7_566 ?
Fe1 N2 2.132(7) . ?
Fe1 N2 2.132(7) 3_655 ?
Fe1 N2 2.132(7) 5_666 ?
N1 C5 1.3900 . ?
N1 C1 1.3900 . ?
C5 C4 1.3900 . ?
C4 C3 1.3900 . ?
C3 C2 1.3900 . ?
C3 C6 1.475(18) . ?
C2 C1 1.3900 . ?
N2 C7 1.118(14) . ?
loop_
_geom_hbond_atom_site_label_D
_geom_hbond_atom_site_label_H
_geom_hbond_atom_site_label_A
_geom_hbond_distance_DH
_geom_hbond_distance_HA
_geom_hbond_distance_DA
_geom_hbond_angle_DHA
_geom_hbond_site_symmetry_A
C2 H2 Br1 0.93 2.31 2.84(2) 115.6 .
C2 H2 O1 0.93 2.17 2.64(6) 110.2 .
C1 H1 O1 0.93 1.91 2.52(6) 120.9 .
