#------------------------------------------------------------------------------
#$Date: 2021-07-05 20:38:59 +0300 (Mon, 05 Jul 2021) $
#$Revision: 267179 $
#$URL: file:///home/coder/svn-repositories/cod/cif/7/70/74/7707451.cif $
#------------------------------------------------------------------------------
#
# This file is available in the Crystallography Open Database (COD),
# http://www.crystallography.net/
#
# All data on this site have been placed in the public domain by the
# contributors.
#
data_7707451
loop_
_publ_author_name
'Masahara, Shingo'
'Yokoyama, Hiromichi'
'Suzaki, Yuji'
'Ide, Tomohito'
_publ_section_title
;
 Convenient synthesis of copper(I) halide quasi-one-dimensional
 coordination polymers: their structures and solid-state luminescent
 properties.
;
_journal_issue                   25
_journal_name_full
'Dalton transactions (Cambridge, England : 2003)'
_journal_page_first              8889
_journal_page_last               8898
_journal_paper_doi               10.1039/d1dt01571k
_journal_volume                  50
_journal_year                    2021
_chemical_formula_moiety         'C5 H4 Br Cu I N'
_chemical_formula_sum            'C5 H4 Br Cu I N'
_chemical_formula_weight         348.44
_space_group_crystal_system      orthorhombic
_space_group_IT_number           19
_space_group_name_Hall           'P 2ac 2ab'
_space_group_name_H-M_alt        'P 21 21 21'
_atom_sites_solution_hydrogens   geom
_atom_sites_solution_primary     dual
_audit_creation_date             2021-03-13
_audit_creation_method
;
Olex2 1.3
(compiled 2020.11.12 svn.r5f609507 for OlexSys, GUI svn.r6272)
;
_audit_update_record
;
2021-03-13 deposited with the CCDC.	2021-05-19 downloaded from the CCDC.
;
_cell_angle_alpha                90
_cell_angle_beta                 90
_cell_angle_gamma                90
_cell_formula_units_Z            4
_cell_length_a                   4.0975(2)
_cell_length_b                   11.5751(6)
_cell_length_c                   16.3426(8)
_cell_measurement_reflns_used    2233
_cell_measurement_temperature    90
_cell_measurement_theta_max      74.5140
_cell_measurement_theta_min      2.7390
_cell_volume                     775.11(7)
_computing_cell_refinement       'CrysAlisPro 1.171.40.84a (Rigaku OD, 2020)'
_computing_data_collection       'CrysAlisPro 1.171.40.84a (Rigaku OD, 2020)'
_computing_data_reduction        'CrysAlisPro 1.171.40.84a (Rigaku OD, 2020)'
_computing_molecular_graphics    'Olex2 1.3 (Dolomanov et al., 2009)'
_computing_publication_material  'Olex2 1.3 (Dolomanov et al., 2009)'
_computing_structure_refinement  'SHELXL 2018/3 (Sheldrick, 2015)'
_computing_structure_solution    'ShelXT (Sheldrick, 2015)'
_diffrn_ambient_temperature      90
_diffrn_detector                 'Hybrid Pixel Array Detector'
_diffrn_detector_area_resol_mean 10.0000
_diffrn_detector_type            HyPix
_diffrn_measured_fraction_theta_full 0.999
_diffrn_measured_fraction_theta_max 0.960
_diffrn_measurement_details
;
List of Runs (angles in degrees, time in seconds):

  # Type    Start    End  Width  t~exp~   \w     \q     \k     \f   Frames
#--------------------------------------------------------------------------
  1  \w      0.00  29.00   0.50    0.05    --   46.57 -24.00 -68.00   58
  2  \w     39.00  72.00   0.50    0.05    --  104.61 -61.00-150.00   66
  3  \w     38.00  72.00   0.50    0.05    --  104.61 -61.00 -90.00   68
  4  \w     37.00  63.00   0.50    0.05    --  104.61 -61.00 -60.00   52
  5  \w    -24.00  26.00   0.50    0.05    --  -46.57  19.00 150.00  100
  6  \w    -57.00 -31.00   0.50    0.05    -- -102.00  61.00   0.00   52
  7  \w    -56.00 -29.00   0.50    0.05    -- -102.00 128.00 -47.00   54
  8  \w    -54.00 -29.00   0.50    0.05    -- -102.00 100.00-122.00   50
  9  \w    -95.00 -70.00   0.50    0.05    -- -102.00 100.00-122.00   50
 10  \w   -111.00 -67.00   0.50    0.05    -- -102.00 128.00 -47.00   88
 11  \w    -24.00  26.00   0.50    0.05    --  -46.57  19.00-150.00  100
 12  \w   -112.00 -75.00   0.50    0.05    --  -46.57-125.00-150.00   74
 13  \w   -158.00 -93.00   0.50    0.05    -- -102.00 -24.00 -68.00  130
;
_diffrn_measurement_device       'four-circle diffractometer'
_diffrn_measurement_device_type  'XtaLAB Synergy R, DW system, HyPix'
_diffrn_measurement_method       '\w scans'
_diffrn_orient_matrix_type
'CrysAlisPro convention (1999,Acta A55,543-557)'
_diffrn_orient_matrix_UB_11      -0.1140264000
_diffrn_orient_matrix_UB_12      0.0131988000
_diffrn_orient_matrix_UB_13      0.0893734000
_diffrn_orient_matrix_UB_21      -0.0288611000
_diffrn_orient_matrix_UB_22      -0.1322839000
_diffrn_orient_matrix_UB_23      0.0075079000
_diffrn_orient_matrix_UB_31      0.3570211000
_diffrn_orient_matrix_UB_32      -0.0063908000
_diffrn_orient_matrix_UB_33      0.0290828000
_diffrn_radiation_monochromator  mirror
_diffrn_radiation_probe          x-ray
_diffrn_radiation_type           'Cu K\a'
_diffrn_radiation_wavelength     1.54184
_diffrn_reflns_av_R_equivalents  0.0301
_diffrn_reflns_av_unetI/netI     0.0405
_diffrn_reflns_Laue_measured_fraction_full 0.999
_diffrn_reflns_Laue_measured_fraction_max 0.960
_diffrn_reflns_limit_h_max       4
_diffrn_reflns_limit_h_min       -2
_diffrn_reflns_limit_k_max       14
_diffrn_reflns_limit_k_min       -14
_diffrn_reflns_limit_l_max       20
_diffrn_reflns_limit_l_min       -19
_diffrn_reflns_number            2498
_diffrn_reflns_point_group_measured_fraction_full 0.885
_diffrn_reflns_point_group_measured_fraction_max 0.838
_diffrn_reflns_theta_full        67.684
_diffrn_reflns_theta_max         74.503
_diffrn_reflns_theta_min         4.681
_diffrn_source                   'Rotating-anode X-ray tube'
_diffrn_source_type              'Rigaku (Cu) X-ray Source'
_exptl_absorpt_coefficient_mu    40.559
_exptl_absorpt_correction_T_max  1.00000
_exptl_absorpt_correction_T_min  0.32650
_exptl_absorpt_correction_type   multi-scan
_exptl_absorpt_process_details
;
CrysAlisPro 1.171.40.84a (Rigaku Oxford Diffraction, 2020)
Empirical absorption correction using spherical harmonics,
implemented in SCALE3 ABSPACK scaling algorithm.
;
_exptl_crystal_colour            'clear light green'
_exptl_crystal_colour_lustre     clear
_exptl_crystal_colour_modifier   light
_exptl_crystal_colour_primary    green
_exptl_crystal_density_diffrn    2.986
_exptl_crystal_description       block
_exptl_crystal_F_000             632
_exptl_crystal_size_max          0.518
_exptl_crystal_size_mid          0.101
_exptl_crystal_size_min          0.06
_refine_diff_density_max         0.928
_refine_diff_density_min         -1.173
_refine_diff_density_rms         0.239
_refine_ls_abs_structure_details
;
 Refined as an inversion twin.
;
_refine_ls_abs_structure_Flack   0.097(11)
_refine_ls_extinction_method     none
_refine_ls_goodness_of_fit_ref   1.065
_refine_ls_hydrogen_treatment    constr
_refine_ls_matrix_type           full
_refine_ls_number_parameters     83
_refine_ls_number_reflns         1329
_refine_ls_number_restraints     0
_refine_ls_restrained_S_all      1.065
_refine_ls_R_factor_all          0.0319
_refine_ls_R_factor_gt           0.0315
_refine_ls_shift/su_max          0.000
_refine_ls_shift/su_mean         0.000
_refine_ls_structure_factor_coef Fsqd
_refine_ls_weighting_details
'w=1/[\s^2^(Fo^2^)+(0.0507P)^2^] where P=(Fo^2^+2Fc^2^)/3'
_refine_ls_weighting_scheme      calc
_refine_ls_wR_factor_gt          0.0789
_refine_ls_wR_factor_ref         0.0792
_reflns_Friedel_coverage         0.427
_reflns_Friedel_fraction_full    0.704
_reflns_Friedel_fraction_max     0.646
_reflns_number_gt                1308
_reflns_number_total             1329
_reflns_threshold_expression     'I > 2\s(I)'
_cod_data_source_file            d1dt01571k2.cif
_cod_data_source_block           hy305
_cod_depositor_comments
'Adding full bibliography for 7707451--7707455.cif.'
_cod_database_code               7707451
_shelx_shelxl_version_number     2018/3
_shelx_space_group_comment
;
The symmetry employed for this shelxl refinement is uniquely defined
by the following loop, which should always be used as a source of
symmetry information in preference to the above space-group names.
They are only intended as comments.
;
_shelx_estimated_absorpt_t_max   0.195
_shelx_estimated_absorpt_t_min   0.018
_reflns_odcompleteness_completeness 100.00
_reflns_odcompleteness_iscentric 1
_reflns_odcompleteness_theta     66.97
_olex2_refinement_description
;
1. Twinned data refinement
 Scales: 0.903(11)
 0.097(11)
2. Fixed Uiso
 At 1.2 times of:
  All C(H) groups
3.a Aromatic/amide H refined with riding coordinates:
 C3(H3), C5(H5), C1(H1), C4(H4)
;
_shelx_res_file
;
TITL exp_849_a.res in P2(1)2(1)2(1)
    exp_849.res
    created by SHELXL-2018/3 at 20:22:59 on 13-Mar-2021
REM Old TITL exp_849_a.res in P2(1)2(1)2(1)
REM SHELXT solution in P2(1)2(1)2(1): R1 0.061, Rweak 0.026, Alpha 0.002
REM <I/s> 1.585 for 19 systematic absences, Orientation as input
REM Flack x = 0.093 ( 0.009 ) from 385 Parsons' quotients
REM Formula found by SHELXT: C5 I N Cu Br
CELL 1.54184 4.0975 11.5751 16.3426 90 90 90
ZERR 4 0.0002 0.0006 0.0008 0 0 0
LATT -1
SYMM 0.5-X,-Y,0.5+Z
SYMM -X,0.5+Y,0.5-Z
SYMM 0.5+X,0.5-Y,-Z
SFAC C H Br Cu I N
UNIT 20 16 4 4 4 4

L.S. 4
PLAN  2
SIZE 0.06 0.101 0.518
TEMP -183.15
CONF
BOND
list 4
MORE -1
BOND $H
fmap 2
acta
TWIN -1 0 0 0 -1 0 0 0 -1 2
REM <olex2.extras>
REM <HklSrc "%.\\exp_849.hkl">
REM </olex2.extras>

WGHT    0.050700
BASF   0.09716
FVAR       0.34346
I1    5    0.909531    0.628274    0.587405    11.00000    0.01044    0.00738 =
         0.00962    0.00293   -0.00032    0.00037
BR1   3    0.460698    0.193136    0.388065    11.00000    0.02786    0.00684 =
         0.02655   -0.00252    0.00144    0.00166
CU1   4    0.424040    0.672286    0.488996    11.00000    0.01415    0.00731 =
         0.01079   -0.00113   -0.00189    0.00087
N1    6    0.350986    0.545771    0.403233    11.00000    0.01477    0.00974 =
         0.01026    0.00177    0.00111    0.00310
C3    1    0.173887    0.372722    0.293080    11.00000    0.02749    0.01275 =
         0.00745   -0.00433    0.00044   -0.00798
AFIX  43
H3    2    0.116496    0.312989    0.255903    11.00000   -1.20000
AFIX   0
C5    1    0.186495    0.571511    0.334416    11.00000    0.02172    0.00976 =
         0.01541    0.00078   -0.00517    0.00174
AFIX  43
H5    2    0.131552    0.649972    0.324364    11.00000   -1.20000
AFIX   0
C2    1    0.339757    0.348460    0.364539    11.00000    0.01822    0.01126 =
         0.01103    0.00001    0.00292   -0.00272
C1    1    0.428257    0.435751    0.417909    11.00000    0.01558    0.01274 =
         0.00767    0.00096    0.00483   -0.00379
AFIX  43
H1    2    0.546674    0.416940    0.466077    11.00000   -1.20000
AFIX   0
C4    1    0.092349    0.488545    0.276942    11.00000    0.02383    0.01530 =
         0.01069   -0.00328   -0.00801   -0.00325
AFIX  43
H4    2   -0.022576    0.509616    0.228712    11.00000   -1.20000
AFIX   0
HKLF 4




REM  exp_849_a.res in P2(1)2(1)2(1)
REM wR2 = 0.0792, GooF = S = 1.065, Restrained GooF = 1.065 for all data
REM R1 = 0.0315 for 1308 Fo > 4sig(Fo) and 0.0319 for all 1329 data
REM 83 parameters refined using 0 restraints

END

WGHT      0.0507      0.0000

REM Highest difference peak  0.928,  deepest hole -1.173,  1-sigma level  0.239
Q1    1   0.6642  0.6479  0.5857  11.00000  0.05    0.93
Q2    1   1.2764  0.6191  0.6442  11.00000  0.05    0.85
;
_shelx_res_checksum              51754
_shelx_hkl_file
;
   0   0   1   11.42    1.00
   0   0   2 3134.81   64.49
   0   0   3    0.58    0.80
   0   0   4 2499.05   55.32
   0   0   5    3.82    1.59
   0   0   6 2687.05   78.24
   0   0   6 2733.31   63.46
   0   0   7    0.57    2.66
   0   0   7    0.99    1.33
   0   0   8  855.21   29.56
   0   0   8  860.31   38.60
   0   0   9    2.64    2.60
   0   0   9    5.37    2.45
   0   0  10 4912.88  129.59
   0   0  10 4789.95  116.17
   0   0 -11    1.16    2.11
   0   0  11   -0.80    2.30
   0   0 -12 1879.88   64.23
   0   0  12 1801.51   56.19
   0   0  12 1788.27   68.10
   0   0  13    2.60    2.89
   0   0  13    0.51    2.00
   0   0 -13    3.11    3.47
   0   0 -14    9.48    4.98
   0   0  14    6.12    4.12
   0   0  15    0.84    2.52
   0   0  16  601.94   35.77
   0   0  17    2.83    3.33
   0   0  18  132.15   13.71
   0   0  19    0.90    1.77
   0   0  20    4.55    2.12
   0  -1   0    0.71    0.78
   0  -1  -1 1293.38   29.65
   0  -1   1 1323.89   29.44
   0  -1  -2  641.59   16.59
   0  -1   2  587.66   16.51
   0  -1  -3 2168.72   46.29
   0  -1   3 1867.05   48.65
   0  -1  -4 1515.92   36.90
   0  -1   4 1435.85   40.90
   0  -1   5  310.09   16.22
   0  -1  -5  317.34   13.54
   0  -1   6  608.77   26.11
   0  -1  -6  634.11   22.61
   0   1   6  637.93   21.87
   0  -1  -7  187.11   12.14
   0  -1   7  197.86   14.58
   0   1   7  231.10   19.13
   0   1   7  195.59   11.49
   0  -1  -8 1416.41   44.09
   0  -1   8 1393.33   47.96
   0   1   8 1431.31   41.88
   0  -1   9   15.62    4.74
   0  -1  -9   17.39    4.47
   0   1   9   23.21    4.65
   0   1   9   21.17    6.72
   0  -1 -10  537.94   26.99
   0  -1  10  541.90   29.56
   0   1  10  621.93   35.01
   0   1  10  609.43   27.81
   0   1  11 2035.04   73.52
   0   1  11 2253.27   66.07
   0  -1 -11 2049.92   65.38
   0   1  11 2092.83   60.18
   0  -1  11 1980.33   67.84
   0  -1  11 1981.30   58.90
   0  -1  12   91.82   12.51
   0   1  12   73.52    9.30
   0  -1 -12   80.26   11.46
   0   1  12   92.28   11.70
   0   1  12   80.72   13.11
   0   1 -13 2192.57   76.10
   0  -1 -13 2141.05   73.76
   0  -1  13 2125.10   73.16
   0   1  13 2247.11   81.21
   0   1  13 2120.50   65.52
   0   1  14  127.06   17.09
   0  -1 -14  154.80   18.24
   0   1  14  153.44   14.37
   0   1 -14  158.33   18.40
   0  -1  14  163.30   17.21
   0   1 -15    8.26    5.12
   0   1  15    4.59    3.87
   0   1  16   15.24    6.10
   0   1  17  692.87   36.30
   0   1  18  116.70   12.73
   0   1  19  170.00   13.54
   0  -1  20  328.80   16.20
   0   1  20  342.67   16.40
   0  -2   0 1236.10   31.34
   0  -2   1  558.65   17.22
   0  -2   2  737.31   21.87
   0  -2  -2  747.93   21.92
   0  -2   3 1157.46   26.11
   0  -2  -3 1124.77   30.88
   0  -2  -4  126.56    8.25
   0  -2   4  139.17    7.05
   0  -2  -5  720.85   24.17
   0  -2   5  723.33   22.60
   0  -2   6   69.86    6.45
   0  -2  -6   67.68    6.88
   0  -2  -7  706.39   27.13
   0  -2   7  716.11   25.93
   0   2   8 1062.25   36.32
   0  -2  -8 1045.50   36.95
   0  -2   8 1035.07   35.20
   0   2   9 3409.71   85.29
   0  -2   9 3158.21   83.09
   0  -2  -9 3184.52   85.68
   0  -2  10  421.41   22.65
   0   2  10  435.37   23.59
   0   2  10  465.85   30.36
   0  -2 -10  417.39   24.14
   0  -2  11 1154.69   42.71
   0   2  11 1206.99   45.20
   0  -2 -11 1109.99   45.64
   0   2  11 1132.23   40.17
   0   2  11 1146.88   52.12
   0   2  12   22.86    6.19
   0   2  12   21.23    7.11
   0   2  12   14.06    4.38
   0  -2  12   14.46    4.53
   0  -2 -12   26.14    6.81
   0  -2 -13   96.48   13.29
   0   2  13   81.34   13.75
   0   2  13   66.55   10.71
   0   2  13   74.85    9.87
   0   2 -14   73.76   12.68
   0  -2 -14   58.77   11.04
   0   2  14   58.08   11.87
   0   2  14   63.53    9.31
   0   2 -15 1235.48   55.79
   0   2  15 1293.95   57.85
   0   2  15 1158.71   44.50
   0   2  16  104.78   14.34
   0  -2  16  116.08   15.31
   0   2  17    7.36    3.99
   0  -2  17    4.82    3.70
   0  -2  18   68.07    9.60
   0   2  18   65.79    9.39
   0  -2  19 1414.20   45.25
   0   2  19 1382.78   44.60
   0  -2  20    9.78    2.59
   0   2  20   13.44    3.11
   0   2  20    9.92    2.50
   0  -3   0    0.42    1.56
   0  -3  -1 2196.06   52.37
   0   3  -1 2046.28   43.61
   0  -3   1 2195.66   52.14
   0  -3   2 5099.96  111.46
   0  -3  -3  351.30   15.67
   0  -3  -4 1771.80   47.51
   0  -3  -5 2787.29   69.28
   0  -3   6 1688.63   40.25
   0  -3  -6 1620.00   48.20
   0  -3  -7  397.26   20.87
   0  -3   7  408.06   15.99
   0  -3  -8 4537.33  113.77
   0  -3   8 4503.46  103.14
   0   3   9  217.14   20.16
   0  -3  -9  197.73   16.16
   0   3   9  216.57   16.14
   0  -3   9  209.30   12.56
   0   3  10  625.85   30.09
   0  -3 -10  614.35   31.31
   0   3  11  923.30   39.03
   0  -3 -11  874.56   40.05
   0   3  11  850.49   34.05
   0  -3 -12  176.50   17.53
   0   3  12  173.10   14.45
   0   3  12  185.43   17.18
   0   3  13   43.78   10.31
   0   3  13   62.07    9.10
   0   3  13   56.02   10.18
   0  -3 -13   50.94   10.10
   0   3  14  221.22   20.02
   0   3  14  195.75   21.78
   0   3  14  206.33   16.71
   0  -3  15  308.97   25.60
   0   3  15  273.91   19.06
   0   3  15  283.99   24.17
   0   3  16  196.58   18.82
   0  -3  16  220.68   20.27
   0   3  16  195.50   15.20
   0   3  17  172.21   15.91
   0  -3  17  174.78   16.38
   0  -3  18  415.71   22.98
   0   3  18  379.76   21.70
   0  -3  19   25.79    4.79
   0   3  19   22.77    4.41
   0  -4   0 4531.35  104.37
   0   4   0 4641.82  100.62
   0  -4  -1  284.03   14.87
   0  -4   1  292.35   14.66
   0  -4   2 1405.71   42.08
   0  -4   3  915.42   31.47
   0  -4  -4  494.64   22.23
   0  -4  -5   12.33    3.71
   0  -4  -6 1127.13   40.49
   0   4   6 1488.83   53.05
   0   4   7  252.61   21.06
   0  -4  -7  203.69   15.47
   0  -4  -8  166.82   14.64
   0   4   8  199.92   19.11
   0   4   9  226.49   21.47
   0  -4  -9  190.52   16.75
   0   4  10 1165.06   45.24
   0  -4 -10 1117.03   46.24
   0   4  10 1195.20   53.90
   0   4  10 1115.57   39.94
   0  -4 -11 1158.28   48.16
   0   4  11 1158.91   54.36
   0   4  11 1085.80   40.48
   0   4  11 1129.32   45.93
   0  -4 -12 1687.40   63.04
   0   4  12 1739.75   55.38
   0   4  12 1824.25   71.98
   0   4  12 1622.61   60.12
   0   4  13  138.93   15.46
   0  -4 -13  123.81   15.32
   0   4  14  163.61   17.60
   0   4  14  166.42   15.18
   0   4  14  162.67   17.26
   0  -4  14  176.39   18.42
   0   4  15   15.26    5.38
   0   4  15   12.35    4.35
   0  -4  15   14.32    5.45
   0   4  16  495.95   24.60
   0   4  16  486.85   27.96
   0  -4  16  504.69   28.79
   0  -4  17   36.65    7.09
   0   4  17   34.64    6.67
   0   4  18  755.64   31.55
   0   4  18  669.22   27.37
   0   4  19  313.52   15.99
   0  -5   0    1.40    2.09
   0   5   0    1.79    1.31
   0  -5   1 2041.83   58.21
   0  -5  -1 2003.56   58.25
   0  -5   2   42.03    6.62
   0   5   2   41.57    5.99
   0  -5  -2   38.93    6.23
   0  -5  -3  936.25   35.65
   0  -5   3  934.06   35.29
   0   5   4  633.19   29.84
   0   5   5  169.87   15.39
   0   5   6  928.49   41.64
   0   5   7  381.49   26.60
   0  -5  -8   60.31    9.66
   0   5   8   75.92   12.30
   0   5   9  225.04   21.81
   0  -5  -9  219.59   19.20
   0   5   9  211.13   15.48
   0   5  10  610.94   38.20
   0  -5 -10  556.32   32.86
   0   5  10  594.56   27.83
   0  -5 -11 1481.26   59.63
   0   5  11 1647.12   68.55
   0   5  11 1526.51   50.74
   0   5  11 1481.87   56.45
   0   5  12   12.24    4.76
   0   5  12   12.15    4.80
   0   5  12   15.77    6.83
   0  -5  12   14.26    4.98
   0  -5  13  949.81   41.10
   0   5  13  900.26   42.61
   0   5  13  870.50   39.71
   0   5  14 1284.55   47.05
   0   5  14 1159.91   46.02
   0  -5  14 1187.11   46.96
   0   5  14 1238.96   52.02
   0   5  15   14.08    4.67
   0  -5  15   13.03    4.51
   0   5  15   17.52    5.01
   0   5  16  964.25   35.26
   0   5  16  904.70   35.43
   0   5  17  385.97   22.26
   0   5  18    3.48    2.08
   0  -5 -19  174.54   12.60
   0  -6   0 2377.56   67.24
   0   6   1 2425.75   61.44
   0  -6  -1 2551.85   71.03
   0  -6   1 2658.63   72.07
   0  -6  -2  612.99   28.90
   0  -6   2  623.33   29.24
   0   6   2  620.57   25.00
   0   6   3 5733.84  133.99
   0  -6  -3 5676.29  137.22
   0  -6   3 5868.02  138.43
   0   6   4   41.69    7.29
   0  -6  -4   43.13    7.52
   0  -6   5   68.20    9.01
   0   6   5   74.30   10.25
   0   6   6   58.82    9.65
   0  -6   6   48.39    7.59
   0   6   7 2437.71   71.83
   0   6   7 2614.99   82.58
   0   6   8 1067.45   49.57
   0   6   9 1597.51   65.46
   0   6   9 1596.65   52.85
   0   6  10  747.26   32.98
   0   6  10  774.01   44.27
   0   6  11  230.41   24.18
   0   6  11  202.41   18.98
   0   6  12   12.99    6.26
   0   6  12   14.69    5.59
   0   6  13 1014.38   45.74
   0   6  14    3.19    3.00
   0   6  14    3.32    2.74
   0   6  15  446.09   23.61
   0   6  15  462.99   26.33
   0   6  16   13.12    4.20
   0   6  17    4.89    2.33
   0  -6 -18   42.42    6.99
   0  -7   0    0.51    2.15
   0  -7   0    1.10    2.01
   0  -7   1  375.46   22.42
   0  -7   1  396.90   24.31
   0  -7  -1  372.25   22.52
   0  -7  -1  366.09   22.87
   0  -7   2  354.46   22.75
   0  -7  -2  334.78   21.50
   0  -7  -2  332.57   22.12
   0  -7   2  323.06   21.03
   0  -7  -3 1188.70   45.92
   0  -7   3 1225.83   47.31
   0  -7  -3 1205.09   46.92
   0   7   3 1188.17   40.33
   0  -7   3 1189.19   44.95
   0  -7  -4  795.51   37.39
   0  -7   4  856.57   36.95
   0   7   4  898.14   35.44
   0  -7  -4  866.12   37.81
   0  -7  -5 3744.07  104.83
   0  -7  -5 3732.42  104.13
   0  -7   5 3844.51  102.98
   0  -7   6   18.63    5.53
   0   7   6   22.12    6.04
   0  -7  -6   17.35    5.60
   0  -7  -7  915.05   42.76
   0   7   7 1078.67   46.50
   0   7   8  686.31   31.57
   0   7   8  722.82   39.02
   0  -7  -8  604.68   34.77
   0   7   9   68.59    9.87
   0   7   9   51.36    8.39
   0   7   9   40.54    9.53
   0   7  10 1746.65   70.51
   0   7  10 1751.85   61.47
   0   7  11   91.38   13.25
   0   7  11   91.06   15.10
   0   7  11  101.54   12.88
   0   7  12    6.85    3.94
   0   7  12    5.80    3.46
   0   7  13   37.93    7.53
   0   7  14 1041.86   40.31
   0   7  14 1032.97   40.41
   0   7  15  233.90   15.68
   0   7  15  204.70   14.34
   0  -7 -16  276.57   19.58
   0   7  16  212.87   13.13
   0  -7 -17  134.13   11.91
   0  -8   0   48.56    9.01
   0  -8   0   38.17    8.23
   0  -8   1  131.33   14.76
   0  -8  -1  127.42   14.35
   0  -8   1  105.69   13.05
   0  -8  -1  136.28   14.80
   0  -8   2   38.27    8.04
   0  -8  -2   43.48    8.66
   0  -8   2   34.32    7.76
   0  -8  -2   34.35    7.66
   0  -8  -3   71.22   10.70
   0  -8  -3   72.99   11.02
   0  -8   3   71.44   10.57
   0  -8  -4   80.45   11.41
   0  -8  -4   80.42   11.70
   0  -8   4   82.65   11.46
   0  -8   5   84.24   11.54
   0  -8  -5   68.07   10.55
   0  -8  -5   81.90   11.81
   0  -8  -6 1477.19   55.63
   0  -8  -6 1475.28   57.03
   0  -8   6 1478.73   54.73
   0   8   7  264.32   21.42
   0  -8  -7  228.28   19.63
   0  -8  -7  208.36   19.62
   0  -8  -8 1437.97   58.64
   0  -8  -8 1443.28   56.60
   0   8   8 1457.48   58.50
   0  -8  -9   53.65   10.74
   0  -8  -9   64.54   11.30
   0   8   9   64.07   11.42
   0   8  10   20.34    6.94
   0  -8 -10   28.48    7.84
   0  -8 -10   28.28    7.82
   0  -8 -11    9.74    5.28
   0  -8 -12  775.62   40.47
   0  -8 -13   30.36    7.90
   0   8  14  286.93   17.52
   0  -8 -14  240.61   19.39
   0   8  15   29.76    4.62
   0  -8 -15   34.42    6.98
   0  -8 -16  753.05   30.24
   0  -9   0    0.79    3.13
   0  -9   0   25.62    7.10
   0  -9   1 1923.78   67.96
   0  -9  -1 1916.32   68.22
   0  -9  -1 1910.86   69.74
   0  -9   1 1887.08   68.59
   0  -9  -2  809.14   40.18
   0  -9  -2  750.12   39.60
   0  -9   2  820.52   40.09
   0  -9   2  783.64   40.32
   0  -9  -3  273.01   22.28
   0  -9   3  292.75   22.63
   0  -9  -3  245.27   20.96
   0  -9  -4  648.95   34.86
   0  -9  -4  660.92   35.80
   0  -9   4  678.41   35.55
   0  -9   5 3595.05  101.19
   0  -9  -5 3419.22  100.28
   0  -9  -5 3506.28  102.86
   0  -9  -6   30.85    7.78
   0  -9  -6   15.66    6.19
   0  -9  -7  547.66   33.08
   0  -9  -7  508.40   30.68
   0  -9  -8   94.24   13.79
   0  -9  -8   78.71   11.95
   0  -9  -9  567.57   32.79
   0  -9 -10  125.92   15.20
   0  -9 -11  875.52   41.47
   0  -9 -12  155.90   15.72
   0  -9 -13    9.52    4.42
   0   9  14  632.31   24.01
   0  -9 -14  691.09   30.01
   0  -9 -15  318.87   17.64
   0 -10   0   34.06    8.61
   0 -10   0   35.84    8.70
   0 -10  -1  954.67   46.99
   0 -10  -1  998.29   47.59
   0 -10   1  957.92   46.26
   0 -10   1  984.02   47.37
   0 -10  -2   27.77    8.05
   0 -10  -2   26.08    7.92
   0 -10   2   21.64    7.21
   0 -10  -3 1867.77   69.66
   0 -10   3 1917.35   68.57
   0 -10  -3 1905.50   68.67
   0 -10  -4  114.59   14.63
   0 -10  -4  111.73   14.71
   0 -10   4  110.76   14.11
   0 -10  -5  216.47   19.35
   0 -10   5  207.56   18.92
   0 -10  -5  192.26   19.06
   0 -10  -6   16.46    5.81
   0 -10  -6   23.93    6.85
   0 -10  -7  419.21   27.11
   0 -10  -8  140.29   15.47
   0 -10  -9  576.17   32.05
   0 -10 -10   12.79    5.23
   0 -10 -11   74.21   10.59
   0 -10 -12  252.38   18.02
   0 -10 -13  870.39   33.76
   0 -10 -14  104.85    9.32
   0 -11   0   -0.78    4.04
   0 -11  -1   31.86    8.29
   0 -11   1   18.59    6.65
   0 -11  -2  111.95   14.52
   0 -11   2  114.12   14.82
   0 -11   3    6.54    4.59
   0 -11  -3    2.92    3.27
   0 -11  -4  417.01   27.41
   0 -11   4  424.34   27.36
   0 -11  -5  272.91   21.52
   0 -11  -6  160.64   16.07
   0 -11  -7  556.01   30.36
   0 -11  -8  115.25   13.19
   0 -11  -9  276.04   19.89
   0 -11 -10  352.79   21.74
   0 -11 -11   90.48   10.11
   0 -11 -12   18.61    4.28
   0 -11 -13  240.63   13.14
   0 -12   0  851.42   39.57
   0 -12   1  287.73   21.60
   0 -12  -1  271.95   20.90
   0 -12   2   33.55    7.74
   0 -12  -2   20.55    6.52
   0 -12  -3  724.13   35.03
   0 -12   3  764.65   35.71
   0 -12  -4 1325.99   49.64
   0 -12  -5    9.56    4.44
   0 -12  -6 1986.17   62.77
   0 -12  -7  423.72   24.13
   0 -12  -8  173.95   14.68
   0 -12  -9   25.18    5.19
   0 -12 -10  393.42   19.69
   0 -12 -11  256.59   13.77
   0 -13   0    0.46    2.54
   0 -13   1  111.47   11.17
   0 -13  -1  117.72   11.52
   0 -13  -2 1057.21   39.00
   0 -13  -3  169.40   13.61
   0 -13  -4  274.99   17.28
   0 -13  -5 1028.31   36.72
   0 -13  -6  268.08   16.22
   0 -13  -7  755.76   28.52
   0 -13  -8  347.33   16.77
   0 -14  -1   10.81    3.10
   0 -14  -2   66.61    6.77
   0 -14  -3  164.54   10.37
   0 -14  -4   92.67    7.58
   0 -14  -5  284.33   13.10
   1   0   0    3.08    1.16
   1   0   0    1.47    0.59
   1   0  -1 2259.21   49.58
   1   0   2 3732.00   76.53
  -1   0   2 3798.14   76.59
  -1   0   3 9999.00  198.02
   1   0   3 9800.11  197.95
   1   0   4  756.00   21.50
  -1   0   4  718.19   21.21
   1   0   5  218.33   10.72
  -1   0   5  206.58   10.49
  -1   0   6   46.02    5.17
   1   0   6   54.60    5.56
   1   0   7 2714.33   66.79
  -1   0   7 2708.88   66.88
  -1   0   8  895.95   30.78
  -1   0  -8  833.49   27.51
   1   0   8  873.28   30.41
  -1   0  -9  731.74   26.80
   1   0  -9  774.56   33.39
   1   0   9  784.62   48.27
   1   0 -10   55.49    9.03
   1   0  10   47.46    7.28
   1   0  10   52.32    7.50
   1   0  10   48.15   12.04
   1   0 -11  563.25   32.05
   1   0  11  612.96   29.66
   1   0  12  311.79   29.02
   1   0  12  285.84   20.27
  -1   0  12  277.91   23.50
   1   0 -12  256.50   22.26
   1   0 -13 1969.15   74.09
   1   0  13 1975.12   66.49
  -1   0  13 1980.05   73.59
   1   0  13 2075.11   79.78
  -1   0  14  635.21   37.29
   1   0 -14  714.70   42.33
   1   0  14  727.98   42.27
   1   0  14  692.28   35.85
   1   0  15  602.85   37.09
   1   0  16  186.88   18.70
   1   0  17   67.07   10.42
   1   0  18   15.98    4.84
   1   0  19   53.67    7.23
  -1   0  19   60.46    7.80
  -1   1  19   63.39    7.88
   1   1 -14 1424.11   63.29
  -1   1  14 1534.42   63.17
   1   1 -13  297.99   25.61
  -1   1  13  372.82   28.53
  -1   1  12   86.22   13.48
   1  -1  12  109.60   12.34
   1   1 -12   88.99   13.10
  -1   1  11  287.76   19.48
   1  -1  11  329.55   30.97
   1  -1  11  295.51   19.53
   1  -1  10  637.03   43.88
  -1   1  10  588.66   27.14
  -1   1   9  275.62   16.86
  -1  -1  -9  248.39   15.04
  -1   1   8   68.32    7.36
  -1  -1  -8   60.68    6.57
  -1  -1  -7 1039.00   30.43
  -1   1   7  998.08   31.68
  -1   1   6 1418.07   38.18
  -1  -1  -6 1408.23   36.25
  -1  -1  -5 1660.55   39.67
  -1   1   5 1831.53   43.52
  -1   1   4  852.83   23.54
  -1  -1  -4  825.02   20.26
   1  -1   1  464.10   13.09
   1  -1   0   33.38    3.43
   1  -1   0   35.44    3.07
   1  -1  -1  428.75   15.27
   1  -1  -2  192.45    9.59
   1  -1  -3 1115.04   31.40
   1   1   4  798.30   22.63
   1   1   5 1721.52   57.73
   1   1   5 1707.09   42.69
   1   1   6 1665.80   43.20
   1  -1  -7  835.80   32.62
   1   1   7  842.87   27.87
   1   1   8  169.54   19.16
   1   1   8  140.28   10.73
   1  -1  -8  141.53   12.81
   1  -1  -9  283.74   19.57
   1   1   9  306.17   27.02
   1   1   9  267.40   16.70
   1   1   9  289.00   26.28
   1   1  10  670.47   41.66
   1   1  10  628.39   29.01
   1   1  10  605.46   28.16
   1   1  10  608.69   39.63
   1   1  10  624.45   29.09
   1  -1 -10  617.76   32.13
   1  -1 -11  257.83   21.00
  -1  -1  11  277.35   22.32
   1   1  11  237.78   17.89
   1   1  11  250.36   18.31
   1   1  11  269.20   26.24
   1   1  11  263.40   25.37
   1   1  11  244.81   18.39
   1  -1 -12  102.96   14.11
   1   1  12  105.83   12.44
   1   1  12   87.36   14.46
  -1  -1  12   95.61   13.38
  -1  -1  13  437.81   29.00
   1  -1 -13  477.45   33.03
   1   1  13  507.26   34.50
   1   1  13  507.56   29.27
   1  -1 -14 1402.67   63.22
   1   1  14 1385.48   53.84
   1   1  14 1297.16   58.86
   1   1  15  546.22   30.93
   1   1  15  489.77   32.57
   1   1  16 1090.32   48.55
   1   1  17  202.46   17.95
   1   1  18  113.32   12.11
  -1  -1  19   63.25    7.87
   1   1  19   58.16    7.61
  -1   2  19  200.57   13.09
  -1   2  18 1097.53   41.17
   1  -2  17  512.72   29.76
   1  -2  16  758.37   40.46
   1  -2  15   48.66   10.62
  -1   2  14   90.74   14.54
   1   2 -14   93.12   14.85
   1  -2  14  104.89   15.71
   1   2 -13  212.81   21.75
  -1   2  13  233.92   23.17
   1  -2  12 1049.08   55.62
  -1   2  12 1141.02   53.67
  -1   2  12 1089.62   44.75
  -1   2  11  841.53   37.61
   1  -2  11  969.34   52.28
  -1   2  10   21.75    5.36
   1  -2  10   21.59    8.26
   1  -2   9  101.52   10.23
  -1   2   9  111.54   10.52
   1  -2   9  113.56   16.43
  -1   2   8 1671.73   49.23
  -1  -2  -8 1682.84   47.83
  -1  -2  -7 1274.96   37.12
  -1   2   7 1292.96   39.31
  -1  -2  -6 2364.03   57.22
  -1  -2  -2   10.35    1.89
   1  -2   2    4.41    1.65
   1  -2   1  821.46   22.54
  -1  -2  -1  747.08   19.34
   1  -2   0  114.34    7.08
   1  -2  -1  639.20   22.37
   1  -2  -2   15.83    3.43
   1  -2  -3  462.79   19.11
   1   2   4 1055.33   42.03
   1   2   5  844.50   41.57
   1   2   6 2308.15   83.46
   1  -2  -6 2366.32   64.77
   1  -2  -7 1268.93   44.07
   1   2   7 1313.18   61.59
   1   2   7 1277.13   39.33
   1  -2  -8 1667.79   55.26
   1   2   8 1722.31   74.25
   1   2   8 1631.45   48.89
   1   2   9   90.96   13.12
   1  -2  -9  100.35   12.12
   1   2   9   95.92    9.85
   1  -2 -10  131.95   14.61
   1   2  10  136.64   12.82
   1   2  10  118.72   15.39
   1   2  10  120.45   12.18
  -1  -2  10  116.89   12.71
   1   2  11  569.46   28.87
   1   2  11  601.41   30.85
   1  -2 -11  586.34   34.03
   1   2  11  572.74   30.37
   1   2  11  593.60   41.77
   1   2  11  559.87   35.15
  -1  -2  11  518.45   28.94
   1  -2 -12 1102.90   51.64
   1   2  12 1158.59   46.90
   1   2  12 1082.25   51.64
   1   2  12 1096.27   44.10
   1   2  12 1152.80   46.47
   1  -2 -13  207.69   21.90
   1   2  13  159.91   16.12
   1   2  13  192.47   20.21
   1   2  13  185.09   16.60
   1  -2 -14   87.50   14.94
   1   2  14  100.76   12.77
   1   2  14   75.16   12.53
   1   2  15   16.79    5.54
   1   2  15   18.58    6.49
   1   2  16  692.70   37.21
   1   2  16  739.28   35.10
   1   2  17  492.90   28.48
  -1  -2  18 1027.52   40.21
  -1  -2  19  273.73   15.59
  -1   3  19   51.26    5.66
  -1   3  18  109.58   10.49
   1  -3  17  277.12   20.50
   1  -3  16  178.69   17.94
   1  -3  15  603.67   36.21
   1   3 -14  166.01   19.84
  -1   3  14  199.11   21.74
   1  -3  14  204.09   20.77
   1  -3  13  452.18   32.20
  -1   3  13  380.75   25.95
  -1   3  13  396.86   31.62
  -1   3  12  255.39   20.61
   1  -3  12  274.41   24.82
  -1   3  12  292.90   26.63
  -1   3  11  417.00   25.02
   1  -3  11  437.06   30.80
  -1   3  10  172.68   14.83
   1  -3  10  181.76   18.97
  -1   3   9  393.58   22.18
   1  -3   9  463.55   29.57
  -1   3   8 1430.47   46.54
   1  -3   3 2396.62   58.71
   1  -3   2 1674.05   45.54
  -1  -3  -2 1790.62   44.28
   1  -3   1 1200.65   33.78
  -1  -3  -1 1164.10   31.16
  -1  -3   0  297.89   12.38
   1  -3   0  330.82   14.82
   1  -3  -1 1141.30   34.53
   1  -3  -2 1946.17   53.69
   1   3   4 1852.20   64.76
   1   3   5 5802.32  155.32
   1   3   6 1561.08   68.80
   1  -3  -6 1741.04   53.40
   1  -3  -7 1794.87   55.46
   1   3   7 1253.11   65.88
   1  -3  -8 1364.03   50.55
   1   3   8 1346.55   44.93
   1   3   8 1294.94   66.46
   1  -3  -9  392.08   25.85
   1   3   9  485.65   38.34
   1   3   9  436.51   23.28
   1   3   9  358.11   23.82
  -1  -3   9  323.07   18.16
   1   3   9  393.79   22.23
   1   3  10  241.41   26.56
   1  -3 -10  191.69   18.95
   1   3  10  227.88   17.21
   1   3  10  219.77   16.97
   1   3  10  209.20   18.67
   1  -3 -11  438.00   30.22
   1   3  11  423.44   28.35
   1   3  11  438.93   25.16
   1   3  11  453.27   26.55
   1   3  12  313.40   21.52
   1   3  12  322.42   23.48
   1  -3 -12  296.35   25.61
   1   3  12  301.24   24.39
   1   3  13  201.15   20.09
   1   3  13  210.57   19.11
   1  -3 -13  215.00   22.55
   1   3  13  252.49   20.39
   1   3  13  223.10   18.23
   1   3  14  287.06   21.74
   1  -3 -14  295.59   26.86
   1   3  14  290.33   24.15
   1   3  15  421.52   28.57
   1   3  15  439.61   26.59
   1   3  16  268.15   19.28
   1   3  16  254.78   20.74
   1   3  17  232.70   18.23
   1   3  17  220.22   19.00
  -1  -3  18  135.01   11.85
   1   3  18  137.99   13.07
  -1  -3  19   42.69    5.33
   1   3  19   45.91    6.14
  -1   4  18  161.79   11.06
  -1   4  18  124.82    9.63
  -1   4  17   67.30    8.70
   1  -4  16  331.48   22.46
   1  -4  15  999.35   44.51
   1  -4  14  330.61   24.76
  -1   4  14  325.26   23.97
   1  -4  13  589.15   34.60
  -1   4  13  653.10   35.41
  -1   4  12   69.08   10.61
   1  -4  12   65.01   10.82
   1  -4  11   85.37   12.29
  -1   4  11   78.55   10.82
  -1   4  10  683.36   33.05
   1  -4  10  683.12   35.27
  -1   4   9 1197.00   45.32
   1  -4   9 1288.21   49.04
   1  -4   8 1233.51   46.69
  -1  -4  -3 1687.95   47.92
   1  -4   3 1706.99   48.42
   1  -4   2 1807.72   51.20
  -1  -4  -2 1877.79   50.27
   1  -4   1  605.52   23.81
  -1  -4  -1  631.39   22.96
  -1  -4   0 2722.03   66.69
   1  -4   0 2715.67   68.93
  -1  -4   1  698.94   25.12
   1  -4  -1  809.94   29.10
   1   4   4  427.53   27.33
   1   4   5  543.66   34.69
   1  -4  -5  574.51   26.92
   1  -4  -6   82.17   10.01
   1   4   6   74.78   13.36
   1   4   7  473.37   35.76
   1  -4  -7  421.84   24.87
   1  -4  -8 1565.77   56.16
   1   4   8 1709.82   73.56
   1   4   9 1016.83   55.74
   1  -4  -9  972.90   44.30
   1   4   9  986.91   39.49
   1   4   9  934.79   38.36
   1   4   9  867.03   37.46
   1  -4 -10  914.87   44.76
   1   4  10  936.55   38.71
   1   4  10 1010.00   55.68
   1   4  10  903.99   38.90
   1   4  11   60.78   13.54
   1   4  11   56.28    8.96
   1  -4 -11   49.19   10.42
   1   4  11   53.32    9.20
   1   4  11   50.68    8.79
   1   4  12   50.71    8.69
   1   4  12   58.85   10.01
   1   4  12   57.65   12.99
   1  -4 -12   56.61   11.60
   1   4  12   55.47    9.82
   1  -4 -13  670.33   40.63
   1   4  13  630.71   34.91
   1   4  13  639.09   33.85
   1   4  13  637.75   34.84
   1   4  13  620.29   31.85
   1   4  14  389.83   25.23
   1   4  14  372.24   25.97
   1   4  14  423.85   25.20
   1   4  14  399.61   26.38
   1   4  15 1022.09   42.79
   1   4  15 1035.40   44.68
   1   4  16  287.66   20.35
   1   4  16  298.07   19.88
   1   4  16  278.28   21.62
  -1  -4  17   74.72    9.42
   1   4  17   78.49    9.29
   1   4  17   78.58   10.28
   1   4  18  244.39   16.07
   1   4  19  203.18   11.61
  -1  -5 -18   73.91    8.77
  -1   5  16  448.02   23.00
   1  -5  14  912.11   39.15
  -1   5  13 1286.01   52.57
   1  -5  13 1222.54   48.51
  -1   5  12  485.09   35.76
  -1   5  12  468.79   28.70
   1  -5  12  425.30   26.29
  -1   5  11  611.96   33.16
   1  -5  11  621.30   32.23
  -1   5  10  390.22   25.32
   1  -5  10  388.35   24.10
   1  -5   9  353.52   22.01
  -1  -5  -5  567.07   26.11
  -1  -5  -4  770.58   30.85
  -1  -5  -3 1208.27   40.45
   1  -5   3 1198.86   40.90
  -1  -5  -2  821.68   30.96
   1  -5   2  806.18   32.13
   1  -5   1  224.81   14.90
  -1  -5  -1  243.41   15.17
  -1  -5   0  239.05   15.20
   1  -5   0  253.57   15.88
   1  -5  -1  178.84   13.86
  -1  -5   1  180.53   12.70
   1  -5  -2  965.25   37.51
   1  -5  -3  936.47   37.57
   1   5   5  441.71   28.63
   1  -5  -5  362.77   22.95
   1   5   6  237.68   22.13
   1  -5  -6  202.40   17.23
   1   5   6  215.54   16.81
   1   5   7  224.65   22.69
   1  -5  -7  197.51   17.61
   1   5   7  208.41   17.25
   1   5   8  302.73   27.23
   1  -5  -8  274.23   21.98
   1   5   8  282.03   21.23
   1   5   9  277.69   26.90
   1  -5  -9  220.70   20.82
   1   5   9  259.77   19.26
   1  -5 -10  362.41   28.04
   1   5  10  368.15   31.57
   1   5  10  378.40   24.00
   1   5  10  371.66   24.38
   1  -5 -11  688.35   40.22
   1   5  11  641.93   42.65
   1   5  11  643.13   31.87
   1   5  11  636.20   33.24
   1   5  11  699.46   34.07
   1   5  12  445.35   26.58
   1  -5 -12  417.87   31.84
   1   5  12  409.78   26.35
   1   5  12  403.12   24.98
   1   5  13 1230.11   47.54
   1   5  13 1118.84   45.50
   1  -5 -13 1236.18   58.03
   1   5  13 1184.32   49.39
   1   5  13 1267.68   52.85
   1   5  14  950.22   41.67
   1   5  14  963.71   40.15
   1   5  14 1007.64   41.12
   1   5  14  998.03   45.28
   1   5  15  242.95   18.41
   1   5  15  250.20   20.08
   1   5  16  561.49   27.17
   1   5  16  544.05   28.62
   1   5  17  456.69   23.52
   1   5  17  499.48   22.95
   1   5  18  120.66    9.73
   1  -5 -18  126.86   10.54
  -1  -6 -17  214.91   15.36
  -1   6  12  459.71   29.06
  -1   6  12  541.97   37.72
  -1   6  11  926.42   43.90
  -1   6  11 1041.86   53.77
  -1   6  10 1494.20   57.74
  -1   6  10 1584.28   68.75
  -1  -6  -9  248.99   20.64
  -1  -6  -8   95.97   12.30
  -1  -6  -7  300.10   20.85
  -1  -6  -6 1915.57   61.31
  -1  -6  -5  731.02   32.89
  -1  -6  -5  728.43   32.19
  -1  -6  -4 1776.68   55.98
  -1  -6  -4 1723.47   55.79
   1  -6   4 1686.89   52.87
  -1  -6  -3  579.55   27.64
   1  -6   3  604.39   28.92
  -1  -6  -2  769.61   32.56
   1  -6   2  789.46   34.04
   1  -6   1 1255.60   45.44
  -1  -6  -1 1365.73   46.53
   1  -6   0 4584.20  116.23
  -1  -6   0 4871.39  117.74
  -1  -6   1 1323.44   45.36
   1  -6  -1 1263.23   46.45
   1  -6  -2  850.83   37.31
   1  -6  -3  616.58   31.54
   1   6   3  610.40   27.96
   1   6   4 1867.72   57.34
   1  -6  -4 1758.84   57.84
  -1  -6   4 1794.61   56.65
   1   6   5  681.26   31.33
   1   6   5  672.29   31.28
   1  -6  -5  682.76   32.17
  -1  -6   5  640.30   29.55
   1   6   6 1997.15   64.40
   1   6   6 2123.93   72.30
   1   6   7  278.86   23.80
   1   6   7  293.57   21.04
   1   6   8  140.29   17.58
   1   6   8  134.48   14.82
   1   6   9  202.11   21.83
   1   6   9  227.28   18.59
   1   6   9  211.68   19.29
   1   6  10 1534.86   57.27
   1   6  10 1586.52   57.40
   1   6  10 1632.53   61.79
   1   6  11  738.44   37.09
   1   6  11  791.38   37.50
   1   6  11  787.18   40.37
   1   6  12  628.78   31.91
   1   6  12  579.12   33.17
   1   6  13  271.60   20.18
   1   6  13  259.66   21.04
   1   6  14   65.85    9.89
   1   6  14   63.17    9.07
   1   6  14   67.28    9.98
   1   6  15   59.15    8.76
   1   6  15   47.78    7.79
   1   6  16  262.47   16.90
   1   6  16  259.73   16.54
   1   6  17  201.62   13.21
   1   6  17  227.90   13.38
  -1  -7 -16  148.22   12.28
  -1  -7 -15   84.75   10.35
  -1  -7 -14    9.27    4.88
  -1   7  11  468.99   30.03
  -1   7  11  520.22   35.53
  -1   7  10  288.94   26.08
  -1   7   9  217.21   21.86
  -1  -7  -8 1528.92   57.29
  -1  -7  -8 1517.99   58.31
  -1  -7  -7 1374.98   52.45
  -1  -7  -7 1391.91   53.58
  -1  -7  -6  936.87   40.32
  -1  -7  -6  892.17   39.96
  -1  -7  -5  378.43   23.84
  -1  -7  -5  356.05   23.16
   1  -7   5  343.34   21.25
  -1  -7  -4  533.21   28.31
  -1  -7  -4  508.41   27.70
   1  -7   4  523.92   26.97
  -1  -7  -3  238.61   18.19
   1  -7   3  231.72   18.64
  -1  -7  -3  258.05   18.78
   1  -7   3  233.05   17.38
   1  -7   2 1501.33   54.39
  -1  -7  -2 1505.52   53.39
   1  -7   2 1502.41   51.45
  -1  -7  -2 1435.98   51.15
   1  -7   1  271.59   20.24
  -1  -7  -1  293.84   20.96
   1  -7   1  247.34   18.25
  -1  -7  -1  231.03   17.75
   1  -7   0  174.56   15.99
  -1  -7   0  167.55   15.51
  -1  -7   0  168.00   15.04
   1  -7   0  173.64   15.17
   1  -7  -1  174.24   16.50
  -1  -7   1  181.91   16.17
   1  -7  -1  168.88   15.18
  -1  -7   1  192.36   16.35
   1  -7  -2 1607.32   58.74
   1  -7  -2 1507.64   53.73
  -1  -7   2 1648.45   55.71
   1   7   2 1632.40   53.92
   1  -7  -3  236.36   18.52
   1   7   3  284.60   19.55
  -1  -7   3  282.41   19.91
   1  -7  -4  579.57   30.27
   1   7   4  615.91   30.02
  -1  -7   4  601.03   30.48
   1  -7  -5  316.65   21.87
   1   7   5  331.49   21.37
  -1  -7   5  334.95   21.80
   1   7   6 1131.19   44.51
   1  -7  -6 1123.23   45.48
   1   7   7 1505.83   53.88
   1  -7  -7 1367.88   53.49
   1   7   8 1452.46   54.96
   1  -7  -8 1405.39   55.41
   1   7   9  268.56   21.73
   1   7  10  263.06   21.63
   1   7  10  216.48   18.84
   1   7  11  540.54   31.58
   1   7  11  563.12   30.64
   1   7  11  496.31   29.61
   1   7  12  394.25   25.96
   1   7  12  413.27   25.09
   1   7  13  580.48   28.55
   1   7  13  518.62   28.67
   1   7  14   10.99    3.95
   1   7  14   18.10    4.71
   1   7  14   10.08    4.04
   1  -7 -14   20.07    6.09
   1   7  15   42.63    6.78
   1   7  15   50.43    7.35
   1  -7 -15   41.58    7.36
   1  -7 -16  251.25   15.62
   1   7  16  227.07   13.80
   1   7  16  256.20   14.78
   1   7  17  543.58   19.12
  -1  -8 -16  101.18    8.50
  -1  -8 -15  571.14   24.96
  -1  -8 -14  216.45   16.14
  -1  -8 -13   77.23   10.79
  -1  -8 -12   46.73    9.04
  -1  -8 -11 1051.77   46.68
  -1  -8 -10  229.68   20.53
  -1  -8  -9 1112.40   48.79
  -1   8   9 1095.70   50.48
  -1  -8  -8  383.19   26.77
  -1   8   8  415.53   28.53
  -1  -8  -7   60.16   10.10
  -1   8   7   56.97   10.32
  -1  -8  -6  232.44   19.44
  -1  -8  -6  232.75   19.39
  -1   8   6  258.96   21.06
  -1  -8  -5  233.08   19.10
  -1  -8  -5  238.23   19.31
   1  -8   5  192.07   16.74
  -1  -8  -4  746.83   36.12
  -1  -8  -4  693.26   34.83
   1  -8   4  739.62   34.78
  -1  -8  -3  135.52   14.83
   1  -8   3  142.95   15.66
  -1  -8  -3  132.74   14.36
   1  -8   3  140.07   14.47
  -1  -8  -2  258.42   21.04
   1  -8   2  273.46   21.74
   1   8  -2  265.15   19.02
  -1  -8  -2  253.01   19.91
   1  -8   2  229.73   18.99
   1  -8   1   17.90    6.10
  -1  -8  -1   13.01    5.11
   1   8  -1   13.06    4.52
  -1  -8  -1   16.41    5.57
   1  -8   1   13.24    5.16
   1   8   0    8.17    3.45
   1  -8   0    2.99    3.34
  -1  -8   0   10.93    4.89
   1  -8   0   18.81    6.27
   1  -8  -1   23.67    6.81
   1   8   1   23.97    5.89
   1  -8  -1   22.04    6.64
  -1  -8   1   18.51    6.11
   1   8   2  183.18   15.86
   1  -8  -2  154.26   15.86
  -1  -8   2  148.45   15.31
   1   8   3  301.26   20.81
   1  -8  -3  325.36   23.09
  -1  -8   3  350.23   23.60
   1   8   4  574.57   29.55
   1  -8  -4  531.19   30.19
  -1  -8   4  560.75   30.64
   1  -8  -5  259.10   20.35
  -1  -8   5  278.35   20.74
   1  -8  -6  272.89   21.06
   1   8   7   19.90    5.62
   1  -8  -7   13.44    5.22
   1   8   8  489.30   28.38
   1  -8  -8  410.72   27.41
   1   8   9 1077.76   45.24
   1  -8  -9  949.14   48.39
   1  -8  -9 1040.35   46.43
   1   8  10  285.94   21.59
   1   8  10  289.26   21.19
   1  -8 -10  292.77   23.17
   1   8  11  924.40   40.56
   1  -8 -11  915.48   42.99
   1   8  11  934.99   39.59
   1   8  12   37.40    6.95
   1   8  12   39.77    7.40
   1  -8 -12   44.26    8.95
   1   8  13  109.67   10.66
   1   8  13  104.47   11.08
   1  -8 -13  102.61   12.14
   1   8  14  131.96   11.27
   1  -8 -14  128.04   12.47
   1   8  14  129.91   10.32
   1   8  14  151.91   12.88
   1   8  15  521.92   22.69
   1  -8 -15  558.67   24.12
   1   8  16  109.37    7.82
   1  -8 -16  102.87    8.21
  -1  -9 -14  177.83   12.69
  -1  -9 -13  521.74   25.20
  -1  -9 -12  523.81   27.38
  -1  -9 -11  445.28   26.54
  -1  -9 -10  199.72   18.28
  -1  -9  -9  399.56   26.76
  -1  -9  -8 1667.77   61.47
  -1  -9  -7  311.71   23.27
  -1  -9  -6  574.12   32.16
  -1  -9  -5   55.19    9.86
   1  -9   5   72.73   10.60
  -1  -9  -4  808.01   39.58
  -1  -9  -4  763.54   37.62
   1  -9   4  729.36   36.26
  -1  -9  -3  847.35   41.10
  -1  -9  -3  779.98   38.74
   1  -9   3  803.35   38.70
   1  -9   2 2594.44   81.31
  -1  -9  -2 2533.81   81.91
   1  -9   2 2605.48   85.67
  -1  -9  -2 2536.63   81.27
   1  -9   1 1347.17   56.91
  -1  -9  -1 1295.34   53.36
  -1  -9  -1 1285.23   52.80
   1  -9   1 1318.45   53.21
   1  -9   0  531.45   34.58
  -1  -9   0  502.79   30.69
   1  -9   0  551.14   32.45
   1   9   0  552.37   28.58
   1   9   1 1117.63   43.66
   1  -9  -1 1150.15   49.65
  -1  -9   1 1107.82   47.79
   1   9   2 2748.29   78.77
   1  -9  -2 2650.76   84.93
  -1  -9   2 2676.01   83.75
   1   9   3  683.80   32.57
   1  -9  -3  691.62   36.26
  -1  -9   3  694.14   35.82
   1  -9  -4  784.89   38.71
  -1  -9   4  814.47   38.70
   1  -9  -5   22.90    6.60
  -1  -9   5   22.26    6.34
   1  -9  -6  460.97   28.38
   1  -9  -7  425.52   29.69
   1  -9  -7  441.58   27.67
   1  -9  -8 1509.62   56.87
   1   9   9  512.54   28.33
   1  -9  -9  517.94   30.40
   1   9  10  149.91   14.12
   1  -9 -10  128.02   14.54
   1   9  11  500.69   25.25
   1  -9 -11  489.39   28.16
   1   9  12  541.87   24.47
   1  -9 -12  540.02   28.09
   1  -9 -13  461.10   23.44
   1   9  13  430.04   19.17
   1   9  14  201.52   12.95
   1  -9 -14  227.20   14.17
   1   9  15   27.18    3.88
  -1 -10 -13  129.13   10.10
  -1 -10 -12  678.99   28.12
  -1 -10 -11  464.45   24.50
  -1 -10 -10  944.61   39.42
  -1 -10  -9  162.79   15.64
  -1 -10  -8   56.42    9.72
  -1 -10  -7  117.38   14.09
  -1 -10  -6  407.31   26.53
  -1 -10  -5  125.45   14.58
  -1 -10  -4  163.07   16.96
   1 -10   4  148.86   15.75
  -1 -10  -3   63.78   11.02
   1 -10   3   67.28   10.92
   1 -10   2  930.50   43.64
  -1 -10  -2  944.01   44.07
   1 -10   1  704.58   40.44
  -1 -10  -1  667.21   36.62
   1 -10   1  718.63   37.87
   1 -10   0 2392.76   84.79
  -1 -10   0 2429.29   79.55
   1 -10   0 2505.50   81.54
   1 -10  -1  848.21   41.98
  -1 -10   1  786.99   39.84
   1 -10  -2  991.58   45.61
  -1 -10   2  929.29   43.37
   1 -10  -3   56.82   10.38
  -1 -10   3   79.56   11.91
   1 -10  -4  155.36   16.54
  -1 -10   4  157.23   15.95
   1 -10  -5  249.08   20.50
   1 -10  -6  387.58   25.64
   1 -10  -7  231.98   19.26
   1 -10  -8   83.13   11.61
   1  10   9  133.08   12.77
   1 -10  -9  136.04   14.23
   1  10  10  931.09   35.44
   1 -10 -10  935.71   39.19
   1  10  11  494.55   22.31
   1 -10 -11  554.99   26.95
   1 -10 -12  670.25   27.64
   1  10  12  574.05   21.82
   1 -10 -13  145.26   10.55
   1  10  13  127.24    9.90
   1  10  14   30.44    3.88
  -1 -11 -12  375.79   16.35
  -1 -11 -11  546.92   23.13
  -1 -11 -10  598.00   26.67
  -1 -11  -9   88.49   10.56
  -1 -11  -8  134.08   13.56
  -1 -11  -7  184.80   16.40
  -1 -11  -6  173.86   16.21
  -1 -11  -5    8.24    4.43
  -1 -11  -4   63.32   10.31
  -1 -11  -3  280.13   21.54
   1 -11   3  264.37   20.65
   1 -11   2  165.20   16.69
  -1 -11  -2  200.56   18.17
  -1 -11  -1  315.94   23.23
   1 -11   1  317.91   23.59
  -1 -11   0  211.59   18.72
   1 -11   0  197.30   18.36
   1 -11  -1  384.04   25.94
  -1 -11   1  359.72   24.83
   1 -11  -2   89.82   12.49
  -1 -11   2   83.24   11.74
   1 -11  -3  366.45   24.70
  -1 -11   3  342.91   23.27
   1 -11  -4   17.97    5.67
   1 -11  -5   81.77   11.39
   1 -11  -6   88.81   11.58
   1 -11  -7  119.83   13.20
   1  11   8  134.74   12.18
   1 -11  -8  144.55   13.93
   1  11   9  106.91   10.00
   1 -11  -9  130.52   12.67
   1  11  10  457.57   19.69
   1 -11 -10  512.39   24.25
   1 -11 -11  606.35   24.76
   1 -11 -12  281.34   13.78
  -1 -12  -9  700.32   26.28
  -1 -12  -8  682.66   27.86
  -1 -12  -7  741.75   30.87
  -1 -12  -6  155.90   13.68
  -1 -12  -5   48.51    8.01
  -1 -12  -4  499.20   26.29
  -1 -12  -3  939.85   38.42
  -1 -12  -2  344.01   21.60
   1 -12   2  286.91   19.74
  -1 -12  -1  448.57   25.14
   1 -12   1  435.23   24.84
  -1 -12   0 1015.16   40.54
   1 -12   0 1000.12   40.51
   1 -12  -1  401.25   23.83
  -1 -12   1  387.13   23.01
   1 -12  -2  356.45   22.25
  -1 -12   2  358.64   21.73
   1 -12  -3  880.48   36.81
   1 -12  -4  357.43   21.73
   1 -12  -5   86.75   10.49
   1 -12  -6  124.56   12.14
   1  12   7  790.44   29.95
   1 -12  -7  809.48   32.34
   1  12   8  502.21   20.64
   1 -12  -8  533.87   23.89
   1 -12  -9  839.03   29.51
  -1 -13  -7  118.22    8.42
  -1 -13  -6   97.00    8.36
  -1 -13  -5  615.87   24.35
  -1 -13  -4  313.20   16.89
  -1 -13  -3  193.43   13.31
  -1 -13  -2  249.73   15.28
  -1 -13  -1  649.31   26.47
   1 -13   0  188.37   13.10
  -1 -13   0  188.18   13.02
   1 -13  -1  561.63   24.30
   1 -13  -2  251.46   15.40
   1 -13  -3  258.47   15.57
   1 -13  -4  236.95   14.41
   1  13   5  629.28   23.79
   1 -13  -5  704.94   25.96
   1  13   6   67.68    5.96
   1 -13  -6   69.89    7.13
   1  14  -2  146.46    9.77
   1  14   2  137.09    9.21
   2   0   0 2950.67   64.83
   2   0  -1 4642.60  102.58
   2   0  -2  964.73   31.32
   2   0  -3  132.47   10.27
   2   0  -4  363.52   19.19
   2   0  -5 2273.26   65.35
   2   0  -6  544.84   27.95
   2   0  -7  139.86   14.30
   2   0  -8  412.17   26.88
   2   0   8  404.45   22.49
   2   0   8  420.26   21.76
   2   0  -9 1064.49   48.32
   2   0   9 1111.64   42.16
   2   0   9 1040.36   39.75
   2   0 -10 1073.25   50.29
   2   0  10 1033.92   42.49
   2   0  10 1104.81   42.36
   2   0 -11 2033.66   77.39
   2   0  11 2220.31   70.32
   2   0 -12  162.23   19.66
   2   0 -13  391.78   31.40
   2   0  14   29.29    8.04
   2   0  15   66.18   10.84
   2   0  16   21.01    5.40
   2   0  17  341.64   20.61
   2   0  18    3.63    2.25
   2  -1  15  137.09   15.09
   2   1 -13  530.22   36.31
   2   1 -12 1033.22   51.96
   2   1 -11  218.95   22.22
   2   1 -10  630.41   37.34
   2  -1  10  653.33   32.47
   2   1  -9  785.40   40.38
   2  -1   9  784.86   34.74
   2   1  -8  349.40   24.51
   2  -1   8  327.19   20.32
   2   1  -7  465.60   27.12
   2  -1   7  498.82   24.39
   2   1  -6  241.21   17.84
   2   1  -5  383.79   21.20
   2   1  -4  355.71   18.75
   2   1  -3  755.30   27.34
   2   1  -2 1326.71   37.60
   2   1  -1  561.31   19.22
   2   1   0 1289.11   30.31
   2  -1  -1  490.75   19.51
   2  -1  -1  437.60   13.84
   2  -1  -2 1381.98   42.06
   2  -1  -3 1058.81   36.40
   2  -1  -4  178.74   13.71
   2  -1  -5  529.43   26.36
   2  -1  -6  426.19   24.68
   2  -1  -7  394.22   25.15
   2   1   7  371.38   20.36
   2   1   7  385.87   21.05
   2   1   7  378.03   27.37
   2  -1  -8  361.35   25.56
   2   1   8  366.24   21.08
   2   1   8  377.59   21.65
   2   1   8  311.27   26.14
   2   1   9  839.61   35.88
   2  -1  -9  857.33   43.14
   2   1   9  836.09   36.26
   2  -1 -10  710.41   40.49
   2   1  10  725.78   34.41
   2   1  10  723.06   34.03
   2  -1 -11  234.30   23.36
   2   1  11  214.77   18.57
   2   1  11  211.84   18.15
   2  -1 -12 1146.74   55.94
   2  -1 -13  724.53   43.26
   2   1  13  673.00   40.73
   2   1  14  179.23   19.36
   2   1  15  233.75   20.39
   2   1  16  242.64   18.39
   2   1  17  192.45   13.90
   2   1  17  186.35   14.50
   2   1  18  322.05   16.67
   2  -2  18  290.74   15.27
   2  -2  17   49.38    7.45
   2   2 -12   32.00    8.93
   2   2 -11  471.99   33.23
   2   2 -10 1619.52   65.01
   2  -2   5  157.72   14.78
   2   2   0  707.69   19.05
   2  -2   0  671.02   20.85
   2  -2  -1  259.71   12.08
   2  -2  -2 1208.21   36.28
   2  -2  -2 1269.91   41.21
   2  -2  -3   50.99    7.30
   2  -2  -4  870.27   34.80
   2   2   5  151.07   14.95
   2  -2  -5  114.86   12.12
   2   2   5  125.70    8.15
   2   2   5  127.83   13.66
   2   2   6   83.52    7.26
   2  -2  -6   78.24   10.60
   2   2   6   68.19   10.87
   2  -2  -7  187.63   17.59
   2   2   7  204.41   15.74
   2   2   7  171.20   17.73
   2   2   7  179.66   11.88
   2  -2  -8 1419.15   56.21
   2   2   8 1345.12   48.13
   2   2   8 1286.03   41.52
   2   2   8 1268.61   54.52
   2  -2  -9  837.69   43.93
   2   2   9  922.36   38.40
   2   2   9  821.00   37.26
   2   2   9  841.20   43.86
   2   2  10 1680.98   57.69
   2  -2 -10 1534.69   65.41
   2   2  10 1667.01   58.46
   2   2  10 1590.66   65.41
   2  -2 -11  484.44   34.39
   2   2  11  472.49   29.02
   2   2  11  468.30   32.96
   2   2  12   21.19    7.15
   2  -2 -12   17.83    7.09
   2   2  13   42.12   10.03
   2   2  14  566.96   35.04
   2   2  15  179.11   16.74
   2   2  15  175.23   17.65
   2   2  16  199.25   16.79
   2   2  17   30.99    5.64
   2   2  17   30.46    5.80
   2   2  18  192.31   11.31
   2   2  18  225.95   12.92
   2  -3  17   80.22    8.68
   2  -3  16  328.51   20.89
   2   3 -12  244.47   24.15
   2   3 -11  113.62   16.24
   2  -3   6 1607.03   56.35
   2   3  -6 1519.25   48.26
   2  -3   5  375.24   22.50
   2   3  -5  419.14   22.38
   2  -3   1  716.16   24.34
   2  -3   0 1028.71   31.50
   2  -3  -1  750.18   26.68
   2  -3  -2 1239.09   39.97
   2  -3  -3 1770.28   56.76
   2   3   4  593.09   29.99
   2  -3  -4  630.97   30.35
   2   3   4  637.43   21.30
   2   3   5  477.74   27.72
   2  -3  -5  517.18   27.58
   2   3   5  511.93   19.51
   2   3   5  457.20   25.48
   2   3   5  512.13   25.25
   2   3   6 1373.34   53.35
   2  -3  -6 1410.84   52.53
   2   3   6 1331.31   50.34
   2   3   6 1505.13   50.51
   2   3   6 1390.97   45.89
   2   3   6 1374.32   40.63
   2  -3  -7 1445.34   55.82
   2   3   7 1403.75   43.48
   2   3   7 1330.40   44.44
   2   3   7 1363.79   54.73
   2   3   8  908.45   39.20
   2   3   8  942.80   35.05
   2  -3  -8  885.42   44.15
   2   3   8  871.43   42.86
   2   3   9 1700.14   54.26
   2  -3  -9 1790.79   69.00
   2   3   9 1650.90   58.48
   2   3   9 1598.72   63.06
   2  -3 -10  436.78   32.41
   2   3  10  460.69   28.79
   2   3  10  452.44   30.80
   2  -3 -11   81.28   14.29
   2   3  11   96.90   13.02
   2   3  11   67.58   12.13
   2  -3 -12  228.21   23.57
   2   3  12  237.33   22.50
   2   3  12  242.81   19.62
   2   3  13  248.86   19.45
   2   3  13  207.03   20.86
   2   3  14    6.20    4.01
   2   3  15   62.70   10.18
   2   3  15   65.65    9.57
   2   3  16  203.70   16.45
   2   3  16  190.52   15.18
   2   3  17  120.75   10.77
   2   3  17  119.80   10.37
   2   3  18  150.79    9.49
  -2   4  17  388.77   17.32
   2  -4  15   62.17    8.95
   2  -4  14   27.54    6.70
   2  -4   8   45.42    8.91
   2  -4   7  583.08   31.08
   2  -4   6  177.44   15.48
   2   4  -6  179.18   15.13
   2  -4   5  850.56   34.94
   2   4  -5  903.17   38.48
   2  -4   4   63.08    8.03
   2   4  -4   33.89    7.40
   2   4  -3  637.35   33.05
   2  -4   2  381.37   18.43
   2  -4   1 1803.33   51.47
   2  -4   0  287.94   16.11
   2  -4  -1 2143.92   59.91
   2  -4  -2  382.16   21.19
   2  -4  -3  621.08   29.68
   2   4   4   45.61    8.14
   2  -4  -4   57.20    9.04
   2  -4  -4   65.08    9.92
   2   4   4   64.51    9.60
   2   4   4   58.78    8.91
   2   4   5  928.20   40.65
   2  -4  -5 1001.21   42.73
   2   4   5  892.92   36.40
   2   4   5  986.24   40.30
   2   4   5 1051.11   42.08
   2   4   6  183.46   17.21
   2  -4  -6  215.51   19.10
   2   4   6  176.68   15.05
   2   4   6  219.32   17.84
   2   4   6  189.98   16.01
   2   4   6  187.35   13.44
   2   4   7  735.20   37.32
   2  -4  -7  814.41   40.59
   2   4   7  732.32   33.86
   2   4   7  747.53   30.18
   2   4   7  749.66   32.41
   2   4   8   66.23   10.97
   2  -4  -8   63.95   11.83
   2   4   8   69.52   10.35
   2   4   8   60.49    8.32
   2  -4  -9  189.32   20.86
   2   4   9  188.34   15.60
   2   4   9  176.16   18.29
   2  -4 -10  237.58   23.99
   2   4  10  242.70   21.72
   2   4  11 1535.34   56.28
   2  -4 -11 1611.05   68.15
   2   4  11 1536.58   59.28
   2   4  11 1472.19   60.25
   2   4  12  432.20   26.80
   2   4  12  455.38   30.49
   2   4  13  771.22   40.15
   2   4  13  764.98   36.10
   2   4  14   24.63    6.65
   2   4  14   19.15    5.58
   2   4  15   85.39   11.23
   2   4  15   80.00   10.25
   2   4  15   68.24    9.00
   2   4  16   72.48    9.26
   2   4  16   73.96    8.37
   2   4  16   86.32    9.67
   2   4  17  427.75   20.52
   2   4  17  450.93   17.85
   2  -5  13  420.57   23.63
   2  -5  12 1028.50   41.22
   2  -5  11  326.43   22.06
   2  -5  10  819.82   37.19
   2  -5   9  359.31   23.25
   2  -5   8   68.26    9.87
   2  -5   7   12.56    4.35
   2  -5   6  837.03   33.93
   2   5  -6  855.72   38.74
   2  -5   5  167.07   13.24
   2   5  -5  151.12   16.16
   2  -5   2  784.61   31.28
   2  -5   1  493.19   24.48
   2  -5   0 1422.75   47.38
   2  -5  -1  565.37   27.45
   2   5   1  592.84   29.28
   2  -5  -2  629.95   30.83
   2   5   2  664.60   31.49
   2   5   3  413.96   24.68
   2  -5  -3  435.28   26.00
   2  -5  -4    7.06    3.95
   2  -5  -5  251.53   20.48
   2   5   5  258.02   20.60
   2   5   6  462.14   27.45
   2   5   7   58.23    8.32
   2  -5  -7   49.98   10.52
   2   5   7   55.65    8.93
   2  -5  -8   38.13    9.59
   2   5   8   27.25    5.97
   2  -5  -9  332.28   28.39
   2   5   9  285.72   19.76
   2  -5 -10  799.72   46.12
   2   5  10  723.35   33.52
   2   5  10  758.80   37.34
   2   5  11  301.34   22.13
   2   5  11  284.46   19.97
   2   5  12  910.84   40.09
   2   5  12  841.37   36.06
   2   5  13  478.49   25.18
   2   5  13  510.30   27.66
   2   5  14  328.00   18.93
   2   5  14  328.33   20.60
   2   5  15  628.32   29.05
   2   5  16  354.03   18.84
   2   6  -7  758.25   36.25
   2   6  -6  259.31   21.74
   2  -6   2 2007.35   62.56
   2  -6   1  919.53   38.80
   2  -6   0  634.86   31.53
   2  -6  -1  836.88   37.61
   2   6   1  886.45   39.18
   2   6   2 2229.43   70.74
   2  -6  -2 2213.05   71.35
   2  -6  -3 1072.57   46.13
   2   6   3 1057.09   44.35
   2  -6  -4 1329.97   53.52
   2   6   4 1293.04   51.15
   2  -6  -5    6.64    4.12
   2   6   5   15.85    5.48
   2   6   6  235.27   19.66
   2  -6  -6  250.86   21.66
   2   6   6  233.63   19.96
   2   6   6  204.13   18.45
   2   6   7  863.58   40.85
   2  -6  -7  950.21   45.34
   2   6   7  855.22   38.67
   2   6   8 1373.54   54.32
   2  -6  -8 1404.48   58.71
   2   6   8 1295.31   47.22
   2  -6  -8 1377.42   50.61
   2   6   9  394.02   27.01
   2  -6  -9  432.52   31.27
   2   6   9  412.00   26.82
   2  -6  -9  435.28   26.18
   2   6  10  317.58   24.06
   2  -6 -10  326.72   27.78
   2   6  10  324.60   23.25
   2  -6 -10  364.21   24.02
   2   6  11  222.84   19.67
   2  -6 -11  276.30   20.72
   2   6  11  237.84   19.14
   2   6  12  240.29   19.82
   2   6  12  258.37   19.43
   2   6  13  181.65   16.24
   2   6  13  185.48   15.56
   2   6  14  650.51   30.14
   2   6  14  668.51   29.12
   2   6  15    6.10    2.78
   2   6  15    4.31    2.62
   2   6  16   96.73    8.46
   2   7  -7  493.85   29.81
   2   7  -6 1237.62   54.69
   2  -7   2   25.29    6.32
   2  -7   1  330.99   23.44
   2   7  -1  359.24   24.81
   2  -7   0  257.97   21.39
   2   7   0  307.32   22.76
   2   7   1  333.79   23.84
   2  -7  -1  314.01   23.77
   2  -7  -2    9.26    4.51
   2   7   2    9.03    4.40
   2  -7  -3 1009.09   46.03
   2   7   3  988.92   44.96
   2  -7  -4 1101.56   49.26
   2   7   4 1117.38   47.78
   2  -7  -5 1294.52   54.66
   2   7   5 1277.00   51.82
   2  -7  -6 1208.64   52.37
   2  -7  -6 1228.93   46.48
   2  -7  -7  416.97   29.65
   2   7   7  392.66   24.91
   2  -7  -7  444.60   26.02
   2  -7  -8  214.55   21.54
   2   7   8  217.44   16.77
   2  -7  -8  234.92   18.59
   2   7   9 1116.08   47.70
   2   7   9 1080.34   46.17
   2  -7  -9 1126.10   44.49
   2   7  10  305.78   22.68
   2   7  10  293.94   21.73
   2  -7 -10  354.28   22.70
   2   7  11  105.60   12.70
   2   7  11  107.76   12.33
   2   7  12   71.56    9.58
   2   7  12   81.04   10.47
   2   7  13  327.58   19.33
   2   7  14   91.67    8.96
   2   7  15  544.30   22.38
   2   7  16  252.06   12.04
   2   8  -7  983.95   44.63
   2   8  -6  176.04   19.55
   2   8  -2   45.48    8.88
   2  -8   2   21.06    5.68
   2   8  -1  146.73   16.15
   2  -8   1  137.09   15.66
   2  -8   1  143.60   13.76
   2   8   0  119.21   14.68
   2  -8   0  111.83   14.53
   2   8   1  121.27   14.90
   2  -8  -1  116.18   15.50
   2  -8  -2   78.11   12.66
   2  -8  -2   64.21   10.22
   2   8   2   72.06   11.56
   2  -8  -3   54.96   10.53
   2   8   3   62.42   10.75
   2  -8  -3   54.42    9.40
   2  -8  -4    1.56    3.08
   2  -8  -4    0.63    2.82
   2  -8  -5  815.75   41.93
   2  -8  -5  851.13   38.44
   2  -8  -6  221.74   21.04
   2   8   6  187.63   17.89
   2  -8  -6  247.43   19.33
   2   8   7  751.27   35.56
   2  -8  -7  816.98   36.56
   2   8   8  456.71   27.73
   2   8   8  413.19   23.27
   2  -8  -8  426.07   25.01
   2   8   9  194.96   17.19
   2   8  10   57.86    9.03
   2   8  11  371.59   21.96
   2   8  12  218.22   15.33
   2   8  12  207.19   15.81
   2   8  13  327.44   17.32
   2   8  15   73.06    6.24
   2   9 -12  208.57   12.35
   2   9  -7  119.88   13.94
   2   9  -6 1274.33   55.37
   2   9  -5 1046.31   44.57
   2   9  -4  956.90   42.58
   2   9  -3  830.67   39.65
   2   9  -2  127.15   14.67
   2  -9   2  107.85   12.01
   2   9  -1  794.65   38.96
   2  -9   1  680.94   32.76
   2  -9   0 1302.56   55.77
   2  -9   0 1275.11   48.86
   2  -9  -1  723.18   40.38
   2   9   1  829.71   41.38
   2  -9  -1  767.02   36.13
   2  -9  -2  109.85   15.53
   2   9   2  150.94   16.57
   2  -9  -2  131.09   14.48
   2  -9  -3  635.92   37.18
   2   9   3  710.08   36.85
   2  -9  -3  664.67   33.55
   2  -9  -4  939.34   40.71
   2  -9  -5 1026.98   42.52
   2   9   6 1031.99   44.75
   2  -9  -6 1102.73   43.48
   2   9   7   99.22   11.58
   2   9   8   35.00    7.39
   2   9   9  292.78   20.09
   2   9  10  501.37   25.50
   2   9  11   82.97    9.06
   2   9  12  276.06   15.23
   2   9  12  277.38   16.43
   2   9  13  169.19   10.08
   2  10  -9   61.74    7.51
   2  10  -8  509.27   24.99
   2  10  -7  196.31   15.65
   2  10  -7  163.34   14.42
   2  10  -6   67.29    9.58
   2  10  -6   51.18    9.52
   2  10  -5   53.58    8.81
   2  10  -5   56.55   10.78
   2  10  -4 1131.65   44.99
   2  10  -3  476.20   27.48
   2  10  -2  916.47   40.51
   2  10  -1  145.66   15.35
   2  10   0  233.36   19.35
   2 -10   0  166.21   15.00
   2  10   1  145.21   15.17
   2  10   2  946.11   41.49
   2  10   5   35.82    7.82
   2  10   6   28.51    6.57
   2  10   8  625.64   29.65
   2  10   9   47.02    7.10
   2  10  10  169.93   12.30
   2  10  11   92.05    7.97
   2  10  11   99.12    8.99
   2  10  12  295.10   14.00
   2  10  12  265.88   12.22
   2  11  -6  344.12   19.89
   2  11  -5  202.05   16.67
   2  11  -4  161.73   15.79
   2  11  -4  167.90   13.45
   2  11  -3  318.86   23.34
   2  11  -3  358.30   20.53
   2  11  -2   25.11    5.57
   2  11  -1   73.98    9.32
   2  11   0   95.24   10.52
   2  11   3  297.38   22.02
   2  11   4  132.83   14.02
   2  11   5  154.51   14.16
   2  11   6  439.41   22.56
   2  11   7  128.81   11.59
   2  11   8  235.54   14.80
   2  11   9  331.81   16.16
   2  11  10   62.76    5.77
   2  11  10   67.57    6.47
   2  12  -5 1070.16   34.72
   2  12  -4  401.58   20.66
   2  12  -3  392.36   21.50
   2  12  -2  255.93   17.59
   2  12  -1  428.64   23.85
   2  12   0  120.06   12.41
   2  12   2  301.00   19.41
   2  12   3  391.06   21.54
   2  12   4  403.93   20.71
   2  12   5 1031.82   34.15
   2  12   6  339.41   16.81
   2  12   7  660.30   23.22
   2  12   8   61.07    5.25
   2  13  -2  271.36   14.09
   2  13  -1  160.92   10.95
   2  13   0  169.33   11.41
   2  13   2  339.28   15.87
   2  13   4  414.02   15.68
   3   0   0    4.10    3.81
   3   0   1   96.35   12.76
   3   0  -1  105.09   13.48
   3   0   2 2948.96   90.19
   3   0   3    9.99    5.62
   3   0   3   10.73    3.78
   3   0  -3   14.10    4.45
   3   0   4 1703.87   55.31
   3   0  -4 1797.01   56.39
   3   0   5   18.74    7.37
   3   0   5   28.45    5.92
   3   0  -5   27.82    5.76
   3   0   6  102.27   17.07
   3   0   6  112.16   11.33
   3   0  -6  106.76   10.93
   3   0  -7   17.96    6.26
   3   0   7   11.64    7.72
   3   0   7   22.05    5.54
   3   0  -7   19.43    4.90
   3   0  -8 1423.81   62.28
   3   0   8 1377.89   72.79
   3   0   8 1339.31   44.81
   3   0  -9   33.38    9.73
   3   0   9   30.20   11.27
   3   0  10   51.19   14.23
   3   0  11   99.92   18.60
   3   0  12  486.21   38.00
   3   0  13    2.79    3.93
   3   0  14 1301.64   52.20
   3   0  15   72.66    9.49
   3   0  16  340.51   16.98
   3  -1  16  190.10   12.19
   3  -1   7   38.06    6.71
   3   1  -7    7.10    3.57
   3   1  -6  921.01   36.58
   3  -1   6  939.92   36.44
   3  -1   5  408.75   22.39
   3  -1   4  829.09   33.78
   3  -1   3  411.67   22.61
   3  -1   2  259.27   17.86
   3   1   0  547.56   31.10
   3  -1   0  476.99   24.97
   3   1   1   34.30    6.73
   3   1   1   41.83    8.82
   3  -1  -1   53.05    8.04
   3   1   2  373.38   26.16
   3  -1  -2  361.38   21.25
   3   1   2  328.12   20.80
   3   1   3  468.79   30.46
   3  -1  -3  443.45   23.62
   3   1   3  412.69   23.67
   3   1   4  876.81   45.27
   3  -1  -4  874.90   34.71
   3   1   4  814.57   34.48
   3   1   5  544.69   36.77
   3  -1  -5  524.04   25.71
   3  -1  -6 1138.46   49.61
   3   1   6 1099.91   57.05
   3   1   6 1070.06   40.76
   3  -1  -6 1090.97   39.94
   3   1   6 1077.22   39.31
   3  -1  -7   58.02   11.09
   3   1   7   41.80   11.98
   3   1   7   44.65    7.25
   3  -1  -7   44.83    7.27
   3   1   7   50.57    8.60
   3   1   7   47.17    7.48
   3  -1  -8  357.12   28.64
   3   1   8  353.04   19.94
   3   1   8  379.69   24.05
   3   1   8  382.17   22.36
   3  -1  -9  371.66   30.75
   3   1   9  303.32   31.54
   3   1  10  124.72   18.13
   3   1  10  144.25   21.01
   3   1  11   50.43   12.77
   3   1  12  295.84   27.24
   3   1  13  493.34   32.14
   3   1  14   17.39    5.64
   3   1  15  970.84   36.60
   3   1  16  243.26   13.53
   3  -2  16    1.86    1.68
   3  -2  15  205.50   14.95
   3  -2  14   27.71    6.71
   3  -2  13  497.47   31.94
   3  -2  12  195.87   21.60
   3  -2  11  852.93   49.94
   3  -2  10  120.08   19.02
   3  -2   9   91.69   16.80
   3  -2   8  102.09   17.25
   3  -2   7 1796.05   74.57
   3   2  -7 1635.87   53.16
   3  -2   6   67.37   13.10
   3  -2   6   79.49    9.74
   3  -2   5 1529.38   63.59
   3  -2   5 1647.60   52.15
   3  -2   4  206.71   19.86
   3  -2   4  220.93   15.95
   3  -2   3  275.11   22.14
   3  -2   3  314.37   19.36
   3  -2   2  174.72   16.91
   3  -2   2  156.48   13.71
   3  -2   1  381.37   25.23
   3  -2   0  362.72   24.04
   3   2   0  320.29   23.59
   3  -2   0  309.12   19.92
   3   2   0  276.28   19.94
   3   2   1  201.80   16.80
   3  -2  -1  233.33   17.00
   3   2   2  146.89   14.34
   3   2   2  173.61   17.71
   3  -2  -2  139.86   13.04
   3   2   3  307.90   24.43
   3  -2  -3  342.32   20.40
   3   2   3  296.35   20.84
   3   2   4  211.92   20.88
   3  -2  -4  220.35   16.08
   3   2   4  191.45   16.43
   3   2   5 1641.51   52.74
   3   2   5 1630.01   66.41
   3  -2  -5 1719.90   53.70
   3   2   5 1578.43   55.06
   3   2   6   59.51    8.60
   3  -2  -6   49.22    9.87
   3   2   6   50.53   11.15
   3  -2  -6   54.02    8.23
   3   2   7 1762.14   57.06
   3  -2  -7 1683.84   66.11
   3   2   7 1630.36   70.32
   3   2   7 1621.10   53.99
   3   2   7 1759.51   58.75
   3   2   8   65.88    9.57
   3  -2  -8   72.40   12.92
   3   2   8   62.95   13.29
   3   2   8   58.40    7.98
   3   2   8   55.43    9.41
   3  -2  -9   95.48   15.46
   3   2   9   89.75   15.24
   3   2   9   83.31   11.65
   3   2   9   86.05   11.13
   3   2  10   86.67   14.67
   3   2  10   98.29   12.75
   3   2  10  105.59   12.26
   3   2  11  516.26   34.81
   3   2  11  564.78   31.27
   3   2  12  119.48   15.35
   3   2  13  413.19   26.76
   3   2  14   20.52    5.45
   3   2  15  138.15   11.42
   3   2  16    0.98    1.67
   3  -3  15  129.37   10.40
   3  -3  14   94.51   10.61
   3  -3  13  299.28   21.47
   3  -3  12  101.23   13.60
   3  -3  11   21.26    7.07
   3  -3  10  305.81   26.36
   3  -3   9  556.63   36.83
   3  -3   8  170.85   19.94
   3  -3   7  540.02   35.47
   3  -3   6 2311.59   81.18
   3  -3   5  202.25   19.88
   3  -3   4 1689.29   62.33
   3  -3   3 1023.70   44.98
   3  -3   3 1115.80   41.29
   3  -3   2   15.01    5.42
   3  -3   2   15.25    4.59
   3   3  -2   12.19    5.09
   3  -3   1  276.30   21.01
   3   3  -1  310.00   23.96
   3  -3   0  921.05   39.98
   3   3   0  915.53   41.23
   3  -3   0  841.23   36.40
   3   3   0  766.34   37.36
   3   3   0  845.92   41.54
   3   3   1  346.29   24.56
   3  -3  -1  357.51   21.53
   3   3   2   42.99    8.08
   3   3   2   39.32    8.54
   3  -3  -2   34.68    6.84
   3   3   2   42.84    8.54
   3   3   3  917.10   43.07
   3   3   3  914.20   37.22
   3  -3  -3  982.74   38.71
   3   3   3  837.46   39.38
   3   3   4 1795.16   65.05
   3   3   4 1840.34   58.65
   3   3   4 1630.57   59.39
   3   3   5  139.42   14.00
   3   3   5  114.17   14.85
   3   3   5  128.97   13.95
   3   3   6 2385.65   72.63
   3   3   6 2305.54   79.47
   3   3   6 2332.72   72.22
   3   3   7  463.61   27.10
   3   3   7  470.38   31.44
   3   3   7  505.44   28.72
   3   3   8  174.15   16.20
   3  -3  -8  172.66   20.31
   3   3   8  155.97   17.80
   3   3   8  158.72   13.31
   3   3   8  155.96   15.92
   3   3   9  416.96   25.72
   3   3   9  429.97   29.72
   3   3   9  431.85   27.35
   3   3  10  260.61   22.24
   3   3  10  224.91   19.50
   3   3  10  268.51   20.03
   3   3  11   32.77    7.84
   3   3  11   35.28    7.38
   3   3  11   40.30    8.42
   3   3  12  110.79   13.07
   3   3  12  102.73   12.32
   3   3  13  240.63   17.92
   3   3  14   55.10    7.70
   3   3  15  113.74    9.31
   3  -4  13    2.56    2.46
   3  -4  12  149.75   14.01
   3  -4  11   57.99    9.53
   3  -4  10  556.73   31.71
   3  -4   9  298.54   23.46
   3  -4   8  870.28   42.73
   3  -4   7  232.38   20.86
   3  -4   6  121.11   14.91
   3  -4   5   37.01    8.16
   3  -4   4 1214.04   48.84
   3   4  -4 1175.92   52.65
   3  -4   3  137.75   14.62
   3   4  -3  112.79   15.62
   3  -4   2 1260.89   48.65
   3   4  -2 1213.70   56.34
   3  -4   1  701.35   33.83
   3   4  -1  689.16   40.84
   3   4   0  406.62   27.05
   3   4   0  411.37   30.57
   3   4   1  582.01   32.74
   3   4   1  666.95   33.79
   3   4   2 1038.94   45.66
   3   4   2 1136.98   46.61
   3   4   2 1095.08   50.61
   3   4   3  131.19   14.65
   3   4   3   92.33   13.65
   3   4   3   98.74   12.99
   3   4   4 1338.37   52.13
   3   4   4 1335.24   51.17
   3   4   4 1270.17   54.35
   3   4   4 1285.18   51.86
   3   4   5   29.09    7.39
   3   4   5   27.64    6.96
   3   4   5   26.29    6.88
   3   4   6   70.41   10.68
   3   4   6   82.41   11.78
   3   4   6   80.87   11.66
   3   4   7  231.44   19.35
   3   4   7  254.31   20.68
   3   4   7  242.27   20.55
   3   4   8 1043.06   44.01
   3   4   8  982.44   43.31
   3   4   8 1023.16   45.31
   3   4   9  359.43   23.79
   3   4   9  356.21   23.93
   3   4   9  332.78   24.19
   3   4  10  679.16   32.85
   3   4  10  660.81   32.79
   3   4  10  607.35   33.07
   3   4  11   45.04    7.95
   3   4  11   55.18    9.22
   3   4  11   49.30    8.09
   3   4  12  163.49   13.94
   3   4  12  162.10   14.65
   3   4  13    3.18    2.22
   3   4  14  923.59   30.79
   3  -5  10  182.49   15.16
   3  -5   9  685.88   32.56
   3  -5   8   84.26   11.20
   3  -5   7  116.17   13.33
   3  -5   6  112.73   13.15
   3  -5   5  571.53   30.10
   3   5  -5  512.45   32.95
   3  -5   4  129.03   13.77
   3   5  -4  109.52   16.11
   3  -5   3 1066.36   42.05
   3   5  -3  984.68   53.39
   3   5  -2  292.35   28.48
   3   5  -1  408.10   28.47
   3   5  -1  416.27   34.55
   3   5   0  521.35   32.21
   3   5   0  516.89   39.12
   3   5   1  463.64   30.05
   3   5   2  268.48   22.25
   3   5   2  275.38   26.90
   3   5   3  768.43   45.15
   3   5   3  795.67   40.71
   3   5   4   75.10   12.74
   3   5   4   79.85   11.88
   3   5   5  521.55   27.96
   3   5   5  431.10   27.88
   3   5   5  481.86   29.08
   3   5   5  401.55   28.35
   3   5   6   57.37    9.06
   3   5   6   61.81   10.25
   3   5   6   57.33   10.41
   3   5   7   94.65   12.34
   3   5   7   95.70   11.44
   3   5   7   86.12   12.73
   3   5   8   83.76   11.31
   3   5   8   87.75   10.80
   3   5   8   87.73   12.41
   3   5   9  439.11   25.96
   3   5   9  473.24   25.07
   3   5   9  407.44   26.56
   3   5  10  140.01   13.65
   3   5  10  145.06   12.98
   3   5  10  119.51   13.33
   3   5  11   17.70    4.42
   3   5  11   20.00    5.10
   3   5  11   13.75    4.47
   3   5  12  622.07   28.12
   3   5  12  627.12   27.59
   3   5  13  448.39   21.32
   3   6  -6    6.55    4.34
   3   6  -5 1437.16   61.36
   3   6  -4   65.97   13.26
   3   6  -3   32.74   10.47
   3   6  -2  173.21   24.35
   3   6  -1 1605.95   81.22
   3   6   0   36.86   12.35
   3   6   2  128.50   20.40
   3   6   2  159.61   17.43
   3   6   3   35.30   10.18
   3   6   3   58.18   10.51
   3   6   4   58.67   11.60
   3   6   4   67.34   11.14
   3   6   5 1387.94   53.99
   3   6   5 1459.85   55.63
   3   6   5 1295.32   55.23
   3   6   6    9.25    4.41
   3   6   6    7.74    3.85
   3   6   6    8.39    4.69
   3   6   7  328.11   22.68
   3   6   7  268.88   22.15
   3   6   8   58.05    9.14
   3   6   8   47.34    9.02
   3   6   9  259.35   18.73
   3   6   9  260.09   19.52
   3   6  10  107.39   11.42
   3   6  10  112.23   11.92
   3   6  11  756.31   31.56
   3   6  11  846.22   32.68
   3   6  12  192.03   13.17
   3   6  12  193.59   13.20
   3   6  13   98.05    8.26
   3   7  -6  835.21   41.13
   3   7  -5   65.21   12.23
   3   7  -4  277.32   27.79
   3   7  -3  679.07   37.18
   3   7  -3  657.35   47.80
   3   7  -2  128.21   15.66
   3   7  -2  167.29   25.14
   3   7  -1  369.28   26.81
   3   7  -1  302.14   34.96
   3   7   0  295.81   24.26
   3   7   0  209.41   29.49
   3   7   1  338.94   25.93
   3   7   2  146.32   22.31
   3   7   3  544.58   38.93
   3   7   4  197.12   20.65
   3   7   5  102.85   12.54
   3   7   5  105.74   13.71
   3   7   6  861.70   38.58
   3   7   6  833.68   37.35
   3   7   7  578.61   29.62
   3   7   7  521.50   29.16
   3   7   8  274.56   19.01
   3   7   8  247.09   18.39
   3   7   9  630.10   28.64
   3   7   9  596.12   28.08
   3   7  10  150.62   12.48
   3   7  10  157.14   12.57
   3   7  11   41.36    6.09
   3   7  12  539.72   21.62
   3   8 -12   27.38    3.99
   3   8 -11   49.04    6.33
   3   8 -10  904.19   34.23
   3   8  -9    0.49    2.17
   3   8  -8  670.71   31.70
   3   8  -7  230.92   18.14
   3   8  -6   13.28    5.17
   3   8  -6   15.83    5.68
   3   8  -5  233.70   19.10
   3   8  -5  265.57   23.23
   3   8  -4  345.93   23.78
   3   8  -4  365.12   30.34
   3   8  -3  358.67   24.85
   3   8  -3  395.04   34.41
   3   8  -2  260.38   21.07
   3   8  -2  257.85   29.35
   3   8  -1  113.59   13.98
   3   8  -1  112.16   19.90
   3   8   0    5.81    6.85
   3   8   0   13.88    5.56
   3   8   1   82.17   12.29
   3   8   2  198.95   23.81
   3   8   2  259.71   21.38
   3   8   3  345.73   24.24
   3   8   3  277.44   25.65
   3   8   4  218.77   20.29
   3   8   5  185.03   16.17
   3   8   5  182.47   16.69
   3   8   6   20.20    5.53
   3   8   6   13.31    4.36
   3   8   7  179.26   14.89
   3   8   8  601.96   27.67
   3   8   9    5.53    2.63
   3   8  10  708.01   27.21
   3   8  11   24.66    4.17
   3   9 -10  312.12   14.79
   3   9  -9  668.22   26.21
   3   9  -8   14.63    4.12
   3   9  -7  752.20   31.67
   3   9  -6  250.64   17.49
   3   9  -5   66.12    9.12
   3   9  -5   57.53    9.57
   3   9  -4    3.80    3.75
   3   9  -4    3.75    2.77
   3   9  -3 1175.16   45.27
   3   9  -3 1225.92   55.40
   3   9  -2  503.82   35.08
   3   9  -2  492.65   27.49
   3   9  -1  464.45   34.27
   3   9  -1  432.85   25.92
   3   9   0  779.34   45.18
   3   9   0  780.37   36.37
   3   9   1  395.51   24.58
   3   9   2  469.13   26.71
   3   9   2  437.66   30.28
   3   9   3  952.01   43.89
   3   9   4   10.09    4.25
   3   9   5   28.57    6.14
   3   9   5   25.84    5.79
   3   9   6  119.59   11.71
   3   9   7  699.36   29.23
   3   9   8    4.68    2.46
   3   9   9  513.18   21.54
   3   9  10  277.28   13.59
   3  10  -8    9.79    2.53
   3  10  -7  206.89   12.70
   3  10  -6   38.95    6.02
   3  10  -5  399.95   20.52
   3  10  -4   16.56    4.85
   3  10  -4   16.42    4.34
   3  10  -3  219.34   17.18
   3  10  -3  190.43   14.25
   3  10  -2    6.52    3.54
   3  10  -2   11.59    3.79
   3  10  -1 1464.62   53.57
   3  10  -1 1402.88   46.45
   3  10   0   32.35    6.03
   3  10   0   42.51    8.24
   3  10   1 1513.69   48.36
   3  10   2   11.53    4.41
   3  10   3  133.46   12.68
   3  10   4   25.41    5.32
   3  10   4   13.48    3.99
   3  10   5  395.98   20.37
   3  10   6   44.64    6.25
   3  10   7  317.07   15.91
   3  10   8   24.27    3.84
   3  11  -4    5.38    1.93
   3  11  -2  394.85   19.26
   3  11  -1   44.07    6.28
   3  11   0  593.75   25.12
   3  11   2  315.79   15.91
   3  11   2  337.79   17.39
   3  11   3  137.96    9.79
   3  11   3  115.31    9.58
   3  11   4   23.48    3.94
   3  11   5   87.66    6.98
   4   0   0  511.22   29.54
   4   0  -1 2036.12   68.11
   4   0   2  147.01   14.86
   4   0  -2  133.87   14.73
   4   0   3   24.65    8.75
   4   0   3   11.70    4.54
   4   0  -3   13.40    5.04
   4   0   4   16.12    7.87
   4   0   4    8.91    3.90
   4   0  -4    8.35    3.98
   4   0   5  492.75   39.27
   4   0   5  437.68   25.03
   4   0  -5  477.32   26.00
   4   0   6  248.49   28.03
   4   0   6  206.26   16.18
   4   0  -6  203.57   15.77
   4   0   7   71.03   15.54
   4   0   8   32.34   10.73
   4   0   9  248.04   25.85
   4   0  10  125.08   16.99
   4   0  11  954.09   42.52
   4   0  12  492.86   24.65
   4  -1  12  613.02   27.84
   4   1  -7  348.62   19.25
   4   1  -6    8.66    3.52
   4   1  -5  294.29   20.45
   4   1  -4  140.30   14.68
   4  -1   4  131.57   13.49
   4   1  -3  413.30   26.59
   4  -1   3  411.63   24.82
   4   1  -2  280.39   22.17
   4  -1   2  274.28   20.37
   4   1  -1  664.66   35.19
   4   1   0  304.90   22.60
   4  -1   0  315.46   22.35
   4  -1  -1  605.60   32.18
   4   1   2  417.33   26.59
   4  -1  -2  416.24   25.96
   4   1   3  357.14   24.03
   4  -1  -3  391.38   24.70
   4   1   4  237.79   25.68
   4   1   4  243.05   19.15
   4  -1  -4  275.45   19.97
   4   1   5  394.04   33.24
   4   1   5  312.63   21.03
   4   1   6   10.31    6.16
   4   1   6   17.52    5.04
   4   1   7  299.28   28.87
   4   1   8  103.18   16.66
   4   1   9  414.45   30.76
   4   1  10  209.43   19.81
   4   1  11  272.23   19.79
   4   1  12  586.40   25.74
   4  -2  12   25.73    4.98
   4  -2  11   38.94    7.44
   4  -2  10  811.50   39.49
   4  -2   9  831.63   43.43
   4  -2   8  865.74   46.84
   4  -2   7  441.15   32.94
   4   2  -7  323.02   18.28
   4  -2   6   33.71   10.00
   4   2  -6   30.56    6.29
   4   2  -6   25.79    7.60
   4  -2   5   49.17   11.51
   4   2  -5   26.76    6.46
   4   2  -5   32.76    8.28
   4   2  -4  302.71   23.81
   4  -2   4  390.28   30.71
   4   2  -4  366.58   24.64
   4   2  -3  440.39   28.01
   4   2  -3  568.08   32.07
   4   2  -2  137.02   14.94
   4   2  -2  202.01   18.98
   4   2  -1  387.27   26.86
   4   2  -1  285.56   21.19
   4   2   0   28.20    7.68
   4   2   0   18.46    5.39
   4   2   2  159.06   16.43
   4   2   3  589.86   32.10
   4   2   4  281.89   25.67
   4   2   4  248.13   19.60
   4   2   5   30.78    9.24
   4   2   5   30.74    6.64
   4   2   6   48.09   11.02
   4   2   6   39.74    7.05
   4   2   7  342.83   27.11
   4   2   8  676.96   37.51
   4   2   9  519.66   30.66
   4   2  10  627.55   31.38
   4   2  11   16.26    4.61
   4   2  12   13.28    3.37
   4  -3  11  157.10   11.74
   4  -3  10  378.54   21.77
   4  -3   9  431.84   25.55
   4  -3   8  207.82   18.69
   4   3  -7  711.46   28.09
   4   3  -7  585.75   36.42
   4   3  -6  227.21   16.61
   4   3  -6  193.14   19.84
   4  -3   5  175.38   18.71
   4   3  -5  147.34   14.50
   4   3  -4  249.42   21.36
   4   3  -4  256.06   20.85
   4   3  -3  566.20   32.38
   4   3  -3  685.43   36.84
   4   3  -2   71.60   11.03
   4   3  -2   87.87   13.66
   4   3  -1  340.12   26.42
   4   3  -1  252.00   20.19
   4   3   0  390.17   28.19
   4   3   0  305.49   21.89
   4   3   1  234.09   18.18
   4   3   2   80.42   12.39
   4   3   2   69.51    9.62
   4   3   3  645.87   35.18
   4   3   4  315.08   22.65
   4   3   5  118.50   14.37
   4   3   5   69.67    9.90
   4   3   6  218.21   19.11
   4   3   6  181.70   14.54
   4   3   7  763.49   36.38
   4   3   8  213.75   17.39
   4   3   9  410.63   23.01
   4   3  10  283.73   17.03
   4   3  11  161.37   11.14
   4   4 -10  319.99   20.18
   4   4  -9   76.67   10.77
   4   4  -8   12.59    5.04
   4   4  -7  329.85   17.32
   4   4  -7  373.36   25.49
   4   4  -6  242.34   20.88
   4   4  -6  270.88   17.84
   4   4  -5  180.53   18.00
   4   4  -5  194.89   16.89
   4   4  -4  195.36   18.52
   4   4  -4  223.12   19.85
   4   4  -3   86.21   12.09
   4   4  -3   72.36   12.37
   4   4  -2  217.52   18.85
   4   4  -1  479.80   28.38
   4   4   0  445.61   26.66
   4   4   1  515.85   28.14
   4   4   2  243.68   18.03
   4   4   3   73.74   12.08
   4   4   4  135.33   14.79
   4   4   5  232.58   17.68
   4   4   6  324.95   18.93
   4   5 -10  274.25   16.04
   4   5  -9  116.89   11.40
   4   5  -8  247.46   17.96
   4   5  -7  149.33   14.57
   4   5  -6  201.97   17.49
   4   5  -6  200.13   14.62
   4   5  -5  266.81   20.57
   4   5  -5  270.57   19.78
   4   5  -4  147.59   15.34
   4   5  -4  141.33   15.90
   4   5  -3   48.33    9.04
   4   5  -2  556.89   30.96
   4   5  -1  222.01   18.73
   4   5   0  522.15   28.97
   4   5   1  182.08   16.13
   4   5   2  613.68   29.76
   4   5   4  155.44   15.53
   4   5   5  188.12   15.07
   4   6  -9  526.09   22.11
   4   6  -8  493.00   23.08
   4   6  -7  142.87   12.62
   4   6  -6   61.96    8.78
   4   6  -6   49.94    6.61
   4   6  -5   64.15    9.30
   4   6  -5   70.32    9.38
   4   6  -4  357.09   22.93
   4   6  -3  238.78   18.77
   4   6  -2  743.13   35.25
   4   6  -1  227.64   18.34
   4   6   0    8.64    3.84
   4   6   1  252.63   18.42
   4   6   2  740.09   32.77
   4   6   5   77.62    8.73
   4   7  -8  252.77   13.36
   4   7  -7  160.80   11.49
   4   7  -6  667.26   27.46
   4   7  -5   95.93    9.41
   4   7  -5  101.78   10.36
   4   7  -4  797.33   34.21
   4   7  -4  799.37   33.34
   4   7  -3  185.50   15.26
   4   7  -2  266.97   18.59
   4   7  -1   61.86    8.83
   4   7   0  153.32   13.59
   4   7   1   40.46    7.02
   4   7   4  714.99   28.75
   4   8  -4  262.40   14.27
   4   8  -2   54.03    7.04
   4   8  -1   17.37    4.28
   4   8   4  195.70   11.29
   0   0   0    0.00    0.00







TITL exp_849 in P2(1)2(1)2(1)
REM P2(1)2(1)2(1) (#19 in standard setting)
CELL 1.54184   4.097478  11.575122  16.342596  90.0000  90.0000  90.0000
ZERR    3.00   0.000217   0.000575   0.000750   0.0000   0.0000   0.0000
LATT -1
SYMM -x+1/2,-y, z+1/2
SYMM -x, y+1/2,-z+1/2
SYMM  x+1/2,-y+1/2,-z
SFAC C H N O
UNIT 33.00 30.00 3.00 3.00
TREF
HKLF 4
END
_computing_structure_solution     'SHELXT 2018/2 (Sheldrick, 2018)'
_computing_structure_solution     'SHELXT 2018/2 (Sheldrick, 2018)'
_computing_structure_solution     'SHELXT 2018/2 (Sheldrick, 2018)'
_computing_structure_solution     'SHELXT 2018/2 (Sheldrick, 2018)'
_computing_structure_solution     'SHELXT 2018/2 (Sheldrick, 2018)'
_computing_structure_solution     'SHELXT 2018/2 (Sheldrick, 2018)'
;
_shelx_hkl_checksum              69627
_olex2_submission_special_instructions 'No special instructions were received'
_oxdiff_exptl_absorpt_empirical_details
;
Empirical correction (ABSPACK) includes:
- Absorption correction using spherical harmonics
- Frame scaling
;
_oxdiff_exptl_absorpt_empirical_full_max 2.478
_oxdiff_exptl_absorpt_empirical_full_min 0.624
loop_
_space_group_symop_operation_xyz
'x, y, z'
'-x+1/2, -y, z+1/2'
'-x, y+1/2, -z+1/2'
'x+1/2, -y+1/2, -z'
loop_
_atom_site_label
_atom_site_type_symbol
_atom_site_fract_x
_atom_site_fract_y
_atom_site_fract_z
_atom_site_U_iso_or_equiv
_atom_site_adp_type
_atom_site_occupancy
_atom_site_site_symmetry_order
_atom_site_calc_flag
_atom_site_refinement_flags_posn
_atom_site_refinement_flags_adp
_atom_site_refinement_flags_occupancy
_atom_site_disorder_assembly
_atom_site_disorder_group
I1 I 0.90953(14) 0.62827(4) 0.58740(3) 0.00915(18) Uani 1 1 d . . . . .
Br1 Br 0.4607(3) 0.19314(8) 0.38807(6) 0.0204(3) Uani 1 1 d . . . . .
Cu1 Cu 0.4240(4) 0.67229(11) 0.48900(8) 0.0108(3) Uani 1 1 d . . . . .
N1 N 0.351(2) 0.5458(6) 0.4032(4) 0.0116(16) Uani 1 1 d . . . . .
C3 C 0.174(3) 0.3727(9) 0.2931(5) 0.016(2) Uani 1 1 d . . . . .
H3 H 0.116496 0.312989 0.255903 0.019 Uiso 1 1 calc R U . . .
C5 C 0.186(3) 0.5715(8) 0.3344(6) 0.016(2) Uani 1 1 d . . . . .
H5 H 0.131552 0.649972 0.324364 0.019 Uiso 1 1 calc R U . . .
C2 C 0.340(3) 0.3485(8) 0.3645(6) 0.014(2) Uani 1 1 d . . . . .
C1 C 0.428(2) 0.4358(8) 0.4179(5) 0.0120(18) Uani 1 1 d . . . . .
H1 H 0.546674 0.416940 0.466077 0.014 Uiso 1 1 calc R U . . .
C4 C 0.092(3) 0.4885(8) 0.2769(5) 0.017(2) Uani 1 1 d . . . . .
H4 H -0.022576 0.509616 0.228712 0.020 Uiso 1 1 calc R U . . .
loop_
_atom_site_aniso_label
_atom_site_aniso_U_11
_atom_site_aniso_U_22
_atom_site_aniso_U_33
_atom_site_aniso_U_23
_atom_site_aniso_U_13
_atom_site_aniso_U_12
I1 0.0104(3) 0.0074(3) 0.0096(3) 0.0029(2) -0.0003(2) 0.0004(2)
Br1 0.0279(6) 0.0068(4) 0.0266(5) -0.0025(4) 0.0014(5) 0.0017(4)
Cu1 0.0142(7) 0.0073(6) 0.0108(6) -0.0011(4) -0.0019(6) 0.0009(6)
N1 0.015(4) 0.010(3) 0.010(3) 0.002(3) 0.001(3) 0.003(3)
C3 0.027(6) 0.013(4) 0.007(4) -0.004(3) 0.000(4) -0.008(4)
C5 0.022(6) 0.010(4) 0.015(4) 0.001(4) -0.005(4) 0.002(4)
C2 0.018(5) 0.011(4) 0.011(4) 0.000(3) 0.003(4) -0.003(4)
C1 0.016(5) 0.013(4) 0.008(3) 0.001(3) 0.005(4) -0.004(4)
C4 0.024(6) 0.015(4) 0.011(3) -0.003(3) -0.008(5) -0.003(5)
loop_
_atom_type_symbol
_atom_type_description
_atom_type_scat_dispersion_real
_atom_type_scat_dispersion_imag
_atom_type_scat_source
C C 0.0181 0.0091 'International Tables Vol C Tables 4.2.6.8 and 6.1.1.4'
H H 0.0000 0.0000 'International Tables Vol C Tables 4.2.6.8 and 6.1.1.4'
Br Br -0.6763 1.2805 'International Tables Vol C Tables 4.2.6.8 and 6.1.1.4'
Cu Cu -1.9646 0.5888 'International Tables Vol C Tables 4.2.6.8 and 6.1.1.4'
I I -0.3257 6.8362 'International Tables Vol C Tables 4.2.6.8 and 6.1.1.4'
N N 0.0311 0.0180 'International Tables Vol C Tables 4.2.6.8 and 6.1.1.4'
loop_
_geom_angle_atom_site_label_1
_geom_angle_atom_site_label_2
_geom_angle_atom_site_label_3
_geom_angle
_geom_angle_site_symmetry_1
_geom_angle_site_symmetry_3
_geom_angle_publ_flag
Cu1 I1 Cu1 63.40(3) . 4_566 ?
Cu1 I1 Cu1 101.03(5) . 1_655 ?
Cu1 I1 Cu1 62.17(4) 4_566 1_655 ?
I1 Cu1 I1 118.84(6) . 4_466 ?
I1 Cu1 I1 101.03(5) . 1_455 ?
I1 Cu1 I1 115.56(5) 4_466 1_455 ?
I1 Cu1 Cu1 127.97(7) . 4_466 ?
I1 Cu1 Cu1 128.84(7) 1_455 4_566 ?
I1 Cu1 Cu1 60.25(6) 4_466 4_566 ?
I1 Cu1 Cu1 57.58(3) 1_455 4_466 ?
I1 Cu1 Cu1 58.60(3) . 4_566 ?
I1 Cu1 Cu1 58.00(5) 4_466 4_466 ?
Cu1 Cu1 Cu1 96.31(8) 4_466 4_566 ?
N1 Cu1 I1 113.2(2) . . ?
N1 Cu1 I1 107.4(2) . 4_466 ?
N1 Cu1 I1 99.1(2) . 1_455 ?
N1 Cu1 Cu1 131.7(2) . 4_566 ?
N1 Cu1 Cu1 116.6(2) . 4_466 ?
C5 N1 Cu1 119.1(6) . . ?
C1 N1 Cu1 121.6(6) . . ?
C1 N1 C5 118.7(8) . . ?
C2 C3 H3 121.0 . . ?
C2 C3 C4 118.0(9) . . ?
C4 C3 H3 121.0 . . ?
N1 C5 H5 118.4 . . ?
N1 C5 C4 123.2(9) . . ?
C4 C5 H5 118.4 . . ?
C3 C2 Br1 119.4(7) . . ?
C3 C2 C1 120.9(9) . . ?
C1 C2 Br1 119.6(7) . . ?
N1 C1 C2 121.5(9) . . ?
N1 C1 H1 119.3 . . ?
C2 C1 H1 119.3 . . ?
C3 C4 H4 121.2 . . ?
C5 C4 C3 117.6(9) . . ?
C5 C4 H4 121.2 . . ?
loop_
_geom_bond_atom_site_label_1
_geom_bond_atom_site_label_2
_geom_bond_distance
_geom_bond_site_symmetry_2
_geom_bond_publ_flag
I1 Cu1 2.6083(15) . ?
I1 Cu1 2.7001(16) 1_655 ?
I1 Cu1 2.6252(13) 4_566 ?
Br1 C2 1.904(10) . ?
Cu1 Cu1 2.7502(17) 4_566 ?
Cu1 Cu1 2.7502(16) 4_466 ?
Cu1 N1 2.049(8) . ?
N1 C5 1.345(12) . ?
N1 C1 1.334(11) . ?
C3 H3 0.9500 . ?
C3 C2 1.380(14) . ?
C3 C4 1.407(14) . ?
C5 H5 0.9500 . ?
C5 C4 1.398(13) . ?
C2 C1 1.383(12) . ?
C1 H1 0.9500 . ?
C4 H4 0.9500 . ?
loop_
_geom_torsion_atom_site_label_1
_geom_torsion_atom_site_label_2
_geom_torsion_atom_site_label_3
_geom_torsion_atom_site_label_4
_geom_torsion
_geom_torsion_site_symmetry_1
_geom_torsion_site_symmetry_2
_geom_torsion_site_symmetry_3
_geom_torsion_site_symmetry_4
_geom_torsion_publ_flag
Br1 C2 C1 N1 179.3(7) . . . . ?
Cu1 N1 C5 C4 -172.5(8) . . . . ?
Cu1 N1 C1 C2 171.3(7) . . . . ?
N1 C5 C4 C3 0.4(17) . . . . ?
C3 C2 C1 N1 1.4(16) . . . . ?
C5 N1 C1 C2 -0.7(15) . . . . ?
C2 C3 C4 C5 0.3(16) . . . . ?
C1 N1 C5 C4 -0.2(16) . . . . ?
C4 C3 C2 Br1 -179.1(8) . . . . ?
C4 C3 C2 C1 -1.2(16) . . . . ?
loop_
_twin_individual_id
_twin_individual_mass_fraction_refined
1 0.903(11)
2 0.097(11)
