#------------------------------------------------------------------------------
#$Date: 2021-06-05 21:38:46 +0300 (Sat, 05 Jun 2021) $
#$Revision: 266033 $
#$URL: file:///home/coder/svn-repositories/cod/cif/7/70/71/7707128.cif $
#------------------------------------------------------------------------------
#
# This file is available in the Crystallography Open Database (COD),
# http://www.crystallography.net/
#
# All data on this site have been placed in the public domain by the
# contributors.
#
data_7707128
loop_
_publ_author_name
'Joos, Markus'
'Conrad, Maurice'
'Merkle, Rotraut'
'Schleid, Thomas'
'Maier, Joachim'
'Dinnebier, Robert E.'
'Bette, Sebastian'
_publ_section_title
;
 Synthesis, characterization and thermal behaviour of solid phases in the
 quasi-ternary system Mg(SCN)<sub>2</sub>-H<sub>2</sub>O-THF.
;
_journal_issue                   20
_journal_name_full
'Dalton transactions (Cambridge, England : 2003)'
_journal_page_first              6949
_journal_page_last               6961
_journal_paper_doi               10.1039/d1dt00469g
_journal_volume                  50
_journal_year                    2021
_chemical_formula_moiety         '2(C4 H8 O), 2(C N S), Mg, 2(H2 O)'
_chemical_formula_sum            'C10 H20 Mg N2 O4 S2'
_chemical_formula_weight         320.715
_chemical_name_common            '2THF Mg(SCN)2 2H2O'
_chemical_properties_physical
Air-sensitive,Moisture-sensitive,Hygroscopic,Deliquescent,Heat-sensitive
_space_group_IT_number           12
_space_group_name_Hall           '-C 2y'
_space_group_name_H-M_alt        'C 1 2/m 1'
_symmetry_cell_setting           monoclinic
_symmetry_Int_Tables_number      12
_symmetry_space_group_name_H-M   'C 1 2/m 1'
_audit_creation_method           TOPAS
_audit_update_record
;
2021-01-11 deposited with the CCDC.	2021-04-15 downloaded from the CCDC.
;
_cell_angle_alpha                90
_cell_angle_beta                 93.1531(11)
_cell_angle_gamma                90
_cell_formula_units_Z            2
_cell_length_a                   10.74738(14)
_cell_length_b                   8.18934(9)
_cell_length_c                   9.6299(2)
_cell_measurement_temperature    295
_cell_volume                     846.28(2)
_diffrn_ambient_temperature      295
_diffrn_detector
; 
 Lynx Eye 1mm  
;
_diffrn_measurement_device_type  Stoe-Stadi-P
_diffrn_radiation_monochromator
'Johannson Ge(111) primary beam monochromator'
_diffrn_radiation_probe          x-ray
_diffrn_radiation_type           'Cu K\a'
_diffrn_radiation_wavelength     1.5406
_diffrn_source_type              Cu-tube
_exptl_absorpt_process_details
;   
 ?
;
_exptl_crystal_colour            white
_exptl_crystal_density_diffrn    1.26
_exptl_crystal_description       'microcrystalline powder'
_exptl_crystal_recrystallization_method 'Re-crystallisation from solvent: THF'
_pd_calc_method                  'Rietveld Refinement'
_pd_instr_location
; 
'Stoe Stadi P, Debye-Scherrer mode, MPI-FKF, Stuttgart, Germany'
;
_pd_meas_2theta_range_inc        0.015
_pd_meas_2theta_range_max        110.0
_pd_meas_2theta_range_min        5.0
_pd_meas_scan_method             step
_pd_proc_2theta_range_inc        0.015
_pd_proc_2theta_range_max        110.0
_pd_proc_2theta_range_min        5.0
_pd_proc_info_data_reduction     binning
_pd_proc_info_excluded_regions
;
 ?
;
_pd_proc_ls_background_function
;   
'Chebyshev polynomial'
;
_pd_proc_ls_peak_cutoff          0.00100
_pd_proc_ls_profile_function
;
 Fundamental parameters
;
_pd_proc_ls_prof_R_factor        0.0181
_pd_proc_ls_prof_wR_expected     0.0004
_pd_proc_ls_prof_wR_factor       0.0274
_pd_spec_mounting
; 
'0.5 mm glass capillary'
;
_pd_spec_mount_mode              transmission
_pd_spec_shape                   cylinder
_refine_ls_number_parameters     53
_refine_ls_R_Fsqd_factor         0.0185
_cod_data_source_file            d1dt00469g2.cif
_cod_data_source_block           2THF-MgSCN2-2H2O
_cod_depositor_comments
;
The following automatic conversions were performed:

data item '_diffrn_radiation_probe' value 'X-ray' was changed to
'x-ray' in accordance with the
/home/data/users/saulius/crontab/automatic-downloads/rss-feeds/RSC/lib/dictionaries/cif_core.dic
dictionary named 'cif_core.dic' version 2.4.2 last updated on
2011-04-26.

Automatic conversion script
Id: cif_fix_values 7556 2019-12-06 15:28:31Z antanas 

 Adding full bibliography for 7707128--7707132.cif.
;
_cod_original_cell_volume        846.29(2)
_cod_original_sg_symbol_H-M      C2/m
_cod_database_code               7707128
loop_
_symmetry_equiv_pos_as_xyz
'x, y, z '
'-x, y, -z '
'x, -y, z '
'-x, -y, -z '
'x+1/2, y+1/2, z '
'-x+1/2, y+1/2, -z '
'x+1/2, -y+1/2, z '
'-x+1/2, -y+1/2, -z '
loop_
_atom_site_label
_atom_site_type_symbol
_atom_site_symmetry_multiplicity
_atom_site_Wyckoff_symbol
_atom_site_fract_x
_atom_site_fract_y
_atom_site_fract_z
_atom_site_occupancy
_atom_site_B_iso_or_equiv
Mg1 Mg+2 2 b 0 0.5 0 1 2.24(16)
O1 O-2 4 g 0 0.7433(5) 0 1 3.00(16)
C1 C 4 i 0.2434(9) 0 0.1700(7) 1 3.00(8)
N1 N 4 i 0.3384(5) 0 0.1196(5) 1 3.00(8)
S1 S 4 i 0.1081(11) 0 0.2418(9) 1 3.00(8)
O11 O 4 i 0.8807(6) 0.5 0.8100(5) 1 2.09(14)
C11 C 8 j 0.7474(8) 0.4634(19) 0.7910(13) 0.5 2.09(14)
C12 C 8 j 0.9318(16) 0.5114(7) 0.6724(11) 0.5 2.09(14)
C13 C 8 j 0.823(3) 0.517(4) 0.5694(15) 0.5 2.09(14)
C14 C 8 j 0.722(2) 0.433(4) 0.6390(16) 0.5 2.09(14)
loop_
_geom_angle_atom_site_label_1
_geom_angle_atom_site_label_2
_geom_angle_atom_site_label_3
_geom_angle
_geom_angle_site_symmetry_1
_geom_angle_site_symmetry_2
_geom_angle_site_symmetry_3
O11 Mg1 O1 90.000(1) 1_555 1_555 1_555
loop_
_geom_bond_atom_site_label_1
_geom_bond_atom_site_label_2
_geom_bond_distance
_geom_bond_multiplicity
Mg1 O1 1.993(4) 2
