#------------------------------------------------------------------------------
#$Date: 2021-06-05 22:01:03 +0300 (Sat, 05 Jun 2021) $
#$Revision: 266104 $
#$URL: file:///home/coder/svn-repositories/cod/cif/7/70/72/7707286.cif $
#------------------------------------------------------------------------------
#
# This file is available in the Crystallography Open Database (COD),
# http://www.crystallography.net/
#
# All data on this site have been placed in the public domain by the
# contributors.
#
data_7707286
loop_
_publ_author_name
'Yang, Zhen-Li'
'Wu, Yue-Mei'
'He, Piao'
'Cao, Wen-Li'
'Manzoor, Saira'
'Zhang, Jian-Guo'
_publ_section_title
;
 Synthesis and characterization of promising insensitive energetic salts
 based on 3-amino-5-hydrazinopyrazole.
;
_journal_issue                   21
_journal_name_full
'Dalton transactions (Cambridge, England : 2003)'
_journal_page_first              7456
_journal_page_last               7463
_journal_paper_doi               10.1039/d1dt00527h
_journal_volume                  50
_journal_year                    2021
_chemical_formula_moiety         '2(Cl), C3 H9 N5'
_chemical_formula_sum            'C3 H9 Cl2 N5'
_chemical_formula_weight         186.05
_space_group_crystal_system      triclinic
_space_group_IT_number           2
_space_group_name_Hall           '-P 1'
_space_group_name_H-M_alt        'P -1'
_atom_sites_solution_hydrogens   mixed
_atom_sites_solution_primary     dual
_audit_creation_date             2018-10-11
_audit_creation_method
;
Olex2 1.2
(compiled 2018.05.29 svn.r3508 for OlexSys, GUI svn.r5506)
;
_audit_update_record
;
2020-05-24 deposited with the CCDC.	2021-04-28 downloaded from the CCDC.
;
_cell_angle_alpha                74.96(3)
_cell_angle_beta                 80.75(3)
_cell_angle_gamma                88.14(3)
_cell_formula_units_Z            2
_cell_length_a                   5.1549(10)
_cell_length_b                   6.9133(14)
_cell_length_c                   11.867(2)
_cell_measurement_reflns_used    1414
_cell_measurement_temperature    293(2)
_cell_measurement_theta_max      27.4739
_cell_measurement_theta_min      3.0512
_cell_volume                     403.09(15)
_computing_molecular_graphics    'Olex2 (Dolomanov et al., 2009)'
_computing_publication_material  'Olex2 (Dolomanov et al., 2009)'
_computing_structure_refinement  'ShelXL (Sheldrick, 2015)'
_computing_structure_solution    'ShelXT (Sheldrick, 2015)'
_diffrn_ambient_temperature      293(2)
_diffrn_measured_fraction_theta_full 0.986
_diffrn_measured_fraction_theta_max 0.976
_diffrn_measurement_device_type  'multiwire proportional'
_diffrn_measurement_method       'phi and omega scans'
_diffrn_radiation_monochromator  graphite
_diffrn_radiation_type           MoK\a
_diffrn_radiation_wavelength     0.71073
_diffrn_reflns_av_R_equivalents  0.0326
_diffrn_reflns_av_unetI/netI     0.0386
_diffrn_reflns_Laue_measured_fraction_full 0.986
_diffrn_reflns_Laue_measured_fraction_max 0.976
_diffrn_reflns_limit_h_max       6
_diffrn_reflns_limit_h_min       -6
_diffrn_reflns_limit_k_max       7
_diffrn_reflns_limit_k_min       -8
_diffrn_reflns_limit_l_max       15
_diffrn_reflns_limit_l_min       -15
_diffrn_reflns_number            3564
_diffrn_reflns_point_group_measured_fraction_full 0.986
_diffrn_reflns_point_group_measured_fraction_max 0.976
_diffrn_reflns_theta_full        25.242
_diffrn_reflns_theta_max         27.493
_diffrn_reflns_theta_min         1.799
_exptl_absorpt_coefficient_mu    0.741
_exptl_absorpt_correction_T_max  1.0000
_exptl_absorpt_correction_T_min  0.8043
_exptl_absorpt_correction_type   multi-scan
_exptl_absorpt_process_details   'CrystalClear (Rigaku Inc., 2008)'
_exptl_crystal_colour            colorless
_exptl_crystal_density_diffrn    1.533
_exptl_crystal_description       block
_exptl_crystal_F_000             192
_exptl_crystal_size_max          0.13
_exptl_crystal_size_mid          0.12
_exptl_crystal_size_min          0.08
_refine_diff_density_max         0.394
_refine_diff_density_min         -0.326
_refine_diff_density_rms         0.074
_refine_ls_extinction_method     none
_refine_ls_goodness_of_fit_ref   1.105
_refine_ls_hydrogen_treatment    constr
_refine_ls_matrix_type           full
_refine_ls_number_parameters     91
_refine_ls_number_reflns         1803
_refine_ls_number_restraints     0
_refine_ls_restrained_S_all      1.105
_refine_ls_R_factor_all          0.0371
_refine_ls_R_factor_gt           0.0344
_refine_ls_shift/su_max          0.000
_refine_ls_shift/su_mean         0.000
_refine_ls_structure_factor_coef Fsqd
_refine_ls_weighting_details
'w=1/[\s^2^(Fo^2^)+(0.0323P)^2^+0.3560P] where P=(Fo^2^+2Fc^2^)/3'
_refine_ls_weighting_scheme      calc
_refine_ls_wR_factor_gt          0.0841
_refine_ls_wR_factor_ref         0.0874
_reflns_Friedel_coverage         0.000
_reflns_number_gt                1699
_reflns_number_total             1803
_reflns_threshold_expression     'I > 2\s(I)'
_iucr_refine_instructions_details
;
TITL bwn18298_a.res in P-1
    bwn18298.res
    created by SHELXL-2018/3 at 13:46:06 on 11-Oct-2018
CELL 0.71073 5.1549 6.9133 11.867 74.963 80.753 88.137
ZERR 2 0.001 0.0014 0.0024 0.03 0.03 0.03
LATT 1
SFAC C H Cl N
UNIT 6 18 4 10

L.S. 4
PLAN  5
SIZE 0.13 0.12 0.08
TEMP -120
ACTA
BOND $H
CONF
list 4
fmap 2
OMIT -1 -3 6
OMIT -2 0 12
OMIT -3 0 12
REM <olex2.extras>
REM <HklSrc "%.\\bwn18298.hkl">
REM </olex2.extras>

WGHT    0.032300    0.356000
FVAR       1.09528
CL2   3    0.814813    0.209361    0.142191    11.00000    0.01889    0.01536 =
         0.01977   -0.00530   -0.00054    0.00165
CL1   3   -0.266545    0.232235    0.473748    11.00000    0.01778    0.01621 =
         0.02037   -0.00325    0.00204   -0.00171
N1    4    0.379070    0.532050    0.147590    11.00000    0.01652    0.01533 =
         0.02314   -0.00687    0.00171    0.00270
AFIX   3  0.8500
H1    2    0.486000    0.435320    0.150410    11.00000   -1.20000
AFIX   0
N2    4    0.159564    0.492111    0.236632    11.00000    0.01676    0.01437 =
         0.02493   -0.00534    0.00256   -0.00162
AFIX   3  0.8500
H2    2    0.048504    0.404871    0.235232    11.00000   -1.20000
AFIX   0
N5    4    0.680306    0.798262    0.063641    11.00000    0.01760    0.02504 =
         0.02147   -0.00870    0.00605   -0.00287
AFIX   3  0.8500
H5A   2    0.740416    0.910412    0.065221    11.00000   -1.20000
H5B   2    0.782696    0.738722    0.020201    11.00000   -1.20000
AFIX   0
N4    4   -0.183681    0.853726    0.374831    11.00000    0.01570    0.01612 =
         0.01862   -0.00407    0.00284    0.00083
AFIX   3  0.8500
H4A   2   -0.061201    0.860456    0.413871    11.00000   -1.20000
H4B   2   -0.179231    0.958626    0.318101    11.00000   -1.20000
H4C   2   -0.340081    0.844376    0.411931    11.00000   -1.20000
AFIX   0
C2    1    0.274213    0.815617    0.202502    11.00000    0.01599    0.01450 =
         0.01713   -0.00438    0.00043   -0.00088
AFIX  43
H2A   2    0.276183    0.950539    0.207405    11.00000   -1.20000
AFIX   0
C1    1    0.458924    0.722646    0.133671    11.00000    0.01536    0.01670 =
         0.01624   -0.00405   -0.00462    0.00164
N3    4   -0.149491    0.679633    0.330090    11.00000    0.01660    0.01248 =
         0.02002   -0.00249    0.00304   -0.00152
AFIX   3  0.8500
H3    2   -0.206161    0.571883    0.380220    11.00000   -1.20000
AFIX   0
C3    1    0.088915    0.669168    0.261607    11.00000    0.01362    0.01419 =
         0.01615   -0.00327   -0.00318    0.00111
HKLF 4




REM  bwn18298_a.res in P-1
REM wR2 = 0.0874, GooF = S = 1.105, Restrained GooF = 1.105 for all data
REM R1 = 0.0344 for 1699 Fo > 4sig(Fo) and 0.0371 for all 1803 data
REM 91 parameters refined using 0 restraints

END  
     
WGHT      0.0323      0.3559 

REM Highest difference peak  0.394,  deepest hole -0.326,  1-sigma level  0.074
Q1    1   0.3705  0.7646  0.1812  11.00000  0.05    0.39
Q2    1   0.2013  0.7540  0.2577  11.00000  0.05    0.34
Q3    1   0.4410  0.6432  0.1473  11.00000  0.05    0.32
Q4    1   0.9762  0.3013  0.1540  11.00000  0.05    0.27
Q5    1  -0.2745  0.9369  0.5220  11.00000  0.05    0.25

  REM The information below was added by Olex2.
  REM
  REM R1 = 0.0344 for 1699 Fo > 4sig(Fo) and 0.0371 for all 3567 data
  REM n/a parameters refined using n/a restraints
  REM Highest difference peak 0.39, deepest hole -0.33
  REM Mean Shift 0, Max Shift 0.000.

  REM +++ Tabular Listing of Refinement Information +++
  REM R1_all = 0.0371
  REM R1_gt = 0.0344
  REM wR_ref = 0.0874
  REM GOOF = 1.105
  REM Shift_max = 0.000
  REM Shift_mean = 0
  REM Reflections_all = 3567
  REM Reflections_gt = 1699
  REM Parameters = n/a
  REM Hole = -0.33
  REM Peak = 0.39
  REM Flack = n/a

  
;
_cod_data_source_file            d1dt00527h2.cif
_cod_data_source_block           bwn18298
_cod_depositor_comments
'Adding full bibliography for 7707286--7707290.cif.'
_cod_original_cell_volume        403.10(15)
_cod_database_code               7707286
_shelx_shelxl_version_number     2018/3
_shelx_space_group_comment
;
The symmetry employed for this shelxl refinement is uniquely defined
by the following loop, which should always be used as a source of
symmetry information in preference to the above space-group names.
They are only intended as comments.
;
_shelx_estimated_absorpt_t_max   0.943
_shelx_estimated_absorpt_t_min   0.910
_olex2_refinement_description
;
1. Fixed Uiso
 At 1.2 times of:
  All C(H) groups, All N(H) groups, All N(H,H) groups, All N(H,H,H) groups
2.a Riding coordinates:
 N1(H1), N2(H2), N5(H5A,H5B), N4(H4A,H4B,H4C), N3(H3)
2.b Aromatic/amide H refined with riding coordinates:
 C2(H2A)
;
_olex2_submission_special_instructions 'No special instructions were received'
loop_
_space_group_symop_operation_xyz
'x, y, z'
'-x, -y, -z'
loop_
_atom_site_label
_atom_site_type_symbol
_atom_site_fract_x
_atom_site_fract_y
_atom_site_fract_z
_atom_site_U_iso_or_equiv
_atom_site_adp_type
_atom_site_occupancy
_atom_site_site_symmetry_order
_atom_site_calc_flag
_atom_site_refinement_flags_posn
_atom_site_refinement_flags_adp
_atom_site_refinement_flags_occupancy
_atom_site_disorder_assembly
_atom_site_disorder_group
Cl2 Cl 0.81481(9) 0.20936(6) 0.14219(4) 0.01818(14) Uani 1 1 d . . . . .
Cl1 Cl -0.26654(9) 0.23224(6) 0.47375(4) 0.01892(14) Uani 1 1 d . . . . .
N1 N 0.3791(3) 0.5321(2) 0.14759(14) 0.0186(3) Uani 1 1 d . . . . .
H1 H 0.486000 0.435320 0.150410 0.022 Uiso 1 1 d R . . . .
N2 N 0.1596(3) 0.4921(2) 0.23663(15) 0.0193(3) Uani 1 1 d . . . . .
H2 H 0.048504 0.404871 0.235232 0.023 Uiso 1 1 d R . . . .
N5 N 0.6803(3) 0.7983(3) 0.06364(15) 0.0218(4) Uani 1 1 d . . . . .
H5A H 0.740416 0.910412 0.065221 0.026 Uiso 1 1 d R . . . .
H5B H 0.782696 0.738722 0.020201 0.026 Uiso 1 1 d R . . . .
N4 N -0.1837(3) 0.8537(2) 0.37483(14) 0.0175(3) Uani 1 1 d . . . . .
H4A H -0.061201 0.860456 0.413871 0.021 Uiso 1 1 d R . . . .
H4B H -0.179231 0.958626 0.318101 0.021 Uiso 1 1 d R . . . .
H4C H -0.340081 0.844376 0.411931 0.021 Uiso 1 1 d R . . . .
C2 C 0.2742(4) 0.8156(3) 0.20250(16) 0.0161(4) Uani 1 1 d . . . . .
H2A H 0.276183 0.950539 0.207405 0.019 Uiso 1 1 calc R . . . .
C1 C 0.4589(4) 0.7226(3) 0.13367(16) 0.0159(4) Uani 1 1 d . . . . .
N3 N -0.1495(3) 0.6796(2) 0.33009(14) 0.0173(3) Uani 1 1 d . . . . .
H3 H -0.206161 0.571883 0.380220 0.021 Uiso 1 1 d R . . . .
C3 C 0.0889(4) 0.6692(3) 0.26161(16) 0.0147(4) Uani 1 1 d . . . . .
loop_
_atom_site_aniso_label
_atom_site_aniso_U_11
_atom_site_aniso_U_22
_atom_site_aniso_U_33
_atom_site_aniso_U_23
_atom_site_aniso_U_13
_atom_site_aniso_U_12
Cl2 0.0189(2) 0.0154(2) 0.0198(2) -0.00530(17) -0.00054(17) 0.00165(17)
Cl1 0.0178(2) 0.0162(2) 0.0204(2) -0.00325(17) 0.00204(18) -0.00171(17)
N1 0.0165(8) 0.0153(8) 0.0231(8) -0.0069(6) 0.0017(6) 0.0027(6)
N2 0.0168(8) 0.0144(7) 0.0249(8) -0.0053(6) 0.0026(7) -0.0016(6)
N5 0.0176(8) 0.0250(9) 0.0215(8) -0.0087(7) 0.0061(7) -0.0029(7)
N4 0.0157(8) 0.0161(8) 0.0186(8) -0.0041(6) 0.0028(6) 0.0008(6)
C2 0.0160(9) 0.0145(8) 0.0171(9) -0.0044(7) 0.0004(7) -0.0009(7)
C1 0.0154(9) 0.0167(9) 0.0162(8) -0.0040(7) -0.0046(7) 0.0016(7)
N3 0.0166(8) 0.0125(7) 0.0200(8) -0.0025(6) 0.0030(6) -0.0015(6)
C3 0.0136(9) 0.0142(8) 0.0161(8) -0.0033(7) -0.0032(7) 0.0011(7)
loop_
_atom_type_symbol
_atom_type_description
_atom_type_scat_dispersion_real
_atom_type_scat_dispersion_imag
_atom_type_scat_source
C C 0.0033 0.0016 'International Tables Vol C Tables 4.2.6.8 and 6.1.1.4'
H H 0.0000 0.0000 'International Tables Vol C Tables 4.2.6.8 and 6.1.1.4'
Cl Cl 0.1484 0.1585 'International Tables Vol C Tables 4.2.6.8 and 6.1.1.4'
N N 0.0061 0.0033 'International Tables Vol C Tables 4.2.6.8 and 6.1.1.4'
loop_
_geom_angle_atom_site_label_1
_geom_angle_atom_site_label_2
_geom_angle_atom_site_label_3
_geom_angle
_geom_angle_site_symmetry_1
_geom_angle_site_symmetry_3
_geom_angle_publ_flag
N2 N1 H1 113.9 . . ?
C1 N1 H1 122.4 . . ?
C1 N1 N2 107.93(15) . . ?
N1 N2 H2 118.4 . . ?
C3 N2 N1 106.64(15) . . ?
C3 N2 H2 123.0 . . ?
H5A N5 H5B 113.3 . . ?
C1 N5 H5A 120.5 . . ?
C1 N5 H5B 125.8 . . ?
H4A N4 H4B 109.1 . . ?
H4A N4 H4C 117.0 . . ?
H4B N4 H4C 105.9 . . ?
N3 N4 H4A 109.5 . . ?
N3 N4 H4B 110.1 . . ?
N3 N4 H4C 105.0 . . ?
C1 C2 H2A 127.3 . . ?
C3 C2 H2A 127.3 . . ?
C3 C2 C1 105.34(16) . . ?
N1 C1 C2 109.01(16) . . ?
N5 C1 N1 122.15(17) . . ?
N5 C1 C2 128.84(18) . . ?
N4 N3 H3 114.0 . . ?
C3 N3 N4 114.78(15) . . ?
C3 N3 H3 116.3 . . ?
N2 C3 C2 110.32(16) . . ?
N2 C3 N3 118.38(16) . . ?
N3 C3 C2 131.11(17) . . ?
loop_
_geom_bond_atom_site_label_1
_geom_bond_atom_site_label_2
_geom_bond_distance
_geom_bond_site_symmetry_2
_geom_bond_publ_flag
N1 H1 0.8500 . ?
N1 N2 1.399(2) . ?
N1 C1 1.354(2) . ?
N2 H2 0.8500 . ?
N2 C3 1.358(2) . ?
N5 H5A 0.8500 . ?
N5 H5B 0.8499 . ?
N5 C1 1.332(2) . ?
N4 H4A 0.8500 . ?
N4 H4B 0.8500 . ?
N4 H4C 0.8500 . ?
N4 N3 1.432(2) . ?
C2 H2A 0.9500 . ?
C2 C1 1.403(3) . ?
C2 C3 1.381(3) . ?
N3 H3 0.8500 . ?
N3 C3 1.371(2) . ?
loop_
_geom_torsion_atom_site_label_1
_geom_torsion_atom_site_label_2
_geom_torsion_atom_site_label_3
_geom_torsion_atom_site_label_4
_geom_torsion
_geom_torsion_site_symmetry_1
_geom_torsion_site_symmetry_2
_geom_torsion_site_symmetry_3
_geom_torsion_site_symmetry_4
_geom_torsion_publ_flag
N1 N2 C3 C2 -7.5(2) . . . . ?
N1 N2 C3 N3 167.99(16) . . . . ?
N2 N1 C1 N5 172.93(18) . . . . ?
N2 N1 C1 C2 -7.3(2) . . . . ?
N4 N3 C3 N2 166.24(16) . . . . ?
N4 N3 C3 C2 -19.4(3) . . . . ?
C1 N1 N2 C3 9.0(2) . . . . ?
C1 C2 C3 N2 3.1(2) . . . . ?
C1 C2 C3 N3 -171.6(2) . . . . ?
C3 C2 C1 N1 2.7(2) . . . . ?
C3 C2 C1 N5 -177.5(2) . . . . ?
loop_
_refln_index_h
_refln_index_k
_refln_index_l
_refln_F_squared_meas
_refln_F_squared_sigma
0 0 1 -0.02 0.07
0 0 -1 0.09 0.06
0 0 1 0.09 0.1
0 0 -1 -0.02 0.08
0 0 2 152.92 1.8
0 0 -2 144.87 1.74
0 0 2 144.5 1.87
0 0 -2 144.54 1.91
0 0 -3 3183.39 28.16
0 0 3 3477.25 30.96
0 0 -3 3310.41 29.47
0 0 4 224.77 2.9
0 0 -4 238.88 2.94
0 0 4 215.44 3.02
0 0 -4 227.17 3.03
0 0 5 314.04 3.89
0 0 -5 293.72 3.71
0 0 5 286.36 3.93
0 0 -5 304.03 3.94
0 0 6 466.39 9.19
0 0 -6 479.91 9.39
0 0 -6 438.05 8.66
0 0 6 465.54 9.36
0 0 7 17.63 0.92
0 0 -7 16.12 0.89
0 0 -7 22.15 1.04
0 0 7 16.42 1.03
0 0 8 462.59 8.53
0 0 -8 546.93 10.28
0 0 8 524.62 10.14
0 0 9 25.96 1.97
0 0 -9 26.63 2.03
0 0 9 56.44 5.2
0 0 10 485.84 15.88
0 0 -10 537.04 17.5
0 0 10 644.33 21.86
0 0 11 179.81 9.54
0 0 -11 192.73 10.05
0 0 11 185.57 10.68
0 0 12 67.24 7.68
0 0 -12 59.36 4.73
0 0 12 63.94 7.43
0 0 13 140.38 8.28
0 0 -13 176.32 10.46
0 0 -14 25.49 4.97
0 0 14 22.45 6.7
0 -1 14 1.17 0.89
0 -1 13 13.3 1.6
0 1 -13 15.06 1.55
0 -1 13 17.84 3.02
0 -1 12 483.3 26.46
0 -1 12 898.44 49.44
0 -1 11 136.09 7.31
0 1 -11 117.77 6.36
0 -1 11 144.01 8.25
0 -1 10 2.94 0.7
0 1 -10 2.28 0.93
0 -1 9 410.47 11.54
0 1 -9 361.4 10.07
0 -1 9 375.57 10.86
0 -1 8 48.61 3.43
0 -1 8 43.43 3.27
0 -1 7 83.69 5.57
0 -1 7 71.59 4.88
0 -1 6 1029.84 19.54
0 -1 6 1133.03 21.5
0 -1 5 4.43 0.52
0 1 -5 4.59 0.63
0 -1 5 3.79 0.52
0 -1 4 1729.27 16.37
0 1 -4 1752.26 16.5
0 -1 4 1741.4 16.4
0 -1 3 269.02 3.43
0 1 -3 269.29 3.35
0 -1 2 1740.36 15.95
0 1 -2 1796.31 16.41
0 1 -2 1780.11 15.87
0 -1 1 959.25 9.01
0 1 -1 981.61 9.22
0 1 -1 937.99 8.47
0 -1 0 80.39 1.19
0 1 0 81.26 1.17
0 -1 0 79.17 1.3
0 1 0 78.97 1.06
0 -1 -1 272.19 2.8
0 -1 -1 287.2 3.04
0 1 1 282.66 2.99
0 1 1 282.32 3.05
0 -1 -1 283.44 2.92
0 -1 -2 85.35 1.13
0 1 2 82.89 1.37
0 1 2 85.41 1.44
0 -1 -2 81.84 1.28
0 1 3 104.73 1.53
0 -1 -3 113.16 1.47
0 -1 -3 109.67 1.85
0 1 3 113.64 1.82
0 1 3 110.78 1.78
0 -1 -3 103.01 1.83
0 1 4 822.1 7.91
0 -1 -4 832 7.89
0 -1 -4 796.13 8.23
0 -1 -4 790.67 8.1
0 1 5 13.5 0.82
0 -1 -5 15.91 0.62
0 -1 -5 17.24 0.82
0 1 5 16.02 0.96
0 -1 -5 16.19 0.86
0 1 6 2039.21 37.52
0 -1 -6 1855.86 34
0 -1 -6 1890.95 34.99
0 1 6 1855.66 34.35
0 1 7 425.44 8.42
0 -1 -7 423.94 8.33
0 1 7 458.18 9.41
0 1 8 9.42 1.53
0 -1 -8 7.02 0.71
0 -1 -8 7.55 0.92
0 1 8 7.89 1.38
0 1 9 894.52 23.63
0 -1 -9 875.64 23.41
0 1 9 880.62 23.77
0 1 10 128.63 14.15
0 -1 -10 130.93 14.47
0 1 10 120.31 8.76
0 1 11 25.59 3.55
0 -1 -11 30.43 2.63
0 1 11 25.51 3.65
0 1 12 115.46 6.15
0 -1 -12 115.31 6.4
0 1 12 111.44 9.35
0 1 13 16.72 3.24
0 -1 -13 14.69 1.68
0 1 13 25.31 2.82
0 -1 -14 6.86 1.59
0 1 14 7.04 2
0 -1 -15 98.24 5.46
0 1 15 92.46 8.51
0 -2 13 1.56 0.87
0 -2 13 0.46 1.9
0 -2 12 6.94 1.02
0 -2 12 8.08 1.46
0 -2 11 2.01 0.91
0 2 -11 2.54 0.99
0 -2 11 2.45 1.11
0 -2 10 175.92 9.37
0 -2 10 178.71 9.61
0 -2 9 289.6 10.03
0 -2 9 282.79 9.84
0 -2 8 2.68 0.79
0 -2 8 3.09 0.93
0 -2 7 1.14 0.47
0 2 -7 0.74 0.34
0 -2 6 1980.72 33.26
0 2 -6 1901.32 31.43
0 -2 6 1987.05 33.22
0 -2 5 118.87 3.17
0 2 -5 120.86 3.48
0 -2 5 137.09 3.42
0 2 -4 26.81 1.25
0 -2 3 540 6.25
0 2 -3 503.27 5.91
0 2 -3 511.9 5.35
0 -2 2 280.43 3.75
0 2 -2 285.8 3.73
0 -2 2 274.54 3.14
0 2 -2 269.47 3.07
0 2 -1 396.68 4.58
0 2 -1 393.25 4.14
0 2 0 4664.45 41.21
0 -2 0 4687.43 41.45
0 2 0 4541.34 39.9
0 -2 -1 9.74 0.52
0 2 1 6.89 0.46
0 -2 -1 8.21 0.52
0 2 1 8.9 0.52
0 -2 -1 7.72 1.19
0 -2 -2 1733.93 15.82
0 2 2 1697.33 15.52
0 -2 -2 1722.48 16.06
0 2 2 1779.85 16.38
0 2 2 1722.96 15.89
0 -2 -2 1730.08 15.88
0 -2 -3 1321.51 12.24
0 -2 -3 1338.61 12.46
0 -2 -3 1235.25 12.1
0 2 3 1238.54 12.02
0 2 3 1249.57 12.1
0 -2 -3 1225.25 11.8
0 -2 -4 78.64 1.63
0 -2 -4 69.29 1.25
0 -2 -4 65.47 1.61
0 2 4 73.22 1.67
0 2 4 65.47 1.56
0 -2 -4 72.55 1.56
0 2 5 1620.16 14.93
0 -2 -5 1579.5 14.88
0 -2 -5 1583.38 15.54
0 2 5 1607.59 15.65
0 2 6 83.47 2.01
0 -2 -6 93.57 2.76
0 2 6 78.17 2.27
0 2 7 72.72 2.04
0 -2 -7 80.32 2.05
0 -2 -7 85.73 2.76
0 2 7 74.35 6.97
0 2 8 171.91 3.67
0 -2 -8 162.7 3.41
0 -2 -8 198.44 4.78
0 2 8 156.16 3.82
0 2 9 123.47 7.97
0 -2 -9 109.5 7.07
0 2 9 135.78 4.54
0 2 10 10.71 1.81
0 -2 -10 11.07 1.38
0 2 10 10.8 2.02
0 2 11 130.3 14.34
0 -2 -11 113.32 8.3
0 2 11 124.86 12.93
0 2 12 270.36 9.38
0 -2 -12 258.78 9.29
0 2 12 237.58 18.92
0 -2 -13 65.16 5.25
0 2 13 60.58 7.26
0 -2 -14 4.49 1
0 2 14 0.89 0.94
0 -2 -15 467.14 22.24
0 2 15 486.8 24.24
0 -3 12 363.97 17.57
0 -3 12 342.06 16.61
0 -3 11 -0.35 0.59
0 -3 11 0.48 0.84
0 -3 10 203.22 11.63
0 -3 10 200.71 11.52
0 -3 9 190.44 10.11
0 -3 9 201.7 7.49
0 -3 8 19.39 1.88
0 -3 8 18.16 1.82
0 -3 7 94.33 7.01
0 -3 7 88.07 6.55
0 -3 6 250.34 7.54
0 3 -6 230.16 6.44
0 -3 6 255.24 7.56
0 -3 5 15.43 1.48
0 3 -5 12.48 1.55
0 -3 4 839.83 14.91
0 3 -4 877.34 14.83
0 -3 3 172.92 4.22
0 -3 3 197.54 4.26
0 3 -3 181.46 3.9
0 -3 2 30.04 1.3
0 -3 2 27.74 1.49
0 3 -2 27.52 1.31
0 -3 1 423.04 5.49
0 -3 1 462.84 5.14
0 3 -1 448.29 4.94
0 -3 0 1796.06 17.26
0 3 0 1748.1 16.62
0 -3 0 1744.13 16.43
0 3 0 1732.07 16.19
0 -3 -1 1.67 0.47
0 3 1 -0.03 0.38
0 -3 -1 0.64 0.41
0 3 1 0.72 0.29
0 -3 -1 1.14 0.28
0 -3 -2 41.39 1.2
0 3 2 47.69 1.26
0 -3 -2 47.48 1.34
0 3 2 43.96 1.24
0 -3 -2 46.82 1.94
0 3 3 2856.06 25.83
0 -3 -3 2733.55 25.36
0 3 3 2591.88 24.25
0 -3 -3 2682.21 24.65
0 -3 -4 124.14 2.84
0 -3 -4 130.1 2.96
0 -3 -4 123.45 3.14
0 3 4 120.3 3.04
0 -3 -5 276.11 5.84
0 -3 -5 302.67 6.13
0 -3 -5 297.82 6.49
0 3 5 302.51 6.44
0 -3 -6 776.91 14.62
0 -3 -6 772.01 14.54
0 -3 -6 824.5 16.2
0 3 6 761.92 14.85
0 -3 -7 193.28 3.99
0 -3 -7 186.45 3.7
0 -3 -7 197.58 4.68
0 3 7 203.2 5.95
0 3 8 122.04 7.85
0 -3 -8 125.11 8.04
0 -3 -8 141.79 3.92
0 3 8 138.64 3.64
0 3 9 1063.81 27.85
0 -3 -9 978.9 25.66
0 -3 -9 1054.48 28.3
0 3 9 1099.26 29.42
0 3 10 5.43 1.26
0 -3 -10 7.82 1.17
0 3 10 5.79 1.07
0 3 11 231.52 8.2
0 -3 -11 251.94 9.17
0 3 11 204.87 7.62
0 3 12 29.43 3.93
0 -3 -12 33.8 4.23
0 3 12 31.91 7.14
0 -3 -13 75.48 5.02
0 3 13 85.49 10.06
0 -3 -14 128.81 8.05
0 3 14 130.12 11.52
0 -3 -15 44.79 3.48
0 3 15 33.74 5.64
0 -4 11 31.19 2.63
0 -4 11 31.92 2.66
0 -4 10 154.32 9.41
0 -4 10 167.61 10.07
0 -4 9 229.97 13.1
0 -4 9 246.78 14.02
0 -4 8 31.44 3.89
0 -4 8 25.07 3.12
0 -4 7 3.59 1.07
0 -4 7 3.42 0.95
0 -4 6 1209 131.46
0 -4 5 26.78 2.26
0 4 -5 11.74 2.36
0 -4 4 71.74 5.02
0 4 -4 59.2 5.19
0 -4 3 1114.38 19.57
0 -4 3 1038.77 17.65
0 4 -3 951.49 16.12
0 -4 2 30.53 2.38
0 -4 2 27.99 3.26
0 4 -2 27.3 1.94
0 -4 1 166.51 3.98
0 -4 1 171 3.84
0 4 -1 153.07 3.25
0 -4 0 1214.28 23.07
0 -4 0 1189.52 22.37
0 4 0 1120.46 21.02
0 -4 -1 392.97 8.17
0 -4 -1 367.95 7.54
0 4 1 379.53 7.7
0 -4 -2 211.87 4.77
0 -4 -2 196.56 4.52
0 -4 -3 1476.55 27.69
0 -4 -4 13.48 0.86
0 -4 -4 16.19 1.06
0 4 4 13.87 0.9
0 -4 -5 675.7 11.81
0 -4 -5 721.17 13.08
0 4 5 696.86 12.52
0 -4 -6 251.46 4.97
0 -4 -6 269.8 5.94
0 4 6 259.85 5.56
0 -4 -7 104.23 6.79
0 -4 -7 113.94 7.64
0 4 7 111.16 7.72
0 -4 -8 130.21 8.38
0 -4 -8 130.49 8.7
0 4 8 132.55 9.55
0 -4 -9 570.08 18.26
0 -4 -9 511.69 17.05
0 4 9 515.94 17.11
0 -4 -10 20.28 1.7
0 -4 -10 20.44 2.13
0 4 10 24.64 4.37
0 -4 -11 188.71 9.62
0 -4 -11 203.67 7.81
0 4 11 175.72 10.54
0 -4 -12 169.66 9.93
0 4 12 203.85 11.72
0 -4 -13 194.6 11.64
0 4 13 202.25 18.32
0 -4 -14 9.74 2.36
0 4 14 7.88 2.99
0 -5 10 102.8 5.85
0 -5 10 101.6 5.86
0 -5 9 20.61 4.14
0 -5 9 19.76 4
0 -5 8 81.13 5.5
0 -5 8 76.67 5.02
0 -5 7 66.36 5.5
0 -5 7 65.1 5.23
0 -5 6 10.34 1.74
0 -5 5 13.56 1.94
0 -5 4 106.35 7.86
0 -5 3 247.45 8.75
0 -5 3 228.19 7.65
0 -5 2 0.88 1.04
0 -5 2 0.33 0.24
0 -5 1 220.21 6.81
0 -5 1 278.25 8.01
0 -5 0 247.81 5.71
0 -5 0 214.08 4.72
0 -5 -1 63.07 4.46
0 -5 -1 56.51 5.44
0 -5 -2 872.5 15.67
0 -5 -3 695.71 12.57
0 -5 -3 705.64 12.84
0 -5 -4 2.15 0.86
0 -5 -4 1.79 0.81
0 -5 -5 213.93 6.3
0 -5 -5 198.1 6.19
0 -5 -6 240.53 6.96
0 -5 -6 248.98 7.61
0 5 6 250.44 7.5
0 -5 -7 15.94 1.4
0 -5 -7 19.57 1.82
0 5 7 18.52 2.26
0 -5 -8 128.65 14.15
0 -5 -8 143.77 5.66
0 5 8 140.39 5.37
0 -5 -9 420.34 13.71
0 -5 -9 426.31 14.59
0 5 9 430.17 14.71
0 -5 -10 64.36 4.24
0 5 10 61.58 6.24
0 -5 -11 127.49 7.24
0 -5 -11 157.49 9.54
0 5 11 132.6 8.54
0 -5 -12 7.15 1.43
0 5 12 7.59 1.36
0 -5 -13 1.44 1.23
0 5 13 0.52 0.8
0 5 14 158.81 9.42
0 -6 8 9.68 2.32
0 -6 8 9.7 2.12
0 -6 7 4.14 1.42
0 -6 7 7.69 2.05
0 -6 6 588.22 33.31
0 -6 5 30.75 3
0 -6 4 191.36 11.08
0 -6 3 575.13 19.37
0 -6 3 551.36 18
0 -6 2 113.31 6.38
0 -6 2 116.2 6.27
0 -6 1 506.92 16.96
0 -6 1 502.73 16.61
0 -6 0 13.57 1.51
0 -6 0 13.03 2.22
0 -6 -1 84.68 6.96
0 -6 -2 892.86 28.78
0 -6 -2 856.26 27.5
0 -6 -3 3.28 0.8
0 -6 -3 1.02 0.72
0 -6 -4 66.03 5.01
0 -6 -4 75.5 5.66
0 -6 -5 852.44 27.34
0 -6 -5 909.76 29.39
0 -6 -6 262.95 9.04
0 -6 -6 250.05 8.94
0 -6 -7 38.75 3.21
0 -6 -7 40.61 2.79
0 -6 -8 72.12 4.12
0 -6 -8 68.94 4.21
0 6 8 70.45 9.64
0 -6 -9 601.39 19.69
0 -6 -9 602.63 20.4
0 6 9 594.59 20.25
0 -6 -10 6.34 1
0 -6 -10 7.21 1.13
0 6 10 10.94 1.97
0 -6 -11 8.93 1.34
0 6 11 9.15 2.46
0 -6 -12 416.1 23.93
0 6 12 375.25 21.53
0 -6 -13 1.99 1.03
0 6 13 0.81 1.34
0 -7 6 2.65 1.15
0 -7 5 4.12 1.55
0 -7 3 211.71 12.7
0 -7 2 4.47 1.28
0 -7 2 3.44 1.22
0 -7 1 103.04 6.39
0 -7 1 110.28 6.43
0 -7 0 438.4 24.25
0 -7 0 472.39 25.85
0 -7 -1 39.54 3.59
0 -7 -1 31.88 5.26
0 -7 -2 43.52 3.05
0 -7 -2 40.02 6.24
0 -7 -3 413.91 14.23
0 -7 -3 431.21 14.73
0 -7 -4 55.94 3.55
0 -7 -4 55.52 5.2
0 -7 -5 224.42 8.23
0 -7 -5 214.78 7.95
0 -7 -6 92.91 5.74
0 -7 -7 38.72 3.32
0 -7 -7 36.27 3.27
0 -7 -8 147.66 8.52
0 -7 -8 162.45 9.63
0 -7 -9 30.24 1.67
0 -7 -9 26.83 2.02
0 -7 -10 5.3 0.95
0 7 10 8.18 1.23
0 -7 -11 131.2 7.2
0 7 11 117.5 12.51
0 -7 -12 13.26 2.89
0 7 12 8.43 3.54
0 -8 3 102.26 6.01
0 -8 2 9.77 2.43
0 -8 1 253.49 12.69
0 -8 0 1.44 1.46
0 -8 0 2.31 0.8
0 -8 -1 4.45 1.14
0 -8 -1 3.74 1.07
0 -8 -2 152.06 9.27
0 -8 -2 146.6 8.86
0 -8 -3 39.98 2.14
0 -8 -3 39.75 4.74
0 -8 -4 7.93 1.29
0 -8 -4 8.82 1.44
0 -8 -5 37.56 2.12
0 -8 -5 35.11 3.48
0 -8 -6 155.3 9.34
0 -8 -6 145.21 8.86
0 -8 -7 3.34 1
0 -8 -7 2.43 1.23
0 -8 -8 2.52 1.01
0 -8 -8 5.07 1.33
0 -8 -9 239.65 12.05
0 -8 -10 2.54 1.32
1 -8 -9 9.8 2.95
1 -8 -8 350.95 18.44
1 -8 -7 3.98 1.87
1 -8 -7 1.54 0.7
1 -8 -6 42.79 2.75
1 -8 -6 51.24 5.61
1 -8 -5 175.38 10.39
1 -8 -5 197.03 11.76
1 -8 -4 2.24 0.8
1 -8 -4 2.06 0.72
1 -8 -3 111.85 6.96
1 -8 -3 95.7 9.67
1 -8 -2 228.61 13.41
1 -8 -2 206.48 12.12
1 -8 -1 2.83 1.38
1 -8 -1 1.5 0.91
1 -8 0 173.45 9.23
1 -8 0 181.3 9.07
1 -8 1 41.75 3.02
1 -8 1 32.99 7.17
1 -8 2 8.76 2.22
1 -8 3 160.07 8.65
1 -7 -11 32.19 2.68
-1 7 11 33.58 7.84
1 -7 -10 9.71 2.25
-1 7 10 7.19 2.18
1 -7 -9 118.58 7.46
-1 7 9 103.15 6.49
1 -7 -8 41.75 4.98
1 -7 -7 40.47 3.4
1 -7 -7 49.31 6.77
1 -7 -6 249.62 13.91
1 -7 -6 290.88 16.61
1 -7 -5 74.44 5.82
1 -7 -5 68.89 7.87
1 -7 -4 72.53 5.7
1 -7 -4 81.21 6.18
1 -7 -3 274.3 9.69
1 -7 -3 262.22 11.78
1 -7 -2 500.75 16.87
1 -7 -2 494.42 17.01
1 -7 -1 116.55 7.03
1 -7 -1 111.32 9.92
1 -7 0 1.73 1.15
1 -7 0 1.46 1.14
1 -7 1 454.07 25.15
1 -7 1 461.59 25.29
1 -7 2 51.21 4.4
1 -7 2 51.74 6.59
1 -7 3 4.24 1.64
1 -7 3 1.07 0.34
1 -7 4 89.68 6.04
1 -7 5 2.68 1.34
1 -7 6 167.97 9.04
1 -6 -12 5.72 1.74
-1 6 12 5.83 1.87
1 -6 -11 160.73 9.91
-1 6 11 168.31 15.82
1 -6 -10 11.68 1.81
-1 6 10 15 2.11
1 -6 -9 92.23 5.91
-1 6 9 86.24 5.33
1 -6 -8 237.66 8.14
1 -6 -8 237.27 8.91
-1 6 8 238.4 8.63
1 -6 -7 2.62 1.02
1 -6 -7 0.71 0.8
-1 6 7 1.29 0.67
1 -6 -6 533.84 17.51
1 -6 -6 589.73 20.11
1 -6 -5 234.89 8.1
1 -6 -5 253.2 9.13
1 -6 -4 63.25 4.74
1 -6 -4 66.64 8.41
1 -6 -3 160.54 5.88
1 -6 -3 161.21 6.93
1 -6 -2 1.34 0.65
1 -6 -2 1.9 1.07
1 -6 -1 33.57 2.8
1 -6 -1 31.57 3.59
1 -6 0 175.28 6.54
1 -6 0 187.93 6.91
1 -6 1 1.49 1.02
1 -6 1 1.67 0.4
1 -6 2 69.07 4.44
1 -6 2 56.68 5.41
1 -6 3 361.39 12.72
1 -6 3 373.03 13.57
1 -6 4 267.91 15.21
1 -6 4 296.64 16.41
1 -6 5 135.42 8.27
1 -6 6 9.21 1.34
1 -6 7 44.73 3.23
1 -6 8 9.1 2.21
1 -6 8 9.07 2.08
1 -5 -13 1.16 1.01
-1 5 13 1.36 0.84
-1 5 12 390.71 22.31
1 -5 -11 13.22 1.89
-1 5 11 16.81 3.2
1 -5 -10 9.56 1.63
-1 5 10 9.75 2.37
1 -5 -9 678.56 22.72
-1 5 9 701.13 23.12
1 -5 -8 155.64 5.32
1 -5 -8 162.19 6.38
-1 5 8 176.06 10.5
1 -5 -7 239.44 7.96
1 -5 -7 250.01 8.98
-1 5 7 237.25 8.35
1 -5 -6 172.51 5.1
1 -5 -6 197.14 6.35
-1 5 6 187.85 6.48
1 -5 -5 226.12 6.58
1 -5 -5 200.27 6.33
-1 5 5 205.97 6.23
1 -5 -4 3.82 0.93
1 -5 -4 0.93 0.59
1 -5 -3 103.3 6.8
1 -5 -3 106.96 7.14
1 -5 -2 1019.66 27.03
1 -5 -2 1107.75 29.47
1 -5 -1 27.9 2.2
1 -5 -1 26.76 3.25
1 -5 0 479.3 13.38
1 -5 1 1784.98 123
1 -5 1 1776.49 46.67
1 -5 2 63.83 4.63
1 -5 2 60.09 5.08
1 -5 3 172.6 6.53
1 -5 3 166.27 11.91
1 -5 4 201.36 7.51
1 -5 4 206.29 7.2
1 -5 5 0.86 0.77
1 -5 6 554.65 18.85
1 -5 6 499.7 16.6
1 -5 7 40.44 3.78
1 -5 7 35.32 3.06
1 -5 8 35.09 2.27
1 -5 8 35.3 1.77
1 -5 9 477.28 22.84
1 -5 9 446.6 21.02
1 -5 10 0.74 0.82
1 -5 10 2.17 1.08
1 -4 -14 128.95 7.07
-1 4 14 152.11 8.03
1 -4 -13 1.28 1.13
-1 4 13 0.86 0.5
1 -4 -12 17.88 1.75
-1 4 12 15.49 2.76
1 -4 -11 665.14 36.45
-1 4 11 649.3 35.66
1 -4 -10 23.52 3.2
-1 4 10 35.28 5.06
1 -4 -9 2.96 1.3
-1 4 9 1.89 0.58
1 -4 -8 143.46 4.04
1 -4 -8 154.73 5.29
-1 4 8 145.46 5.53
1 -4 -7 12.67 1.51
1 -4 -7 19.68 1.41
1 -4 -7 13.31 1.46
-1 4 7 18.35 4.04
1 -4 -6 1444.83 23.87
1 -4 -6 1515.07 25.04
1 -4 -6 1504.17 26.01
-1 4 6 1581.28 27.11
1 -4 -5 200.6 3.93
1 -4 -5 230.26 4.5
1 -4 -5 230.9 5.29
-1 4 5 223.2 4.73
1 -4 -4 44.16 3.02
-1 4 4 37.72 2.58
1 -4 -4 38.47 2.84
-1 4 4 37.83 2.67
1 -4 -3 1378.62 23.08
-1 4 3 1370.68 23.03
1 -4 -3 1468.38 25.05
-1 4 3 1391.4 23.52
1 -4 -2 25.11 1.14
1 -4 -2 32.17 4.19
1 -4 -2 23.42 3.23
1 -4 -1 293.42 6.29
1 -4 -1 272.87 6.38
1 -4 -1 268.21 5.54
1 -4 0 236.49 5
1 -4 0 227.31 5.41
1 -4 0 220.82 4.37
1 -4 1 127.77 8.38
1 -4 1 127.83 8.42
1 -4 2 20.68 1.87
1 -4 2 22.48 2.66
1 -4 3 69.78 4.89
1 -4 3 73.53 5.48
1 -4 4 176.49 5.76
1 -4 5 34.4 2.74
1 -4 6 4.24 0.89
1 -4 6 8.46 0.99
1 -4 7 357.88 12.46
1 -4 7 335.45 11.39
1 -4 8 43.43 3.14
1 -4 8 48.13 3.05
1 -4 9 130.68 7.94
1 -4 9 125.31 7.36
1 -4 10 123.91 7.77
1 -4 10 130.06 7.91
1 -4 11 6.15 1.71
1 -4 11 3.4 1.22
1 -3 -14 33.73 2.65
-1 3 14 28.85 4.48
1 -3 -13 46.93 8.89
-1 3 13 42.96 8.37
1 -3 -12 212.49 12.29
-1 3 12 197.35 11.32
1 -3 -11 1.53 0.88
-1 3 11 1.11 0.78
1 -3 -10 172.69 6.61
-1 3 10 158.22 10.85
1 -3 -9 223.26 7.13
-1 3 9 220.18 7.79
1 -3 -8 414.77 10.86
1 -3 -8 386.01 10.1
1 -3 -8 423.97 12.08
-1 3 8 418.73 11.97
1 -3 -7 22.1 1.49
1 -3 -7 20.62 1.39
1 -3 -7 22.8 1.95
-1 3 7 28.99 3.46
1 -3 -6 2.97 0.35
1 -3 -6 2.17 0.27
1 -3 -6 0.52 0.58
-1 3 6 1.09 0.49
1 -3 -5 695.61 12.89
1 -3 -5 647.78 12.06
1 -3 -5 686.94 13.63
-1 3 5 691.12 13.48
1 -3 -4 58.57 1.51
-1 3 4 54.22 1.36
1 -3 -4 54.14 1.93
-1 3 4 53.99 2.45
1 -3 -3 121.59 2.73
-1 3 3 125.77 2.76
1 -3 -3 125.49 3.22
-1 3 3 125.58 3.05
1 -3 -3 120.41 2.81
1 -3 -2 617.9 11.77
-1 3 2 622.76 11.79
1 -3 -2 616.4 12.11
-1 3 2 632.39 12.07
1 -3 -2 630.65 11.97
1 -3 -1 127.17 2.22
-1 3 1 133.44 2.22
1 -3 -1 126.51 3.49
-1 3 1 141.3 2.52
1 -3 -1 137.31 2.04
1 -3 0 1430.11 26.59
-1 3 0 1409.71 26.19
1 -3 0 1399.18 26.09
-1 3 0 1411.53 26.32
1 -3 0 1462.63 26.87
1 -3 1 640.56 12.56
1 -3 1 725.82 13.97
-1 3 -1 688.12 13.33
1 -3 2 19.71 1.17
1 -3 2 24.67 2.34
-1 3 -2 11.81 2.3
1 -3 3 2598.19 162.46
1 -3 3 2502.55 46
1 -3 4 132.19 8.68
1 -3 5 19.64 1.76
1 -3 5 16.9 1.46
1 -3 6 667.87 18.34
1 -3 6 648.8 17.41
1 -3 7 38.3 3.23
1 -3 7 39.97 4.84
1 -3 8 34.52 2.96
1 -3 8 28.74 2.43
1 -3 9 369.9 12.88
1 -3 9 334.06 11.54
1 -3 10 2.85 1.02
1 -3 10 3.43 0.91
1 -3 11 1.45 0.8
1 -3 11 1.27 0.66
1 -3 12 29.35 2.49
1 -3 12 33.77 2.77
1 -2 -14 14.91 3.24
-1 2 14 12.44 5.29
1 -2 -13 1.84 0.76
-1 2 13 0.86 0.54
1 -2 -12 688.4 37.56
-1 2 12 630.85 34.51
1 -2 -11 161.24 8.71
-1 2 11 148.01 11.08
-1 2 10 3.59 0.57
1 -2 -10 3.63 0.85
-1 2 10 5.07 1.21
-1 2 9 538.15 14.08
1 -2 -9 595.21 16.47
-1 2 9 560.43 15.6
-1 2 8 55.55 3.58
1 -2 -8 51.95 3.36
1 -2 -8 62.4 4.42
-1 2 8 60.54 6.3
1 -2 -7 5.67 0.46
1 -2 -7 4.94 0.4
-1 2 7 6.91 1.27
1 -2 -6 2147.34 38.8
1 -2 -6 2115.93 39.25
-1 2 6 2124.9 39.42
1 -2 -5 0 0.04
-1 2 5 6.28 0.98
1 -2 -4 110.81 2.23
-1 2 4 104.93 2.16
1 -2 -4 105.24 1.97
1 -2 -3 2673.72 23.53
1 -2 -3 2658.5 24.65
-1 2 3 2652.08 24.47
1 -2 -2 763.63 7.32
-1 2 2 764.26 7.27
1 -2 -2 775.91 8.45
-1 2 2 760.65 7.95
-1 2 2 781.09 7.75
1 -2 -2 785.83 7.81
1 -2 -1 680.54 6.83
-1 2 1 658.04 6.59
1 -2 -1 647.89 7.03
-1 2 1 669.1 7.11
-1 2 1 672.24 6.55
1 -2 -1 689.17 6.72
1 -2 0 217.95 2.93
-1 2 0 210.35 2.79
1 -2 0 197.59 2.92
-1 2 0 222.91 3.48
1 -2 0 207.23 2.37
1 -2 1 846.59 8.71
-1 2 -1 844.44 8.73
1 -2 2 1.85 0.44
-1 2 -2 0.83 0.23
1 -2 2 1.01 0.48
-1 2 -2 0.61 0.31
1 -2 3 106.5 2.25
-1 2 -3 103.56 2.01
1 -2 4 723.16 14.12
-1 2 -4 718.25 13.86
1 -2 4 715.65 13.51
1 -2 5 63.43 2.15
1 -2 5 63.15 1.87
1 -2 6 3.8 0.68
1 -2 6 5.96 0.72
1 -2 7 574.75 11.01
1 -2 7 641.06 11.63
1 -2 8 32.78 2.62
1 -2 8 33.06 2.5
1 -2 9 880.52 28.49
1 -2 9 768.97 24.83
1 -2 10 106.09 5.99
1 -2 10 112.27 6.17
1 -2 11 3.39 0.92
1 -2 11 22.29 3.53
1 -2 12 331.78 19.01
1 -2 12 435.26 24.92
1 -2 13 4.96 1.38
-1 2 -13 4.95 1.87
1 -1 -14 1.19 1.16
-1 1 14 3.64 1.68
1 -1 -13 50.91 3.61
-1 1 13 46.43 5.38
1 -1 -12 411.03 22.63
-1 1 12 395.95 21.98
-1 1 11 72.04 4.08
1 -1 -11 83.38 4.74
-1 1 11 83.94 10.41
-1 1 10 3.43 0.84
1 -1 -10 3.39 0.68
-1 1 10 3.09 0.95
-1 1 9 353.86 9.54
1 -1 -9 351.63 9.5
1 -1 -9 363.4 10.28
-1 1 9 414.68 11.93
-1 1 8 691.31 11.73
1 -1 -8 736.65 12.45
1 -1 -8 689.13 12.44
-1 1 7 0.63 0.22
1 -1 -7 0.14 0.18
1 -1 -7 1.59 0.8
-1 1 7 4.33 1.65
-1 1 6 0.32 0.18
1 -1 -6 1.93 0.24
1 -1 -6 0.58 0.35
-1 1 6 1.05 0.52
-1 1 6 1.12 0.9
-1 1 5 601.47 11.04
1 -1 -5 577.16 10.59
1 -1 -5 604.71 11.71
-1 1 5 598.42 11.55
-1 1 5 639.1 12.58
1 -1 -4 347.48 4.28
-1 1 4 358.29 4.32
-1 1 4 359.22 4.66
1 -1 -4 356.96 4.45
1 -1 -3 1618.05 15.2
-1 1 3 1590.76 14.85
1 -1 -3 1627.26 15.18
1 -1 -2 2089.01 18.15
-1 1 2 2096.43 18.21
1 -1 -2 2101.93 19.22
-1 1 2 2083.96 18.99
1 -1 -2 2063.84 18.64
1 -1 -1 259.22 2.71
-1 1 1 256.3 2.66
1 -1 -1 249.12 3.11
-1 1 1 265.78 3.22
-1 1 1 246.63 2.62
1 -1 -1 248.13 2.66
1 -1 0 1854.97 16.73
1 -1 0 1774.17 16.52
-1 1 0 1933.28 17.61
1 -1 1 1789.23 16.43
-1 1 -1 1773.39 16.29
1 -1 1 1808.84 16.61
-1 1 -1 1841.07 16.85
1 -1 2 2448.57 22.37
-1 1 -2 2512.34 22.9
1 -1 2 2552.69 23.17
-1 1 -2 2489.48 22.55
1 -1 2 2529.58 22.24
1 -1 3 5900.42 52.39
-1 1 -3 6211.92 112.48
-1 1 -3 5973.44 108.17
1 -1 3 5807.09 50.75
1 -1 4 1845.3 17.74
-1 1 -4 1859.13 17.71
-1 1 -4 1885.71 17.82
1 -1 4 1908.14 17.6
1 -1 5 6.73 0.68
1 -1 5 6.9 0.61
1 -1 6 464.7 9.55
1 -1 6 470.26 9.34
1 -1 7 224.97 4.98
1 -1 7 214.9 4.57
1 -1 8 2.45 0.54
1 -1 9 190.12 6.01
1 -1 10 96.05 7.07
1 -1 10 139.05 6.38
1 -1 11 2.21 0.74
1 -1 11 0.82 0.54
1 -1 12 56.78 8.29
1 -1 12 55.66 8.29
1 -1 13 181.09 13.77
-1 1 -13 202.95 11.91
1 -1 13 167.63 10.01
1 -1 14 8.09 2.04
-1 1 -14 3.45 1.26
1 -1 14 3.24 1.64
-1 0 14 11.64 3.1
-1 0 13 1.63 0.98
1 0 -12 555.32 30.27
-1 0 12 647.8 35.74
-1 0 11 20.9 3.45
1 0 -11 21.76 2.68
-1 0 10 70.05 5.1
1 0 -10 65.2 4.9
-1 0 10 73.09 5.66
-1 0 9 392.55 10.74
1 0 -9 449.41 12.39
-1 0 9 425.85 12.13
-1 0 8 130.47 8.37
1 0 -8 134.88 4.04
1 0 -8 140.55 4.38
-1 0 8 148.76 4.91
-1 0 7 484.81 8.59
1 0 -7 469.8 8.3
1 0 -7 460.04 8.42
-1 0 7 457.87 8.92
-1 0 6 324.44 6.45
1 0 -6 320.07 6.33
1 0 -6 328.16 6.67
-1 0 6 352.71 7.5
-1 0 5 150.57 3.21
1 0 -5 151.01 3.15
1 0 -5 144.77 3.21
-1 0 5 151.06 3.66
-1 0 4 3.12 0.31
1 0 -4 2.72 0.26
1 0 -4 2.34 0.34
-1 0 4 3.97 0.39
-1 0 4 6.34 1.21
-1 0 3 1689.8 15.12
1 0 -3 1699.51 15.17
1 0 -3 1740.07 15.81
-1 0 3 1718.95 15.57
-1 0 3 1730.29 16.21
-1 0 2 92 1.18
1 0 -2 90.99 1.18
1 0 -2 90.23 1.57
-1 0 2 95.23 1.36
-1 0 2 94.51 1.63
-1 0 1 1008.39 9.1
-1 0 1 985.8 8.91
1 0 -1 1021.33 9.42
1 0 0 200.93 2.52
-1 0 0 180.96 2.09
1 0 0 178.94 2.14
-1 0 0 182.55 2.16
1 0 1 2.14 0.27
-1 0 -1 2.87 0.48
-1 0 -1 1.68 0.27
-1 0 -1 1.78 0.23
-1 0 -2 1449.6 13.44
-1 0 -2 1515.42 13.51
1 0 3 5886.05 51.86
-1 0 -3 6959.91 125.82
1 0 3 6021.57 108.69
1 0 4 188.31 3.02
-1 0 -4 189.12 2.84
1 0 4 208.08 3.12
-1 0 -4 187.45 2.56
-1 0 -5 51.03 1.46
1 0 5 46.3 1.21
-1 0 -5 50.24 1.27
1 0 6 682.92 13.41
1 0 6 678.09 13.35
-1 0 -6 690 13.26
1 0 7 445.14 9.24
1 0 8 3.13 0.65
1 0 9 602.45 16.55
1 0 9 634.01 17.38
1 0 10 249.83 8.93
1 0 10 219.48 7.84
1 0 11 35.45 5.61
-1 0 -11 26.95 3.28
1 0 11 26.56 4.12
1 0 12 230 13.21
-1 0 -12 244.22 13.73
1 0 12 229.6 13.04
1 0 13 1.61 0.74
-1 0 -13 1.44 1.02
1 0 13 1.65 0.86
1 0 14 36.38 3.63
-1 0 -14 44.29 2.92
1 0 14 39.46 7.43
-1 -1 13 12.58 6.79
-1 -1 12 91.68 5.59
-1 -1 12 94.17 6.15
-1 -1 11 21.41 1.99
1 1 -11 17.84 1.69
-1 -1 11 21.24 2.29
-1 -1 10 0.63 0.5
-1 -1 10 2.07 1.59
-1 -1 9 139.19 5.06
1 1 -9 129.75 14.25
-1 -1 9 140.75 5.53
-1 -1 8 421.46 11.61
1 1 -8 416.88 11.3
-1 -1 8 375.46 10.9
-1 -1 7 806.76 14.13
1 1 -7 692.65 11.94
-1 -1 7 739.68 13.55
-1 -1 6 662.09 11.65
1 1 -6 628.39 11.04
1 1 -6 636.15 10.88
-1 -1 6 678.11 12.31
-1 -1 5 569.92 11.03
1 1 -5 583.9 11.25
1 1 -5 621.08 11.65
-1 -1 5 562.57 11.16
-1 -1 4 73.39 1.93
1 1 -4 77.79 1.97
1 1 -4 81.76 1.79
-1 -1 4 69.28 2.07
-1 -1 3 4923.57 43.57
1 1 -3 4621.65 40.84
1 1 -3 4590.6 39.88
-1 -1 2 1383.49 12.94
1 1 -2 1358.27 12.65
1 1 -2 1336.18 11.72
-1 -1 2 1317.14 11.51
1 1 -1 427.57 4.56
-1 -1 1 422.21 3.87
-1 -1 0 1923.76 17.41
-1 -1 0 1929.63 17.54
1 1 1 348.2 3.96
-1 -1 -1 339.14 3.82
1 1 2 146.02 2.15
-1 -1 -2 153.97 2.19
1 1 2 148.17 2.03
-1 -1 -2 150.6 2.17
1 1 3 9999 180.54
-1 -1 -3 8802.11 158.89
1 1 3 8849.09 159.66
1 1 4 23.34 1.67
-1 -1 -4 27.74 3.16
1 1 4 26.25 0.91
-1 -1 -4 27.07 2.21
1 1 5 5.81 0.72
-1 -1 -5 4.81 0.46
1 1 5 12.48 1.87
-1 -1 -5 6.33 0.69
1 1 6 1253.97 23.68
-1 -1 -6 1247.11 23.33
1 1 6 1198.75 22.55
1 1 7 468.01 9.55
1 1 7 453.7 9.43
1 1 8 224.23 4.85
1 1 8 249.24 5.36
1 1 9 19.37 2.6
1 1 9 21.59 4.1
1 1 10 324.01 9.32
-1 -1 -10 299.6 8.83
1 1 11 89.77 10.62
-1 -1 -11 107.06 7.95
1 1 11 78.85 9.2
1 1 12 142.39 7.64
-1 -1 -12 142.25 7.75
1 1 12 128.77 7.15
1 1 13 223.4 12.57
-1 -1 -13 230.16 13.07
1 1 13 221.06 12.66
1 1 14 74.23 4.8
-1 -1 -14 88.06 5.81
1 1 14 67.88 7.86
-1 -1 -15 85.14 4.87
1 1 15 75.12 10.72
-1 -2 12 425.25 20.03
-1 -2 12 490.52 23.33
-1 -2 11 51.13 3.49
-1 -2 11 55.53 4.04
-1 -2 10 3.57 0.71
-1 -2 10 3.09 1.44
-1 -2 9 1133.6 36.46
-1 -2 9 1152.51 83.19
-1 -2 8 56.46 4.33
1 2 -8 57.74 4.16
-1 -2 8 62.79 4.93
-1 -2 7 109.17 7.22
1 2 -7 101.47 6.52
1 2 -7 100.41 6.41
-1 -2 7 104.89 7.02
-1 -2 6 347.09 6.87
1 2 -6 317.74 5.66
1 2 -6 334.56 5.82
-1 -2 6 327.02 6.75
-1 -2 5 0.56 0.42
1 2 -5 0.25 0.15
1 2 -5 0.63 0.14
-1 -2 4 23.19 1.09
1 2 -4 25.4 0.57
-1 -2 3 6.91 0.62
1 2 -3 4.39 0.45
1 2 -2 232.32 3.26
-1 -2 1 1497.57 14.33
1 2 -1 1489.99 14.23
-1 -2 1 1501.08 13.19
-1 -2 0 23.38 0.92
1 2 0 22.01 0.84
-1 -2 0 20.33 0.54
-1 -2 -1 2020.84 18.79
1 2 1 1971.52 18.21
-1 -2 -1 2054.94 18.54
-1 -2 -2 319.49 3.87
-1 -2 -2 308.77 3.81
-1 -2 -2 342.83 4.11
-1 -2 -2 332.89 4.08
1 2 3 1645.9 15.49
-1 -2 -3 1648.9 15.58
1 2 3 1631.82 15.43
-1 -2 -3 1666.74 15.69
-1 -2 -4 482.71 5.68
-1 -2 -4 470.66 5.66
1 2 4 455.35 6.14
-1 -2 -4 490.13 5.71
1 2 5 52.29 1.43
-1 -2 -5 44.65 2.86
-1 -2 -5 37.3 1.36
1 2 5 49.51 1.53
1 2 6 1165.7 22.2
-1 -2 -6 1120.76 21.09
-1 -2 -6 1111.84 21.12
1 2 6 1180.78 22.41
1 2 7 574.01 11.43
-1 -2 -7 533.08 10.86
1 2 7 571.37 11.58
1 2 8 0.95 0.41
-1 -2 -8 3.6 1.32
1 2 8 1.47 0.6
1 2 9 333.78 9.98
-1 -2 -9 346.91 10.19
1 2 9 309.42 10.43
1 2 10 104.66 9.23
-1 -2 -10 83.14 5.73
1 2 10 97.91 9.75
1 2 11 3.42 0.96
1 2 11 5.78 1.21
1 2 12 433.92 14.66
1 2 12 442.53 15.6
1 2 13 11.31 2.82
-1 -2 -13 11.4 1.49
1 2 14 24.54 4.28
-1 -2 -14 28.11 1.93
1 2 14 33.32 5.65
-1 -2 -15 25.69 5.13
1 2 15 14.97 3.97
-1 -3 12 30.06 2.43
-1 -3 12 35.93 3.13
-1 -3 11 41.78 2.84
-1 -3 11 43.62 3.38
-1 -3 10 37.1 1.96
-1 -3 9 101.29 6.15
-1 -3 9 99.37 6.19
-1 -3 8 193.05 10.13
-1 -3 8 201.68 7.55
-1 -3 7 11.94 1.4
-1 -3 7 11.75 1.42
1 3 -6 0.02 0.07
-1 -3 5 84.89 5.73
-1 -3 4 1.6 0.36
-1 -3 3 2329.19 38.78
-1 -3 1 133.37 3.38
-1 -3 1 122.13 2.59
1 3 -1 129.91 2.67
-1 -3 0 949.75 18.04
-1 -3 0 908.83 16.81
1 3 0 971.38 17.93
-1 -3 -1 458.04 5.59
-1 -3 -1 461.14 5.08
-1 -3 -2 77.29 1.84
-1 -3 -2 78.31 1.68
-1 -3 -3 441.43 8.78
-1 -3 -3 543.63 10.87
-1 -3 -3 474.12 9.47
-1 -3 -4 32.46 1.24
-1 -3 -4 28.62 1.23
1 3 4 30.06 1.26
-1 -3 -5 3.14 0.42
-1 -3 -5 4.58 0.61
1 3 5 3.94 0.68
1 3 6 40.56 1.42
-1 -3 -6 48.86 1.88
1 3 6 58.32 4.37
1 3 7 40.11 3.23
-1 -3 -7 35.18 2.68
1 3 7 40.49 4.67
1 3 8 674.37 12.85
-1 -3 -8 655.45 12.28
1 3 8 622.05 11.68
1 3 9 139.61 4.65
-1 -3 -9 137.16 4.69
1 3 9 140.87 4.73
1 3 10 380.62 12.64
-1 -3 -10 383.06 13
1 3 10 387.55 13.11
1 3 11 22.99 3.84
-1 -3 -11 25.17 3.18
1 3 11 27.99 5.77
-1 -3 -12 301.09 10.79
1 3 12 319.24 11.72
1 3 13 120.97 7.15
-1 -3 -13 129.51 7.86
1 3 13 133.93 12.21
1 3 14 3.71 1.19
-1 -3 -14 2.98 1.14
1 3 14 3.33 1
-1 -3 -15 39.67 2.87
1 3 15 40.51 5.76
-1 -4 10 91.12 5.13
-1 -4 10 109.41 6.23
-1 -4 9 209.55 12.35
-1 -4 9 177.13 10.62
-1 -4 8 1.72 0.87
-1 -4 8 4.4 1.55
-1 -4 7 511.72 17.23
-1 -4 6 1.91 0.92
-1 -4 5 12.04 1.33
-1 -4 4 212.68 6.56
1 4 -4 169.79 4.44
-1 -4 3 148.46 4.92
1 4 -3 140.51 3.8
-1 -4 2 107.44 7.18
-1 -4 2 111.14 7.11
1 4 -2 99.84 6.35
-1 -4 1 111.37 7.38
-1 -4 1 102.1 6.54
1 4 -1 97.8 6.26
-1 -4 0 791.48 14.19
-1 -4 0 850.5 14.47
1 4 0 929.98 15.66
-1 -4 -1 182.82 4.45
-1 -4 -1 190.58 4.16
1 4 1 215.83 4.73
-1 -4 -2 143.26 3.69
-1 -4 -2 151.55 3.57
1 4 2 134.25 3.21
-1 -4 -3 1183.57 22.44
-1 -4 -3 1155.81 21.8
-1 -4 -4 73.06 4.93
-1 -4 -4 69.3 4.69
-1 -4 -5 261.76 5.57
-1 -4 -6 2691.54 44.52
-1 -4 -6 2536.22 42.35
1 4 6 2713.49 169.18
-1 -4 -7 42.75 3.05
-1 -4 -7 39.23 3.02
1 4 7 42.38 4.9
-1 -4 -8 46.58 3.27
-1 -4 -8 46.41 3.45
1 4 8 68 6.27
-1 -4 -9 158.51 5.64
-1 -4 -9 175.38 6.58
1 4 9 169.73 6.29
-1 -4 -10 1.73 0.51
-1 -4 -10 2.7 1.34
1 4 10 2.14 0.85
1 4 11 50.15 2.96
-1 -4 -11 61.86 3.88
1 4 11 61.43 5.39
1 4 12 60.97 4.8
-1 -4 -12 51.36 4.37
1 4 12 50.04 8.16
1 4 13 1.71 0.68
-1 -4 -13 2.41 1.41
1 4 13 -0.28 1
1 4 14 167.92 9.6
-1 -4 -15 2.49 1.32
1 4 15 2.9 1.84
-1 -5 9 184.81 9.5
-1 -5 9 169.94 8.84
-1 -5 8 73.01 4.96
-1 -5 8 66.75 4.66
-1 -5 7 13.76 1.27
-1 -5 6 708.27 38.64
-1 -5 5 186.6 9.94
-1 -5 4 14.86 1.68
-1 -5 3 850.77 27.53
-1 -5 2 2.29 1.06
-1 -5 2 1.17 0.31
1 5 -2 1.67 0.33
-1 -5 1 104.63 7.05
-1 -5 1 86.16 5.74
1 5 -1 88.17 5.7
-1 -5 0 538.83 14.99
-1 -5 0 479.77 13.2
1 5 0 508.72 13.61
-1 -5 -1 10.96 1.25
-1 -5 -1 10.8 0.99
-1 -5 -2 818.98 14.83
-1 -5 -2 835.53 14.62
-1 -5 -3 160.24 3.99
-1 -5 -3 192.69 4.34
-1 -5 -4 704.05 18.99
-1 -5 -5 12.41 1.28
-1 -5 -5 10.79 1.1
-1 -5 -6 48.3 3.47
-1 -5 -6 49.91 3.61
-1 -5 -7 263.3 7.73
-1 -5 -7 261.94 8.04
1 5 7 254.15 7.69
-1 -5 -8 232.73 8.05
-1 -5 -8 212.85 7.85
1 5 8 213.68 7.72
-1 -5 -9 166.05 6.2
-1 -5 -9 133.45 14.9
1 5 9 137.68 5.43
-1 -5 -10 179.45 9.38
-1 -5 -10 199.4 7.65
1 5 10 191.15 10.16
-1 -5 -11 46.83 3.82
-1 -5 -11 50.63 4.36
1 5 11 58.23 7.38
-1 -5 -12 605.54 34.23
1 5 12 658.33 119.67
-1 -5 -13 65.2 4.37
-1 -5 -13 70.79 5.01
1 5 13 57.69 8.46
-1 -5 -14 11.24 2.44
1 5 14 9.9 2.78
-1 -6 7 48.27 3.32
-1 -6 6 7.83 1.27
-1 -6 5 22.81 1.71
-1 -6 4 88.82 5.61
-1 -6 3 151.41 8.29
-1 -6 2 3.03 1.13
-1 -6 2 0.36 0.28
-1 -6 1 3.27 1.41
-1 -6 1 2.35 0.48
-1 -6 0 874.69 28.45
-1 -6 0 826.1 26.38
-1 -6 -1 279.58 9.83
-1 -6 -1 262.59 8.9
-1 -6 -2 46.54 3.72
-1 -6 -2 49.85 4.19
-1 -6 -3 175.38 6.59
-1 -6 -3 193.28 6.87
-1 -6 -4 70.38 5.44
-1 -6 -4 79.76 5.92
-1 -6 -5 314.39 10.74
-1 -6 -5 304.13 10.44
-1 -6 -6 259.65 9.03
-1 -6 -6 285.32 9.97
-1 -6 -7 4.13 1.17
-1 -6 -7 4.45 0.98
-1 -6 -8 477.75 15.94
-1 -6 -8 487.72 16.64
-1 -6 -9 38.3 3.2
-1 -6 -9 41.67 2.92
-1 -6 -10 2.51 1.12
-1 -6 -10 1.67 0.91
1 6 10 1.37 0.34
-1 -6 -11 88.72 5.8
1 6 11 83.95 10.81
-1 -6 -12 2.5 1.06
-1 -6 -12 1.92 0.81
-1 -6 -13 4.44 1.35
1 6 13 2.42 0.9
-1 -7 5 24.67 4.94
-1 -7 4 134.74 7.21
-1 -7 3 282.28 16.42
-1 -7 2 73.26 4.9
-1 -7 1 70.67 5.86
-1 -7 0 100.74 6.32
-1 -7 0 101.27 5.86
-1 -7 -1 13.28 1.77
-1 -7 -1 9.58 2.29
-1 -7 -2 503.4 17.22
-1 -7 -3 95.25 10.68
-1 -7 -4 40.62 2.7
-1 -7 -5 233.87 8.64
-1 -7 -5 216.03 7.9
-1 -7 -6 196.25 11.23
-1 -7 -6 165.39 9.62
-1 -7 -7 142.95 8.35
-1 -7 -7 139.98 8.27
-1 -7 -8 54.89 4.51
-1 -7 -8 52.9 4.45
-1 -7 -9 266.39 15.3
-1 -7 -9 249.95 14.64
-1 -7 -10 51.29 3.55
-1 -7 -10 61.41 4.42
-1 -7 -11 6.34 1.53
-1 -7 -11 14.46 3.1
-1 -7 -12 211.76 10.89
1 7 12 253.05 12.66
-1 -8 1 17.67 3.66
-1 -8 0 308.33 15.15
-1 -8 -1 5.68 1.38
-1 -8 -2 22.17 4.1
-1 -8 -3 359.54 20.71
-1 -8 -3 313.88 17.97
-1 -8 -4 4.32 1.86
-1 -8 -4 6.18 1.5
-1 -8 -5 124.83 7.73
-1 -8 -5 120.77 8.91
-1 -8 -6 154.1 9.28
-1 -8 -6 144.75 8.74
-1 -8 -7 41.57 2.33
-1 -8 -7 45.56 2.3
-1 -8 -8 227.24 11.26
-1 -8 -8 207.97 10.5
-1 -8 -9 38.73 2.72
-1 -8 -9 46.52 3.33
-1 -8 -10 3.38 1.53
-1 -8 -10 0.86 0.96
2 -8 -7 25.86 6.56
2 -8 -6 16.17 4.33
2 -8 -5 1.73 0.9
2 -8 -4 74.75 4.36
2 -8 -4 68.79 7.98
2 -8 -3 28.36 2.26
2 -8 -3 30.32 5.35
2 -8 -2 32.41 2.54
2 -8 -2 30.18 6.34
2 -8 -1 123.55 6.8
2 -8 -1 116.37 11.59
2 -8 0 24.97 5.05
2 -8 0 16.3 4.34
2 -8 1 213.53 11
2 -8 1 188.02 10.38
2 -7 -10 8.64 2.41
-2 7 10 11.18 2.67
2 -7 -9 13.68 4
-2 7 9 11.74 3.57
2 -7 -8 353.24 17.57
2 -7 -7 7.72 2.06
2 -7 -6 30.64 6.44
2 -7 -5 480.91 27.02
2 -7 -5 439.92 25.51
2 -7 -4 8.9 1.19
2 -7 -4 6.4 1.49
2 -7 -3 273.7 15.32
2 -7 -3 281.05 15.87
2 -7 -2 140.78 8.27
2 -7 -2 142.22 8.43
2 -7 -1 0.75 0.84
2 -7 -1 1.46 1.06
2 -7 0 306.29 17.2
2 -7 0 312.01 24.59
2 -7 1 9.47 1.39
2 -7 1 8.19 1.6
2 -7 2 81.95 5.53
2 -7 2 61.45 7.94
2 -7 3 128.34 8.03
2 -7 3 117.29 7.24
2 -7 4 25.14 4.84
2 -7 5 51.77 3.64
2 -6 -11 143.19 15.98
-2 6 11 128.46 11.93
2 -6 -10 44.08 5.52
-2 6 10 33.29 3.75
2 -6 -9 250.48 15
-2 6 9 259.63 15
2 -6 -8 1.81 0.9
-2 6 8 0.67 0.61
2 -6 -7 117.59 7.14
-2 6 7 122.76 7.15
2 -6 -6 200.8 6.96
2 -6 -6 194.65 10.43
-2 6 6 189.93 9.92
2 -6 -5 14.81 1.92
2 -6 -5 22.4 3.99
2 -6 -4 321.43 11.09
2 -6 -4 306.08 10.97
2 -6 -3 2.47 0.87
2 -6 -3 3.52 1.05
2 -6 -2 384.61 13.07
2 -6 -2 383.47 13.45
2 -6 -1 188.89 10
2 -6 -1 218.49 8.42
2 -6 0 168.64 9.02
2 -6 0 203.16 10.82
2 -6 1 591.61 19.82
2 -6 1 533.34 18.31
2 -6 2 81.28 5.98
2 -6 3 0.17 0.88
2 -6 3 0.94 0.84
2 -6 4 695.14 38.01
2 -6 4 771.58 42.44
2 -6 5 60.25 4.33
2 -6 6 42.72 2.48
2 -6 7 19.75 4.07
2 -5 -12 4.74 1.5
-2 5 12 1.21 1.12
2 -5 -11 256.74 15.13
-2 5 11 260.19 15.14
-2 5 10 46.64 4.85
2 -5 -9 50.43 6
-2 5 9 39.79 4.41
2 -5 -8 312.11 11.64
-2 5 8 306.91 10.68
2 -5 -7 205.17 7.77
-2 5 7 187.79 9.76
2 -5 -6 235.94 7.77
2 -5 -6 230.1 8.58
-2 5 6 246.7 8.55
2 -5 -5 57.95 4.23
2 -5 -5 58.18 6.27
-2 5 5 62.39 6.04
2 -5 -4 115.82 8.24
2 -5 -4 122.14 8.93
-2 5 4 132.06 14.53
2 -5 -3 730.66 19.55
2 -5 -3 761.33 20.82
2 -5 -2 237.75 7.01
2 -5 -2 233.71 7.36
2 -5 -1 1.07 0.48
2 -5 -1 2.88 0.83
2 -5 0 413.66 11.75
2 -5 0 393.34 11.58
2 -5 1 10.34 1.62
2 -5 1 9.95 1.44
2 -5 2 23.07 2.22
2 -5 2 24.23 3.7
2 -5 3 6.29 1.21
2 -5 3 9.92 1.43
2 -5 4 125.13 6.99
2 -5 4 146 8.57
2 -5 5 1.96 1.09
2 -5 6 29.3 2.92
2 -5 6 23.9 2.16
2 -5 7 176.96 10.42
2 -5 7 205.33 11.46
2 -5 8 89.48 5.88
2 -5 9 6.77 1.74
2 -4 -13 6.29 1.83
-2 4 13 5.96 1.51
2 -4 -12 107.96 6.95
-2 4 12 108.79 7.36
2 -4 -11 15.2 1.53
-2 4 11 15.24 3.65
2 -4 -10 35.56 3.33
-2 4 10 33.98 4.55
2 -4 -9 115.56 6.57
-2 4 9 131.46 11.29
2 -4 -8 334.16 11.78
-2 4 8 359.82 12.44
2 -4 -7 2.85 1.09
-2 4 7 4.02 0.8
2 -4 -6 799.02 20.68
2 -4 -6 758.14 20.75
-2 4 6 763.56 20.6
2 -4 -5 457.28 12.09
-2 4 5 426.3 11.25
2 -4 -5 457.09 13.16
-2 4 5 459.83 12.57
2 -4 -4 335.66 9.12
-2 4 4 316.51 8.55
2 -4 -4 338.9 10.33
-2 4 4 335.47 9.36
2 -4 -3 92.04 6.05
2 -4 -3 89.23 6.31
-2 4 3 77.77 5.3
2 -4 -2 579.72 10.46
2 -4 -2 622.19 11.65
2 -4 -2 598.41 10.43
2 -4 -1 215.17 4.77
2 -4 -1 206.25 5
2 -4 -1 191.19 3.99
2 -4 0 129.98 8.52
2 -4 0 139.52 3.65
2 -4 1 418.91 8.29
2 -4 1 416.18 9.81
2 -4 1 361.87 6.38
2 -4 2 59.07 4.22
2 -4 2 56.57 5.24
2 -4 2 48.19 3.18
2 -4 3 511.97 14.34
2 -4 3 500.79 14.22
2 -4 4 966.99 26.11
2 -4 4 997.98 26.74
2 -4 4 955.62 24.99
2 -4 5 137.3 5.43
2 -4 5 112.97 8
2 -4 6 395.6 13.61
2 -4 6 388.86 12.69
2 -4 7 111.23 6.35
2 -4 7 95.8 5.17
2 -4 8 25.82 2.64
2 -4 9 225.44 13.34
2 -4 9 202.14 11.64
2 -4 10 11.85 1.73
2 -4 10 6.23 1.17
2 -4 11 97.87 5.68
2 -3 -13 2.25 0.92
-2 3 13 0.82 0.74
2 -3 -12 33.73 2.03
-2 3 12 31.06 4.22
2 -3 -11 275.8 15.6
-2 3 11 280.43 15.99
2 -3 -10 111.67 6.35
-2 3 10 91.58 8.35
2 -3 -9 424.66 14.49
-2 3 9 382.91 13.28
2 -3 -8 1040.22 33.39
-2 3 8 1083.7 117.79
-2 3 7 50.23 4.33
2 -3 -6 286.13 8.79
-2 3 6 284.6 8.37
2 -3 -5 121.22 8.13
-2 3 5 127.58 8.74
2 -3 -4 147.37 2.78
-2 3 4 139.66 2.61
2 -3 -4 128.83 8.73
-2 3 4 127.59 8.31
2 -3 -3 1034.51 17.23
-2 3 3 988.26 16.42
2 -3 -3 1063.05 18.61
-2 3 3 996.52 16.9
2 -3 -3 981.98 16.58
2 -3 -2 0.81 0.3
-2 3 2 1.29 0.41
2 -3 -2 2.04 0.62
-2 3 2 0.4 0.29
2 -3 -1 87.75 2.37
-2 3 1 99.8 2.53
2 -3 -1 89.93 3.06
2 -3 -1 95.87 4.15
2 -3 0 1975.12 36.56
2 -3 0 2019.49 37.65
2 -3 0 1868.36 33.96
2 -3 1 418.29 9.1
2 -3 1 432.52 8.12
2 -3 2 177.04 4.14
2 -3 2 182.05 4.46
2 -3 2 174.09 3.19
2 -3 3 118.43 7.84
2 -3 3 129.42 8.46
2 -3 3 123.79 7.85
2 -3 4 294.21 6.38
2 -3 4 282.18 5.16
2 -3 5 120.46 8.07
2 -3 5 115.2 7.39
2 -3 6 95.94 6.55
2 -3 6 98.22 6.39
2 -3 7 406.89 13.9
2 -3 7 389.12 12.7
2 -3 8 29.87 3.73
2 -3 8 22.06 2.69
2 -3 9 6.27 1.32
2 -3 9 12.24 1.83
2 -3 10 134.97 8.3
2 -3 10 202.01 11.62
2 -3 11 2.05 1.23
2 -3 11 0.51 0.36
2 -3 12 222.76 11.25
2 -3 12 206.76 10.26
-2 2 13 9.6 2.85
2 -2 -12 269.43 15.63
-2 2 12 315.56 18.45
2 -2 -11 21.95 2.17
-2 2 11 28 4.65
2 -2 -10 286 10.14
-2 2 10 262.88 9.52
2 -2 -9 25.63 2.34
-2 2 9 23.98 2.65
2 -2 -8 58.39 4.13
-2 2 8 62.45 5.76
2 -2 -7 82.03 5.59
-2 2 7 84.53 8.16
2 -2 -6 57.1 4.7
-2 2 6 65.66 6.67
-2 2 5 432.63 8.54
2 -2 -4 47.76 4.65
-2 2 4 51.44 4.8
2 -2 -4 45.58 1.53
2 -2 -3 356.25 6.7
-2 2 3 361.98 6.79
2 -2 -3 360.07 8.04
-2 2 3 367.97 7.48
2 -2 -3 353.01 7.05
2 -2 -2 687.6 12.81
-2 2 2 678.65 12.63
2 -2 -2 689.82 13.43
-2 2 2 680.03 12.77
2 -2 -2 703.53 13.2
2 -2 -1 201.47 4.22
-2 2 1 198.16 4.15
2 -2 -1 199.32 4.59
-2 2 1 198.59 4.09
2 -2 -1 200.62 3.99
2 -2 0 646.72 12.39
-2 2 0 629.36 12.03
2 -2 0 613.92 12.07
2 -2 0 634.33 11.6
2 -2 1 1162.7 21.84
-2 2 -1 1146.71 21.55
2 -2 1 1174.91 22.18
2 -2 2 136.89 3.44
2 -2 2 139.63 3.75
2 -2 3 245.29 5.6
2 -2 3 253.86 5.77
2 -2 4 476.11 9.9
2 -2 4 482.63 9.18
2 -2 5 198.01 4.67
2 -2 5 257.05 5.03
2 -2 7 84.19 5.86
2 -2 7 101.24 6.73
2 -2 8 2.43 0.77
2 -2 8 5.1 1.01
2 -2 9 298.67 10.57
2 -2 9 294.34 10.08
2 -2 10 130.42 7.23
2 -2 10 133.61 7.17
2 -2 11 96.72 6.02
2 -2 11 93.9 9.3
2 -2 12 4.37 1.02
2 -2 13 23.53 6.32
-2 1 13 3.01 0.94
2 -1 -12 176.63 10.41
-2 1 12 169.48 10.18
2 -1 -11 78.75 2.44
-2 1 11 91.05 9.11
2 -1 -10 29.65 3.57
-2 1 10 38.42 3.58
2 -1 -9 1169.48 127.09
-2 1 9 3555.11 386.61
-2 1 8 15.34 1.05
2 -1 -8 18.49 1.57
-2 1 8 15.7 1.58
2 -1 -7 27.51 2.1
-2 1 7 24.25 1.99
2 -1 -6 1478.91 24.97
-2 1 6 1336.85 22.88
2 -1 -5 26.5 3.43
-2 1 5 28.45 2.12
-2 1 4 77.1 1.46
-2 1 4 74.7 1.41
2 -1 -4 72.67 2.25
-2 1 4 71.14 2.05
-2 1 4 81.96 2.32
-2 1 3 1817.62 32.93
-2 1 3 1968.99 35.63
2 -1 -3 1879.86 34.71
-2 1 3 1815.85 33.57
-2 1 3 1832.74 33.77
2 -1 -2 292.93 3.26
-2 1 2 297.61 3.24
2 -1 -2 300.5 4.28
-2 1 2 296.3 3.95
-2 1 2 291.79 3.61
2 -1 -1 718.73 7.27
-2 1 1 713.47 7.08
2 -1 -1 754.27 8.1
-2 1 1 750.71 8
-2 1 1 717.51 7.01
2 -1 0 345.44 4.03
-2 1 0 343.74 4.08
2 -1 0 334.67 4.32
-2 1 0 337.17 4.52
-2 1 0 330.62 3.33
2 -1 1 814.27 8.37
-2 1 -1 820.83 8.44
2 -1 1 800.82 8.55
-2 1 -1 815.63 8.68
2 -1 2 251.58 3.88
-2 1 -2 269.69 3.72
2 -1 2 243.92 3.67
-2 1 -2 266.97 4.32
2 -1 3 38.31 1.47
2 -1 3 42.81 0.77
-2 1 -3 43.64 0.73
2 -1 4 577.34 11.49
2 -1 4 549.77 10.5
-2 1 -4 573.22 10.69
2 -1 5 206.41 4.88
2 -1 5 174.87 4.14
-2 1 -5 189.95 3.96
2 -1 6 2126.83 35.79
2 -1 6 2042.99 33.83
-2 1 -6 1807.17 29.84
2 -1 7 888.17 15.98
2 -1 7 879.61 15.39
2 -1 8 43.44 3.26
2 -1 8 45.2 3.18
2 -1 9 156.22 5.94
2 -1 9 155.66 5.77
2 -1 10 187.82 9.94
2 -1 10 170.13 8.9
2 -1 11 0.52 0.65
2 -1 11 1.27 0.94
2 -1 12 368.16 26.21
2 -1 12 268.91 15.1
2 -1 13 24.57 2.73
2 -1 13 26.81 4.92
2 -1 14 0.22 0.52
2 -1 14 0.96 0.51
-2 0 13 0.57 0.84
-2 0 12 508.67 30.81
2 0 -11 14.23 1.49
-2 0 11 17.49 2.1
-2 0 10 22.82 3.06
-2 0 9 21.94 1.76
2 0 -9 20.04 1.74
-2 0 9 21.69 2.13
-2 0 8 232 7.61
2 0 -8 233.15 7.86
-2 0 8 265.07 9.32
-2 0 7 26.97 1.89
2 0 -7 25.25 1.79
2 0 -7 25.33 1.86
-2 0 7 26.81 2.22
-2 0 6 12.49 0.98
2 0 -6 8.83 0.73
2 0 -6 12.89 1.84
-2 0 6 7.89 0.77
-2 0 6 11.54 1.17
-2 0 5 2668.14 43.33
2 0 -5 2635.43 42.77
2 0 -5 2804.56 174.56
-2 0 5 2879.24 179.19
-2 0 5 2869.59 178.75
-2 0 4 5.86 0.87
-2 0 4 5.1 0.36
2 0 -4 6.27 0.7
-2 0 4 5.16 0.49
-2 0 4 5.58 0.6
-2 0 3 15.76 1.32
-2 0 3 16.64 0.63
2 0 -3 18.07 2.31
-2 0 3 17.99 0.77
-2 0 3 15.51 0.82
-2 0 2 774.94 7.54
2 0 -2 804.48 8.14
-2 0 2 768.59 7.78
2 0 -1 40.63 1.06
-2 0 1 39.79 0.99
2 0 -1 44.07 1.22
-2 0 1 39.49 1.02
2 0 0 3737.69 33.25
-2 0 0 3699.94 32.94
2 0 0 3726.9 33.42
-2 0 0 3695.44 33.25
2 0 1 1316.43 12.59
-2 0 -1 1390.23 13.33
-2 0 -1 1344.45 12.93
2 0 2 23.71 2.66
-2 0 -2 16.91 1.87
-2 0 -2 21.33 1.84
2 0 3 2053.42 19.57
-2 0 -3 2086.31 19.6
-2 0 -3 2024.98 19.19
2 0 3 2112.08 19.74
-2 0 -3 2127.37 19.03
2 0 4 185.24 4.29
2 0 4 188.41 3.94
-2 0 -4 180.26 3.75
2 0 5 2026.42 37.62
2 0 5 1944.3 35.62
-2 0 -5 2083.43 38.11
2 0 6 710.08 14.46
2 0 6 717.88 13.87
-2 0 -6 688.87 13.2
2 0 7 289.91 6.26
2 0 7 266.63 5.35
2 0 8 79.34 6.78
2 0 8 89.67 6.32
2 0 9 146.24 8.66
2 0 9 119.16 8.24
2 0 10 227.66 8.18
2 0 10 226.66 8
2 0 11 4.34 0.92
2 0 11 2.99 0.8
2 0 12 1.75 0.92
2 0 12 1.05 0.4
2 0 13 332.54 19.8
2 0 13 306.9 17.7
2 0 14 1.02 0.76
-2 0 -14 1.43 1.07
2 0 14 2.52 1.09
-2 -1 12 282.07 13.88
-2 -1 11 116.55 7.35
-2 -1 10 5.36 0.75
-2 -1 10 4.31 1.08
-2 -1 9 960.3 30.76
-2 -1 9 893.87 29.26
-2 -1 8 23.48 1.94
2 1 -8 15.36 2.5
-2 -1 8 24.89 2.3
-2 -1 7 116.56 7.54
2 1 -7 114.5 7.49
-2 -1 7 114.28 7.66
-2 -1 6 338.58 6.37
2 1 -6 303.29 5.76
2 1 -6 342.07 6.26
-2 -1 6 328.89 6.85
-2 -1 5 86.89 5.67
2 1 -5 96.69 6.28
2 1 -5 94.52 6.06
-2 -1 5 94.79 6.31
-2 -1 4 589.12 11.35
2 1 -4 596.35 11.41
2 1 -4 626 11.71
-2 -1 4 591.51 11.02
-2 -1 3 28.92 1.09
2 1 -3 28.22 1.01
2 1 -3 28.01 0.9
-2 -1 3 27.5 0.81
-2 -1 2 67.02 1.76
-2 -1 2 73.26 1.93
2 1 -2 72.83 1.76
-2 -1 2 73.95 1.81
-2 -1 1 32.72 2.45
-2 -1 1 30.56 1.01
-2 -1 1 28.04 1.08
-2 -1 0 179.63 2.83
-2 -1 0 186.16 2.7
-2 -1 0 181.01 2.9
2 1 1 1367.17 13.56
-2 -1 -1 1429.47 13.82
-2 -1 -1 1437.4 13.55
2 1 2 15.59 1.93
-2 -1 -2 12.06 1.13
-2 -1 -2 12.55 0.69
2 1 3 26.34 2.85
-2 -1 -3 17.91 1.84
-2 -1 -3 18.68 2.28
2 1 4 417.03 5.76
2 1 4 439.57 5.34
-2 -1 -4 421.07 5.15
2 1 5 25.47 3.01
2 1 5 31.98 2.81
-2 -1 -5 25.59 2.19
2 1 6 2066.05 38.46
2 1 6 2251.62 41.55
2 1 7 119.48 7.88
2 1 7 111.13 7.28
2 1 8 1.91 0.48
2 1 8 0.75 0.6
2 1 9 725.91 20.06
2 1 9 756.9 20.6
2 1 10 138.7 6.35
2 1 10 151.57 5.73
2 1 11 3.72 1.03
2 1 11 2.94 0.78
2 1 12 93.8 8.04
2 1 12 84.98 9.4
2 1 13 12.12 2.09
-2 -1 -13 15.26 1.57
2 1 13 11.32 3.63
2 1 14 0.67 0.55
-2 -1 -14 1.44 1.53
2 1 14 0.83 0.7
2 1 15 20.28 7.37
-2 -1 -15 38.14 3.12
2 1 15 22.67 6.07
-2 -2 12 1.87 0.99
-2 -2 11 103.28 5.88
-2 -2 10 0.57 0.54
-2 -2 10 0.8 1.16
-2 -2 9 2.57 0.79
-2 -2 9 1.58 1.5
-2 -2 8 3.56 0.89
-2 -2 8 1.29 0.94
-2 -2 7 44.33 3.42
-2 -2 7 44.42 3.59
-2 -2 6 1037.11 27.39
-2 -2 6 1023.35 27.39
-2 -2 5 636.32 11.46
-2 -2 4 32.99 2.44
-2 -2 3 1193.5 20.27
-2 -2 2 456.24 9.11
-2 -2 2 501.64 9.12
-2 -2 1 366.87 7.49
-2 -2 1 355.16 6.76
-2 -2 -1 319 4.25
2 2 2 338.16 4.4
2 2 3 360.01 7.7
2 2 4 55.4 1.98
2 2 5 82.97 2.43
2 2 5 78.72 2.29
2 2 6 211 4.99
2 2 7 188.7 4.33
2 2 8 13.75 1.94
2 2 8 10 1.63
2 2 9 2.95 0.62
2 2 9 2.65 0.58
2 2 10 525.35 17.43
2 2 10 441.71 14.78
2 2 11 138.57 10.38
-2 -2 -11 111.61 6.27
2 2 11 121.56 6.69
2 2 12 26.8 4.53
-2 -2 -12 22.36 2.93
2 2 12 21.48 3.53
2 2 13 447.8 24.95
-2 -2 -13 400.59 22.63
2 2 14 8.65 1.87
-2 -2 -14 6.04 1.32
2 2 14 3.8 1.38
2 2 15 206.22 10.3
-2 -2 -15 168.76 8.82
2 2 15 187.45 9.82
-2 -3 11 105.52 6.06
-2 -3 10 56.55 3.42
-2 -3 10 50.14 3.5
-2 -3 9 646.97 36.2
-2 -3 9 652.52 118.63
-2 -3 8 81.95 2.41
-2 -3 8 87.49 5.52
-2 -3 7 10.43 1.54
-2 -3 7 8.91 1.67
-2 -3 6 495.91 16.3
-2 -3 5 213.67 6.47
-2 -3 4 231.97 6.93
-2 -3 3 57.77 3.99
-2 -3 2 278.38 5.78
-2 -3 1 83.62 5.59
-2 -3 1 80.95 5.17
-2 -3 1 75.25 4.77
-2 -3 0 356.57 7.54
-2 -3 0 378.2 7.24
-2 -3 -1 767.79 14.99
-2 -3 -1 828.32 15.51
-2 -3 -2 156.66 3.92
-2 -3 -2 139.54 3.25
-2 -3 -3 958.24 18.36
-2 -3 -3 908.22 17.28
-2 -3 -4 1544.04 28.94
-2 -3 -4 1536.51 28.73
2 3 5 268.89 5.85
-2 -3 -5 272.03 5.63
2 3 6 994.09 18.15
-2 -3 -6 994.2 17.48
2 3 6 974.39 17.04
2 3 7 104.39 7
-2 -3 -7 107.94 7.23
2 3 7 92.08 7.02
2 3 8 37.79 3.54
-2 -3 -8 33.07 2.61
2 3 8 37.63 3.72
2 3 9 980.91 26.63
-2 -3 -9 1039.07 27.95
2 3 9 978.24 26.45
2 3 10 155.07 10.55
-2 -3 -10 180.23 6.96
2 3 11 44.28 4.37
-2 -3 -11 46.01 3.31
2 3 11 52.36 7.24
2 3 12 46.29 4.92
-2 -3 -12 63.36 5.33
2 3 12 59.47 9.07
2 3 13 14.21 3.49
-2 -3 -13 17.82 1.62
2 3 13 17.46 2.71
2 3 14 0.69 0.56
-2 -3 -14 0.97 1.02
2 3 14 2.41 1.05
2 3 15 10.95 3.56
-2 -3 -15 20 4.1
2 3 15 7.77 2.4
-2 -4 10 24.33 4.88
-2 -4 10 11.66 2.52
-2 -4 9 26.88 2.27
-2 -4 9 26.22 5.23
-2 -4 8 78.62 5.09
-2 -4 8 85.58 5.76
-2 -4 7 9.25 1.25
-2 -4 7 8.76 1.58
-2 -4 6 249.79 8.92
-2 -4 5 438.8 14.82
-2 -4 4 17.8 1.81
-2 -4 3 425.79 12.15
-2 -4 2 511.11 14.18
-2 -4 1 1.18 1.03
-2 -4 1 0.31 0.19
-2 -4 0 707.86 12.96
-2 -4 0 708 11.95
-2 -4 -1 6.26 0.9
-2 -4 -1 4.25 0.52
-2 -4 -2 1.02 0.69
-2 -4 -2 0.73 0.35
-2 -4 -3 196.14 4.54
-2 -4 -3 211.64 4.46
-2 -4 -4 1.05 0.77
-2 -4 -4 1.29 0.74
-2 -4 -5 113.91 7.57
-2 -4 -5 122.46 8.05
-2 -4 -6 94.25 6.31
-2 -4 -6 109.77 7.31
-2 -4 -7 96.54 6.53
-2 -4 -8 167.51 5.6
2 4 8 155.11 5.26
2 4 9 104.27 7.61
-2 -4 -9 112.51 8.34
2 4 9 94.45 7
2 4 10 210.11 7.57
-2 -4 -10 221.36 8.17
2 4 10 203.23 7.53
2 4 11 53.71 5.31
-2 -4 -11 63.39 4.06
2 4 11 48.34 7.93
2 4 12 67.07 6.46
-2 -4 -12 57.53 4.9
2 4 12 54.86 9.2
2 4 13 246.09 14.54
-2 -4 -13 237.44 14.03
2 4 14 12.52 4.31
-2 -4 -14 20.6 4.28
2 4 14 18.41 3.77
-2 -5 8 2.85 0.89
-2 -5 8 3.09 1.77
-2 -5 7 48.34 9.06
-2 -5 6 29.91 1.79
-2 -5 5 73.14 5.84
-2 -5 4 141.45 7.72
-2 -5 3 400.88 13.79
-2 -5 2 154 5.91
-2 -5 1 320.29 11.02
-2 -5 1 267.17 8.59
-2 -5 0 612.48 20.13
-2 -5 0 514.86 16.44
-2 -5 -1 113.35 7.57
-2 -5 -1 112.52 7.25
-2 -5 -2 3.82 0.83
-2 -5 -2 1.96 0.4
-2 -5 -3 855.79 23.09
-2 -5 -3 866.92 22.99
-2 -5 -4 541.99 15.08
-2 -5 -4 488.55 13.44
-2 -5 -5 58.01 4.15
-2 -5 -5 62.44 4.34
-2 -5 -6 381.64 12.8
-2 -5 -7 87.89 6.59
-2 -5 -7 82.65 6.22
-2 -5 -8 104.8 7.73
-2 -5 -8 98.73 7.43
-2 -5 -9 695.86 22.88
-2 -5 -9 758.19 25.25
-2 -5 -10 30.25 3.71
-2 -5 -10 49.47 3.5
2 5 10 30.43 6.38
-2 -5 -11 149.4 8.65
-2 -5 -11 165.46 9.86
2 5 11 147.82 14.38
-2 -5 -12 37.78 1.87
-2 -5 -12 49.72 9.35
2 5 12 32.85 5.8
-2 -5 -13 26.05 5.04
-2 -5 -13 26.02 5.09
2 5 13 15.64 3.89
-2 -5 -14 35.83 2.5
-2 -5 -14 34.09 2.58
2 5 14 21.95 5.82
-2 -6 6 226.14 11.32
-2 -6 5 0.72 0.67
-2 -6 4 7.09 1.15
-2 -6 3 625.26 34.33
-2 -6 2 131.73 7.92
-2 -6 1 20.17 2.92
-2 -6 0 400.32 13.83
-2 -6 0 343.04 11.3
-2 -6 -1 17.43 2.53
-2 -6 -1 11.3 2.25
-2 -6 -2 5.84 1.28
-2 -6 -2 7.7 1.11
-2 -6 -3 2.44 1.56
-2 -6 -3 2.39 0.66
-2 -6 -4 157.37 6.05
-2 -6 -4 155.68 5.68
-2 -6 -5 548.8 18.35
-2 -6 -5 562.15 18.56
-2 -6 -6 5.25 1.12
-2 -6 -6 6.55 1.1
-2 -6 -7 492.69 16.63
-2 -6 -7 528.53 17.76
-2 -6 -8 23.45 3
-2 -6 -8 23.46 2.98
-2 -6 -9 35.96 3.18
-2 -6 -9 31.36 3
-2 -6 -10 361.88 20.09
-2 -6 -10 325.28 18.33
-2 -6 -11 2.75 1.16
-2 -6 -11 2.01 0.9
-2 -6 -12 117.21 6.31
-2 -6 -12 99.53 5.7
2 6 12 104.57 6.05
-2 -6 -13 113.52 6.17
-2 -6 -13 116.13 6.61
2 6 13 83.16 12.78
-2 -7 3 104.97 5.94
-2 -7 2 174.06 10.58
-2 -7 1 10.67 1.29
-2 -7 0 288.23 16.77
-2 -7 -1 1.41 1.07
-2 -7 -2 3.68 1.26
-2 -7 -2 4.8 0.81
-2 -7 -3 633.4 34.7
-2 -7 -3 659.39 35.78
-2 -7 -4 157.42 9.24
-2 -7 -4 140.72 8.13
-2 -7 -5 15.68 1.62
-2 -7 -6 166.61 9.77
-2 -7 -6 152.45 8.86
-2 -7 -7 37.87 3.38
-2 -7 -7 28.87 2.66
-2 -7 -8 85.92 5.49
-2 -7 -8 86.93 5.65
-2 -7 -9 58.39 4.1
-2 -7 -9 55.35 3.93
-2 -7 -10 64.62 3.9
-2 -7 -10 56.49 3.68
-2 -7 -11 105.8 5.73
-2 -7 -11 99.57 5.74
-2 -7 -12 2.1 1.01
-2 -8 1 206.92 10.68
-2 -8 0 29.35 2.61
-2 -8 -1 38 2.92
-2 -8 -2 20.02 4.17
-2 -8 -3 1.01 1.07
-2 -8 -5 40.2 3
-2 -8 -5 39.62 2.6
-2 -8 -6 127.46 6.9
-2 -8 -6 119.81 6.3
-2 -8 -7 77.13 4.79
-2 -8 -7 60.81 3.74
-2 -8 -8 9.96 2.42
-2 -8 -8 9.33 2.16
-2 -8 -9 87.98 5.19
-2 -8 -9 86.54 5.05
3 -7 -8 10.46 3.68
3 -7 -7 11.38 3.12
3 -7 -6 51.96 5.65
3 -7 -5 8.65 2.15
3 -7 -4 129.35 8.11
3 -7 -3 10.43 1.23
3 -7 -3 16.81 3.52
3 -7 -2 32.34 6.81
3 -7 -1 167.2 9.97
3 -7 -1 173.98 16.92
3 -7 0 2.77 0.85
3 -7 0 8.9 1.59
3 -7 1 138.69 7.32
3 -7 1 141.51 13.27
3 -7 2 314.2 15.33
3 -7 2 303.6 15.01
3 -7 3 7.02 2.3
3 -7 3 3.4 1.3
3 -7 4 45.87 3.33
3 -6 -10 10.56 2.64
-3 6 10 16.41 3.73
3 -6 -9 -0.64 1.21
-3 6 9 0.46 0.53
3 -6 -8 371.97 21.49
-3 6 8 375.97 21.32
3 -6 -7 7.95 1.97
-3 6 7 6.76 1.39
3 -6 -6 59.63 8.15
-3 6 6 73.94 5.18
3 -6 -5 311.27 17.97
3 -6 -4 2.49 0.54
3 -6 -4 7.88 1.67
3 -6 -3 200.32 13.01
3 -6 -2 234.66 13.13
3 -6 -2 237.09 13.56
3 -6 -1 219.95 12.4
3 -6 -1 242.24 21.65
3 -6 0 73.84 5.87
3 -6 0 68.89 8.15
3 -6 1 23.9 2.51
3 -6 1 23.36 4.22
3 -6 2 47.76 4.14
3 -6 2 45.31 4.7
3 -6 3 294.43 17.1
3 -6 3 296.42 17.25
3 -6 4 99.39 6.47
3 -6 4 93.02 10.65
3 -6 5 104.03 5.95
3 -6 6 20.36 4.25
3 -5 -11 28.15 4.47
-3 5 11 26.76 4.99
3 -5 -10 1.65 0.92
-3 5 10 2.56 0.95
3 -5 -9 90.99 12.08
-3 5 9 104.74 6.47
-3 5 8 0.72 0.44
3 -5 -7 311.2 17.68
-3 5 7 291.45 16.11
3 -5 -6 126.69 7.76
3 -5 -5 188.74 10.17
-3 5 5 200.88 7.09
3 -5 -4 678.23 21.87
3 -5 -4 648.73 21.83
-3 5 4 624.36 20.24
3 -5 -3 197.23 14.48
3 -5 -3 197.26 15.14
3 -5 -2 58.06 4.42
3 -5 -2 80.75 11.68
3 -5 -1 180.18 6.54
3 -5 -1 172.95 6.58
3 -5 0 112.73 6.19
3 -5 0 86.02 7.12
3 -5 1 619.96 20.56
3 -5 1 632.13 21.64
3 -5 2 107.36 6.03
3 -5 2 109.42 6.16
3 -5 3 10.09 1.72
3 -5 3 9.81 2.28
3 -5 4 407.56 22.67
3 -5 4 490.2 26.96
3 -5 5 0.66 0.9
3 -5 6 2.52 1.07
3 -5 7 341.15 19.8
3 -5 8 4.61 1.85
3 -4 -11 463.97 22.24
-3 4 11 498.46 23.87
3 -4 -10 49.03 10.42
-3 4 10 52.22 6.23
-3 4 9 1.09 0.43
3 -4 -8 502.79 27.87
-3 4 8 508.97 27.88
3 -4 -7 5.09 1.88
-3 4 7 3.82 0.75
3 -4 -6 27.81 5.15
-3 4 6 22.24 3.4
3 -4 -5 284.62 10.52
-3 4 5 293.97 9.89
3 -4 -4 211.3 6.97
3 -4 -4 188.65 7.41
-3 4 4 202.26 6.85
3 -4 -3 493.3 15.82
3 -4 -3 480.35 16.26
-3 4 3 449.19 14.64
3 -4 -2 22.44 1.76
3 -4 -2 30.1 3.71
3 -4 -1 433.12 11.98
3 -4 -1 413.11 12.32
3 -4 0 250.69 7.43
3 -4 0 225.57 8.81
3 -4 1 9.64 1.21
3 -4 1 10.76 1.63
3 -4 2 487.73 16.23
3 -4 2 519.27 17.44
3 -4 3 191.86 7.16
3 -4 3 176.38 7.68
3 -4 4 30.63 2.8
3 -4 4 34.27 2.99
3 -4 5 125.31 7.03
3 -4 6 13.61 2.09
3 -4 7 246.54 14.16
3 -4 8 5.22 1.34
3 -4 9 43.38 2.43
3 -4 10 213.35 10.89
3 -3 -12 78.43 12.52
-3 3 12 116.69 6.5
3 -3 -11 2.23 0.81
-3 3 11 6.87 2.01
3 -3 -10 1.8 1.25
-3 3 10 3.06 0.95
3 -3 -9 66.59 7.91
-3 3 9 73.19 8.7
3 -3 -8 8.37 1.61
-3 3 8 5.21 1.17
3 -3 -7 48 5.4
-3 3 7 44.95 3.95
3 -3 -6 50.57 7.32
-3 3 6 56.16 6.73
-3 3 5 750.9 20.12
3 -3 -4 128.55 8.11
-3 3 4 128.35 8.09
3 -3 -4 139.58 4.93
-3 3 4 147.84 8.14
3 -3 -3 43.64 3.97
-3 3 3 41.56 2.79
3 -3 -3 46.57 4.97
-3 3 3 45.09 5.07
3 -3 -3 37.95 2.6
3 -3 -2 691.25 18.26
-3 3 2 634.64 11.03
3 -3 -2 761.75 21.25
-3 3 2 669.68 17.56
3 -3 -2 668.24 17.53
3 -3 -1 56.81 3.86
3 -3 -1 52.67 3.81
-3 3 1 57.63 3.75
3 -3 0 227.6 4.8
3 -3 0 223.13 5.33
3 -3 1 429.45 8.34
3 -3 1 431.57 8.89
3 -3 2 55.13 3.95
3 -3 2 64.2 6.95
3 -3 3 473.25 13.77
3 -3 4 158.6 5.31
3 -3 5 2.09 0.76
3 -3 5 1.12 0.2
3 -3 6 208.11 7.72
3 -3 7 87.39 5.26
3 -3 8 148.12 8.18
3 -3 9 46.89 4.07
3 -3 10 4.08 1.19
3 -3 11 37.14 3.11
3 -2 -12 1.12 0.81
-3 2 12 2.76 1.4
-3 2 11 436.77 25.33
3 -2 -10 29.37 5.37
-3 2 10 39.36 4.82
3 -2 -9 278.64 15.6
-3 2 9 281.63 16.26
3 -2 -8 472.07 16.23
-3 2 8 478.81 16.22
3 -2 -7 433.79 14.95
-3 2 7 465.66 15.71
3 -2 -6 709 23.49
-3 2 6 746.29 24.08
3 -2 -5 286.52 8.54
-3 2 5 310.21 9.31
-3 2 4 174.11 4.62
-3 2 4 180.59 4.79
3 -2 -4 186.07 6
-3 2 4 195.74 5.96
3 -2 -3 830.21 13.83
-3 2 3 829.45 13.84
-3 2 3 850.8 14.59
3 -2 -2 3.21 0.47
-3 2 2 3.79 0.5
3 -2 -2 8.49 1.2
-3 2 2 4.75 0.81
3 -2 -1 260.2 5.04
-3 2 1 268.61 5.19
3 -2 -1 276.47 6.15
-3 2 1 263.13 4.78
3 -2 0 545.73 10.13
3 -2 0 450.68 9.15
-3 2 0 463.97 7.64
3 -2 1 63.28 4.31
3 -2 1 65.82 4.65
3 -2 2 565.21 10.79
3 -2 2 483.28 10.13
3 -2 3 129.31 8.62
3 -2 4 924.29 16.62
3 -2 5 56.15 4.07
3 -2 5 58.48 3.72
3 -2 6 19.33 1.89
3 -2 6 22.53 2.13
3 -2 7 733.15 24.08
3 -2 7 631.66 20.08
3 -2 8 17.34 2.88
3 -2 9 154.43 16.2
3 -2 9 140.72 7.39
3 -2 10 598.43 32.95
3 -2 10 519.04 28.24
3 -2 11 7.11 1.26
3 -2 11 1.7 0.88
3 -2 12 48.71 9.15
-3 1 12 73.63 4.47
-3 1 11 64.66 6.99
3 -1 -10 25.84 3.99
-3 1 10 76.43 6.85
3 -1 -9 67.38 7.4
-3 1 9 88.45 5.58
3 -1 -8 24.66 3.82
-3 1 8 34.32 4.08
3 -1 -7 165.43 5.95
-3 1 7 168.26 6.18
3 -1 -6 11.22 1.84
-3 1 6 8.82 1.02
-3 1 5 123.96 7.77
-3 1 5 131.48 9.08
3 -1 -5 143.17 4.59
-3 1 5 137.39 4.45
-3 1 4 456.85 7.77
-3 1 4 455.19 7.7
3 -1 -4 462.38 8.73
-3 1 4 499.37 9.29
-3 1 3 39.24 2.62
-3 1 3 35.24 2.34
3 -1 -3 46.65 6.16
-3 1 3 32.7 2.33
3 -1 -2 1071.77 17.93
3 -1 -2 1103.85 19.01
-3 1 2 1109.87 18.7
3 -1 -1 388.04 7.72
-3 1 1 352.81 7.11
-3 1 1 364.2 6.51
3 -1 0 361.16 7.28
-3 1 0 378.01 7.66
3 -1 0 382.7 8.23
-3 1 0 376.01 7.2
3 -1 1 299.87 6.53
3 -1 1 299.9 7.09
-3 1 -1 314.15 5.91
-3 1 -2 171.33 3.18
-3 1 -2 168.3 3.12
3 -1 3 677.45 12.47
-3 1 -3 681.69 11.04
3 -1 4 480.18 9.39
-3 1 -4 485.71 8.06
3 -1 5 0.84 0.82
3 -1 5 0.29 0.17
-3 1 -5 0.69 0.22
3 -1 6 153.07 5.72
3 -1 6 120.05 7.65
-3 1 -6 115.93 7.38
3 -1 7 174.29 5
-3 1 -7 160.51 4.66
3 -1 8 256.41 9.4
3 -1 8 209.15 7.22
3 -1 9 48.41 6.92
3 -1 9 35.99 5.18
3 -1 10 1.95 1.44
3 -1 10 0.71 0.72
3 -1 11 12.51 2.45
3 -1 12 21.13 2.17
3 -1 12 18.04 4.08
3 -1 13 110.02 7.7
3 -1 13 89.9 7.68
-3 0 12 278.79 14.87
-3 0 11 162.64 8.53
-3 0 10 1.09 0.93
3 0 -9 324.23 17.84
-3 0 9 377.09 20.99
-3 0 8 320.23 11.25
-3 0 7 49.29 3.55
3 0 -7 47.62 5.34
-3 0 7 52.44 4.16
-3 0 6 815.66 25.64
3 0 -6 841.5 26.91
-3 0 6 826.62 26.64
-3 0 5 17.36 2.86
-3 0 5 21.99 1.58
3 0 -5 25.75 3.95
-3 0 5 21.21 1.79
-3 0 4 100.59 6.47
-3 0 4 105.78 6.78
3 0 -4 107.25 7
-3 0 4 91.58 5.98
-3 0 4 111.95 7.36
-3 0 3 181.59 3.68
-3 0 3 210.34 4.08
3 0 -3 205.68 4.39
-3 0 3 210.56 4.33
-3 0 3 210.52 4.42
-3 0 2 680.07 11.69
-3 0 2 701.16 11.98
3 0 -2 710.32 12.41
-3 0 2 688.56 12.15
-3 0 2 693.18 12.16
3 0 -1 171.57 3.82
-3 0 1 150.66 3.39
3 0 -1 167.35 4.03
3 0 0 507.05 10.09
-3 0 0 495.22 9.95
3 0 0 513.04 10.2
3 0 2 190.08 5.44
-3 0 -2 203.44 4.21
3 0 3 192.54 4.55
-3 0 -3 196.22 4.05
3 0 4 974.39 17.41
-3 0 -4 1029.34 17.15
3 0 5 25.18 3.17
-3 0 -5 20.09 2.87
3 0 6 196.79 4.8
3 0 6 193.13 4.23
-3 0 -6 195.63 3.9
3 0 7 317.17 9.39
3 0 7 332.81 9.41
3 0 8 283 8.74
3 0 8 255.34 7.48
3 0 9 889.98 29.27
3 0 9 865.73 27.73
3 0 10 424.87 14.77
3 0 10 426.05 14.44
3 0 11 70.54 8.24
3 0 11 53.3 7.36
3 0 12 200.9 16.09
3 0 12 171.42 10.1
3 0 13 36.63 3.46
3 0 14 1.04 0.55
3 0 14 0.7 0.59
-3 -1 11 56.52 3.73
-3 -1 10 30.87 2.05
-3 -1 9 1.64 1.2
-3 -1 8 320.97 10.69
-3 -1 8 288.06 10.36
-3 -1 7 10.8 1.4
-3 -1 7 10 1.6
-3 -1 6 263.11 8.72
3 1 -6 238.81 7.88
-3 -1 6 251.1 8.8
-3 -1 5 161.14 4.8
3 1 -5 149.65 4.38
-3 -1 5 143.45 4.13
-3 -1 5 151.95 4.9
-3 -1 4 100.03 6.49
3 1 -4 102.9 6.69
-3 -1 4 87.42 5.62
-3 -1 4 107.18 7.12
-3 -1 3 572.19 10.14
3 1 -3 540.17 9.6
-3 -1 3 522.27 9.11
-3 -1 2 2805.95 174.68
-3 -1 2 2456.09 40.22
-3 -1 1 4.84 0.58
-3 -1 1 4.23 0.58
3 1 0 226.97 4.95
-3 -1 0 222.07 4.95
-3 -1 -1 776.02 14.86
3 1 2 311.03 6.69
3 1 3 626.63 12.7
-3 -1 -3 619.47 11.99
3 1 4 33.01 4.97
-3 -1 -4 24.69 2.87
3 1 5 1.38 0.69
-3 -1 -5 0.55 0.44
3 1 6 695.46 13.04
3 1 6 688.25 12.31
3 1 7 45.67 5.15
3 1 7 41.58 4.89
3 1 8 209.65 6.54
3 1 8 230.81 6.78
3 1 9 20.46 2.64
3 1 9 18.74 2.87
3 1 10 39.86 6.44
3 1 10 36.94 4.99
3 1 11 78.35 6.15
3 1 11 70.11 9.48
3 1 12 2.06 0.5
3 1 12 5.58 1.15
3 1 13 278.1 16.9
3 1 13 257.72 14.9
3 1 14 2.31 1.15
3 1 14 1.1 0.8
-3 -2 10 1.88 0.73
-3 -2 9 203.59 12.09
-3 -2 8 64.48 5.07
-3 -2 8 72.18 5.86
-3 -2 7 6.61 1.04
-3 -2 7 8.05 1.4
-3 -2 6 973.69 31.3
-3 -2 6 972.7 31.62
-3 -2 5 40.96 3.21
-3 -2 4 530.13 14.42
-3 -2 3 61.15 4.16
-3 -2 3 61.11 3.91
-3 -2 2 184.52 4.11
-3 -2 2 181.39 3.66
-3 -2 1 8.09 0.86
-3 -2 1 5.77 1.08
-3 -2 0 17.44 1.46
-3 -2 0 12.44 2.28
-3 -2 -1 545.65 9.97
-3 -2 -1 514.8 9.7
3 2 2 41.32 2.94
3 2 3 301.72 6.47
3 2 4 1360.19 23.31
3 2 5 16.03 2.31
3 2 6 75.78 5.4
3 2 7 773.45 21.61
3 2 7 837.48 22.5
3 2 8 2.73 0.69
3 2 8 2.49 0.77
3 2 9 323.58 11.39
3 2 9 320.33 11.09
3 2 10 82.88 8.65
3 2 10 87.55 7.53
3 2 11 42.4 7.4
3 2 11 44.31 6.62
3 2 12 214.81 12.28
3 2 12 182.91 11.36
3 2 13 10.67 2.3
3 2 13 12.34 1.99
3 2 14 8.29 3.04
-3 -2 -14 9.9 2.49
3 2 14 11.19 3.32
-3 -3 9 69.55 4.33
-3 -3 8 479.74 26.98
-3 -3 8 484.85 27.48
-3 -3 7 28.81 2.53
-3 -3 7 20.44 2.12
-3 -3 6 189.74 9.91
-3 -3 5 25.01 3.09
-3 -3 4 16.7 1.63
-3 -3 3 747.13 24.09
-3 -3 2 176.12 5.51
-3 -3 1 49.11 3.47
-3 -3 1 48.39 3.26
-3 -3 1 49.07 3.18
-3 -3 0 491.01 9.43
-3 -3 0 437.91 7.89
-3 -3 -1 275.9 6.08
-3 -3 -2 8.01 1.01
-3 -3 -3 259.91 5.63
-3 -3 -4 2.23 0.63
3 3 5 1.17 0.7
3 3 6 0.75 0.73
3 3 7 190.35 6.05
3 3 8 65.79 8.11
3 3 9 4.92 0.88
3 3 9 4.36 1.4
3 3 10 118.6 9.11
3 3 10 107.71 11.4
3 3 11 5.59 1.18
3 3 12 124.08 8.15
-3 -3 -12 141.16 8.52
3 3 12 155.47 9.1
3 3 13 277.97 16.58
-3 -3 -13 349.9 20.31
3 3 13 335.65 19.26
3 3 14 2.86 0.86
3 3 14 3.07 1.64
-3 -4 8 1.36 0.7
-3 -4 8 0.78 0.88
-3 -4 7 38.82 2.06
-3 -4 7 35.05 2.16
-3 -4 6 200.52 11.7
-3 -4 5 113.67 6.84
-3 -4 4 0.4 0.88
-3 -4 3 61.46 3.72
-3 -4 2 790.87 25.63
-3 -4 1 77.93 5.85
-3 -4 1 75.32 5.23
-3 -4 0 108.61 7.29
-3 -4 0 99.62 6.37
-3 -4 0 101.95 6.5
-3 -4 -1 1115.61 29.75
-3 -4 -1 1162.87 30.29
-3 -4 -2 138.11 4.74
-3 -4 -2 110.32 7.14
-3 -4 -3 485.44 13.85
-3 -4 -3 552.44 15.25
-3 -4 -4 356.17 10.38
-3 -4 -4 330.84 9.41
-3 -4 -5 41.73 3.16
-3 -4 -5 43.66 3.2
-3 -4 -6 691.06 22.52
-3 -4 -6 676.45 22.03
-3 -4 -7 442.72 14.85
-3 -4 -7 520.16 17.32
3 4 8 1.94 0.69
-3 -4 -8 2.26 1.21
3 4 9 592.95 20
-3 -4 -9 609.5 20.54
3 4 10 1.56 0.62
-3 -4 -10 4.83 1.91
3 4 11 112.05 7.74
-3 -4 -11 147.26 8.91
3 4 11 106.17 9.93
3 4 12 267.65 15.52
-3 -4 -12 277.33 16.2
3 4 12 275.12 15.98
3 4 13 5.6 1.9
-3 -4 -13 4.78 1.37
3 4 13 5.38 1.44
3 4 14 10.77 3.74
-3 -4 -14 14.54 3.24
3 4 14 8.66 2.78
-3 -5 7 1.92 1.06
-3 -5 6 218.77 10.92
-3 -5 5 228.76 13.4
-3 -5 4 2.92 0.69
-3 -5 3 390.81 21.67
-3 -5 2 103.63 5.86
-3 -5 1 4.76 1.26
-3 -5 0 48.27 3.11
-3 -5 -1 170.97 6.4
-3 -5 -1 165.22 5.59
-3 -5 -2 23.88 2.2
-3 -5 -2 24.92 1.99
-3 -5 -3 106.07 7.86
-3 -5 -3 97.76 7.04
-3 -5 -4 29.66 2.61
-3 -5 -4 29.41 2.43
-3 -5 -5 5.62 1.19
-3 -5 -5 6.01 0.83
-3 -5 -6 4.31 1.69
-3 -5 -6 1.27 0.67
-3 -5 -7 553.35 18.65
-3 -5 -7 543.37 18.22
-3 -5 -8 11.44 1.82
-3 -5 -8 14.22 2.06
-3 -5 -9 18.94 2.21
-3 -5 -9 16.9 1.83
-3 -5 -10 143.18 8.45
-3 -5 -10 150.2 8.98
-3 -5 -11 45.07 2.34
-3 -5 -11 48.62 9.17
-3 -5 -12 76.68 5.13
-3 -5 -12 78.49 5.31
-3 -5 -13 103.74 5.85
-3 -5 -13 103.72 5.92
3 5 13 94.37 5.55
-3 -6 5 102.25 5.76
-3 -6 4 7.48 1.92
-3 -6 3 5.75 1.27
-3 -6 2 83.16 5.47
-3 -6 1 2.99 1.36
-3 -6 0 470.02 25.96
-3 -6 -1 427.43 23.68
-3 -6 -2 35.63 3.18
-3 -6 -2 40.68 3.21
-3 -6 -3 396.53 13.73
-3 -6 -3 523.07 17.15
-3 -6 -4 74.02 4.57
-3 -6 -4 71.05 4.02
-3 -6 -5 10.19 1.85
-3 -6 -5 14.84 1.93
-3 -6 -6 257.93 14.61
-3 -6 -6 259.08 14.5
-3 -6 -7 121.75 7.33
-3 -6 -7 118.07 7
-3 -6 -8 157.05 9.31
-3 -6 -8 123.53 7.42
-3 -6 -9 79.02 5.71
-3 -6 -9 68.97 4.71
-3 -6 -10 40.93 2.24
-3 -6 -10 48.35 9.1
-3 -6 -11 57.23 3.74
-3 -6 -11 61.22 4.01
-3 -6 -12 76.14 4.83
-3 -6 -12 72.35 4.51
-3 -7 2 49.47 3.69
-3 -7 1 46.41 3.38
-3 -7 0 80.87 4.77
-3 -7 -1 33.68 2
-3 -7 -2 40.81 2.22
-3 -7 -3 29.69 2.06
-3 -7 -4 36.5 2.17
-3 -7 -4 35.39 1.59
-3 -7 -5 1.12 1.08
-3 -7 -5 1.87 0.74
-3 -7 -6 45.34 2.34
-3 -7 -6 39.99 1.85
-3 -7 -7 246.94 14.3
-3 -7 -8 49.15 9.25
-3 -7 -8 63.54 4.32
-3 -7 -9 92.55 5.35
-3 -7 -9 106.95 6
-3 -7 -10 269.46 13.37
-3 -7 -10 279.94 13.9
-3 -8 -3 259.9 12.98
-3 -8 -4 10.11 2.31
-3 -8 -5 2.07 1.03
-3 -8 -7 6.1 1.62
-3 -8 -7 2.16 0.82
4 -7 -2 173.67 9.15
4 -7 -1 2.15 0.96
4 -6 -7 36.72 4.69
4 -6 -6 -0.02 0.96
4 -6 -5 3.46 1.16
4 -6 -4 208.19 11.77
4 -6 -3 0.82 0.66
4 -6 -2 53.09 6.98
4 -6 -1 432.6 24.44
4 -6 -1 399.61 22.95
4 -6 0 2.08 1.12
4 -6 0 5.09 1.2
4 -6 1 60.86 4.17
4 -6 1 49.39 10.14
4 -6 2 30.1 2.37
4 -6 2 24.78 6.27
4 -6 3 9.27 2.46
4 -6 3 3.26 1.25
4 -6 4 183.93 9.66
4 -5 -8 284.71 14.08
4 -5 -7 158.91 9.85
4 -5 -5 294.37 17.25
4 -5 -4 14.61 2.63
4 -5 -3 43.29 6.12
4 -5 -2 24.23 2.87
4 -5 -2 33.56 4.74
4 -5 -1 56.04 4.56
4 -5 -1 55.49 6.59
4 -5 0 278.32 15.49
4 -5 0 309.37 17.5
4 -5 1 105.17 6.32
4 -5 1 104.01 9.36
4 -5 2 386.13 21.41
4 -5 2 381.53 21.75
4 -5 3 1.49 0.86
4 -5 3 1.14 0.69
4 -5 4 2.12 1
4 -5 5 217.79 12.93
4 -5 6 12.99 2.82
4 -4 -9 21.72 5.53
-4 4 9 18.97 6.08
4 -4 -8 53.91 8.09
-4 4 8 59.63 3.95
4 -4 -7 88.55 11.47
-4 4 7 74.88 8.08
4 -4 -6 61.69 11
-4 4 6 49.56 5.03
4 -4 -5 94.6 11.18
-4 4 5 79.85 2.35
4 -4 -4 111.85 6.84
-4 4 4 102.67 5.43
4 -4 -3 27.89 4.2
4 -4 -3 29.5 4.97
4 -4 -2 617.97 21
4 -4 -1 859.98 28.31
4 -4 -1 760.9 25.71
4 -4 0 9.63 1.61
4 -4 0 6.33 1.32
4 -4 1 201.65 7.59
4 -4 1 207.33 9.37
4 -4 2 18.9 2.54
4 -4 2 18.81 4.27
4 -4 3 83.09 4.86
4 -4 3 90.39 9.42
4 -4 4 266.47 15.09
4 -4 5 21.31 2.3
4 -4 7 174.35 10.59
4 -4 8 39.88 3.26
4 -4 9 1.22 0.81
4 -3 -10 31.37 7.26
-4 3 10 40.72 7.76
4 -3 -9 0.64 1.03
-4 3 9 1.24 0.59
4 -3 -8 423.47 24.36
-4 3 8 385.24 21.96
4 -3 -7 48.81 6.46
-4 3 7 39.21 5.73
4 -3 -6 40.23 6.6
-4 3 6 34.67 3.58
4 -3 -5 1072.35 35.69
-4 3 5 928.28 29.89
4 -3 -4 183.8 10.45
-4 3 4 169.87 8.68
4 -3 -3 2.21 0.6
-4 3 3 1.47 0.35
4 -3 -2 128.21 14.09
4 -3 -2 130.81 14.74
-4 3 2 133.75 14.62
4 -3 -1 86.1 6.23
4 -3 -1 90.7 6.79
-4 3 1 83.6 5.81
4 -3 0 152.46 5.58
4 -3 0 154.42 7.14
4 -3 1 0.82 0.72
4 -3 1 0.54 1.02
4 -3 2 451.46 15.23
4 -3 2 408.16 14.4
4 -3 3 47.34 6.79
4 -3 3 51.15 4.15
4 -3 4 20.44 4.24
4 -3 5 531.96 18.38
4 -3 6 4.02 1.22
4 -3 7 162.15 10.97
4 -3 8 163.7 9.98
4 -3 9 0.07 0.52
4 -3 10 147.08 8.47
4 -2 -10 87.35 10.89
-4 2 10 82.35 12.42
-4 2 9 58.59 3.98
4 -2 -8 147.76 8.91
-4 2 8 150.58 8.96
4 -2 -7 222.09 12.75
-4 2 7 242.39 13.67
4 -2 -6 6.33 1.59
-4 2 6 8.82 1.54
4 -2 -5 71.79 7.68
-4 2 5 77.08 6.28
-4 2 4 20.74 1.57
4 -2 -4 23.58 2.6
-4 2 4 21.2 3.87
4 -2 -3 278.31 9.09
4 -2 -3 280.64 9.81
-4 2 3 294.14 9.94
4 -2 -2 290.44 9.59
4 -2 -2 302.78 10.64
-4 2 2 281.01 9.18
4 -2 -1 76.44 5.44
-4 2 1 76.43 4.91
4 -2 0 112.17 7.33
4 -2 0 129.19 8.58
-4 2 0 114.65 7.19
4 -2 1 460.12 13.1
4 -2 1 488.99 14.37
4 -2 2 20.34 3.73
4 -2 2 24.2 4.08
4 -2 3 210.33 7.51
4 -2 4 210.3 7.61
4 -2 5 108.08 8
4 -2 6 76.92 5.06
4 -2 7 13.52 2.63
4 -2 8 5.24 1.55
4 -2 9 33.05 5.33
4 -2 10 1.4 0.66
4 -2 11 39.31 6.56
-4 1 10 4.38 1.5
-4 1 9 78.85 5.48
4 -1 -8 241.36 14.03
-4 1 8 230.55 13.44
4 -1 -7 2.86 0.87
-4 1 7 2.53 0.7
4 -1 -6 194.02 10.22
-4 1 6 197.44 7.18
4 -1 -5 315.35 10.78
-4 1 5 335.49 11.43
-4 1 4 346.62 11.13
4 -1 -4 336.64 11.32
-4 1 4 361.05 12.03
-4 1 3 473.42 15.11
4 -1 -3 463.16 15.51
-4 1 3 494.44 16.05
4 -1 -2 54.43 3.69
4 -1 -2 60.25 6.72
-4 1 2 54.83 3.72
4 -1 -1 708.95 18.83
4 -1 -1 713.36 19.65
-4 1 1 742.97 19.58
4 -1 0 260.95 7.83
4 -1 0 277.96 8.4
-4 1 0 262.85 7.16
4 -1 1 427.61 11.98
4 -1 1 392.33 11.72
-4 1 -1 418.07 11
4 -1 2 389.64 10.96
-4 1 -2 374.39 9.76
-4 1 -2 385.4 10.02
4 -1 3 124.01 8.2
4 -1 5 103.32 8.26
4 -1 6 39.88 6.35
4 -1 7 768.77 26
4 -1 8 21.68 4.33
4 -1 9 13.31 2.62
4 -1 10 530.29 30.05
4 -1 11 116.07 7.35
4 -1 12 7.65 2.11
-4 0 10 120.45 6.7
-4 0 9 24.63 2.09
-4 0 8 86.04 5.56
4 0 -7 93.16 8.9
-4 0 7 120.26 7.16
-4 0 6 15.43 2.21
-4 0 5 638.67 20.48
4 0 -5 599.07 19.98
-4 0 5 629.09 20.72
-4 0 4 63.52 4.6
4 0 -4 60.2 7.03
-4 0 4 67.44 5.06
-4 0 3 216.88 7.27
4 0 -3 218.02 7.64
-4 0 3 215.55 7.41
-4 0 2 436.43 11.85
4 0 -2 432.85 12.14
-4 0 2 408.37 11.22
4 0 -1 0.84 0.77
4 0 -1 0.76 0.49
4 0 0 16.39 2.19
4 0 1 659.23 17.99
4 0 2 216.39 6.45
-4 0 -2 176.74 4.99
4 0 3 203.57 6.65
-4 0 -3 151.75 4.43
4 0 4 156.32 5.08
-4 0 -4 139.73 4.01
4 0 5 294.43 8.67
-4 0 -5 253.9 7.04
4 0 6 61.69 6.79
4 0 7 5.68 1.02
4 0 8 120.12 7.7
4 0 9 33.65 7.02
4 0 9 33.48 3.87
4 0 10 2.58 0.81
4 0 10 2.35 0.83
4 0 11 44.77 6.89
4 0 12 60.94 5.39
4 0 13 32.44 7.5
-4 -1 9 279.56 13.7
-4 -1 8 66.77 4.52
-4 -1 7 47.29 4.04
-4 -1 6 105.54 6.04
-4 -1 6 98.61 5.99
-4 -1 5 52.36 2.98
-4 -1 5 59.55 3.59
-4 -1 4 145.68 5.15
-4 -1 4 144 5.43
-4 -1 3 151.96 5.36
-4 -1 2 106.86 7.67
-4 -1 1 149.41 4.63
-4 -1 0 36.76 2.72
4 1 1 1027.9 27.79
4 1 2 3 0.74
4 1 4 780.96 21.3
4 1 5 0.11 0.45
4 1 6 75.84 5.89
4 1 7 777.32 25.79
4 1 8 53.83 7.75
4 1 9 149.96 11.73
4 1 10 194.79 16.15
4 1 11 40.39 6.96
4 1 11 36.17 6.61
4 1 12 131.71 11.29
4 1 13 58.65 5.9
-4 -2 9 0.77 0.89
-4 -2 8 163.83 8.58
-4 -2 7 5.21 1.08
-4 -2 6 40.57 3.38
-4 -2 6 34.64 3.07
-4 -2 5 604.99 32.81
-4 -2 5 665.69 36.31
-4 -2 4 20.96 2.62
-4 -2 3 848.91 27.15
-4 -2 2 237.76 8.17
-4 -2 1 306.63 10.37
-4 -2 0 551.75 15.2
-4 -2 -1 394.96 11.12
4 2 3 114.24 7.62
4 2 4 93.87 6.38
4 2 5 35.65 6.16
4 2 6 38.87 5.53
4 2 7 125.99 9.33
4 2 8 30.31 6.49
4 2 9 22.24 4.1
4 2 10 345.31 19.41
4 2 11 6.12 1.53
4 2 11 7.05 0.97
4 2 12 1.32 0.73
4 2 12 0.18 0.49
4 2 13 82.8 11.1
-4 -3 8 115.68 6.57
-4 -3 7 26.09 5.11
-4 -3 6 38.74 1.89
-4 -3 6 37.7 2.43
-4 -3 5 55.97 4.56
-4 -3 4 47.73 3.9
-4 -3 3 195.26 10.2
-4 -3 2 35.8 4.19
-4 -3 1 312.75 10.69
-4 -3 0 25.84 2.39
-4 -3 -1 705.97 23.22
-4 -3 -2 57.43 4.51
-4 -3 -3 34.76 2.91
-4 -3 -4 1334.5 145.05
4 3 5 15.77 2.66
4 3 6 112.2 8.9
4 3 7 497.42 16.99
4 3 8 36.08 7.62
4 3 9 45.77 6.03
4 3 10 270.63 15.3
4 3 11 2.97 1.2
4 3 12 84.3 7.6
4 3 13 13.94 4.27
4 3 13 19.16 3.83
-4 -4 6 70.72 4.09
-4 -4 5 441.64 25.06
-4 -4 4 10.38 1.26
-4 -4 3 192.04 10.98
-4 -4 2 158.06 9.15
-4 -4 1 7.09 1.22
-4 -4 0 296.64 10.44
-4 -4 -1 2.44 0.79
-4 -4 -1 3.33 0.61
-4 -4 -2 9.35 1.59
-4 -4 -3 1.17 0.83
-4 -4 -4 27.45 3.48
-4 -4 -5 15.7 2.17
-4 -4 -6 19.24 2.55
-4 -4 -7 69.62 4.47
4 4 8 17.05 1.88
4 4 9 35.58 5.48
4 4 10 352.74 20.24
-4 -4 -10 395.72 22.7
4 4 11 6.15 1.17
-4 -4 -11 7.45 1.5
4 4 12 24.48 5.92
-4 -4 -12 33.87 2.78
4 4 13 24.24 6.16
-4 -4 -13 39.54 3.25
-4 -5 5 94.52 5.46
-4 -5 4 4.88 1.45
-4 -5 3 3.08 1.1
-4 -5 2 355.41 20.39
-4 -5 1 5.26 0.9
-4 -5 0 24.94 2.46
-4 -5 -1 374.73 20.8
-4 -5 -2 56.47 4.7
-4 -5 -3 152.3 9
-4 -5 -3 140.41 7.96
-4 -5 -4 1206.08 10.61
-4 -5 -4 1116.85 60.18
-4 -5 -5 23.8 2.5
-4 -5 -5 23.03 2.2
-4 -5 -6 255.36 14.61
-4 -5 -6 245.55 13.85
-4 -5 -7 147.06 8.82
-4 -5 -7 140.19 8.3
-4 -5 -8 36.49 3.45
-4 -5 -8 33.8 3.15
-4 -5 -9 114.96 7.4
-4 -5 -9 114.71 7.29
-4 -5 -10 2.17 0.88
-4 -5 -11 10.49 2.69
-4 -5 -11 11.94 2.68
-4 -5 -12 184.51 9.61
-4 -5 -12 186.06 9.76
-4 -6 2 45.41 3.34
-4 -6 0 451 25.72
-4 -6 -1 2.12 1.07
-4 -6 -2 24.81 2.09
-4 -6 -3 2.95 1.15
-4 -6 -4 62.38 4.33
-4 -6 -5 0.12 0.98
-4 -6 -5 3.12 1.02
-4 -6 -6 1.59 1.37
-4 -6 -6 1.69 0.8
-4 -6 -7 92 6.17
-4 -6 -7 78.69 5.14
-4 -6 -8 0.34 1.54
-4 -6 -8 2.61 1.19
-4 -6 -9 11.99 2.63
-4 -6 -9 17.23 3.48
-4 -6 -10 486.21 23.24
-4 -6 -10 454.96 21.79
-4 -7 -1 90.74 5.32
-4 -7 -2 17.49 3.59
-4 -7 -3 90.19 5.18
-4 -7 -4 155.05 8.16
-4 -7 -5 0.89 0.92
-4 -7 -6 244.51 12.24
-4 -7 -7 19.28 3.91
-4 -7 -7 30.32 2.28
-4 -7 -8 11.06 2.52
5 -5 -5 55.75 9.51
5 -5 -3 3.47 1.31
5 -5 -2 8.17 2.83
5 -5 -1 221.18 11.39
5 -5 0 2.72 1.38
5 -5 0 3.64 1.37
5 -5 1 32.62 6.04
5 -5 1 31.64 7.33
5 -5 2 390.33 18.99
5 -5 2 333.7 18.7
5 -5 3 34.13 7.14
5 -5 4 85.55 10.75
5 -4 -6 5.37 1.71
5 -4 -5 94.66 11.01
5 -4 -4 65.13 8.56
5 -4 -3 1.21 0.74
5 -4 -2 213.03 12.64
5 -4 -1 11.9 2.05
5 -4 -1 14.07 2.64
5 -4 0 1.16 0.67
5 -4 0 2.58 0.99
5 -4 1 5.72 1.07
5 -4 1 5.45 1.59
5 -4 2 311.37 18.03
5 -4 2 321.73 18.86
5 -4 3 50.64 6.41
5 -4 5 275.65 13.84
5 -4 6 10.23 2.56
5 -3 -7 273.89 13.63
5 -3 -6 10.95 3.3
5 -3 -5 178.53 10.75
5 -3 -4 282.32 16.57
5 -3 -3 5.78 1.34
5 -3 -2 428.69 25.16
5 -3 -1 0.61 0.58
5 -3 -1 1.54 1.1
5 -3 0 0.63 0.37
5 -3 0 0.48 0.63
5 -3 1 449.83 24.68
5 -3 1 492.15 27.46
5 -3 2 74.73 5.86
5 -3 3 8.24 1.75
5 -3 4 153.41 9.32
5 -3 5 2.21 0.77
5 -3 6 41.72 7.05
5 -3 7 99.07 10.77
5 -2 -8 171.45 8.71
-5 2 8 140.83 7.37
-5 2 7 1.73 0.89
5 -2 -6 6.66 1.66
-5 2 6 7.34 2.07
5 -2 -5 116.63 7.12
-5 2 5 115.15 7.31
5 -2 -4 46.19 6.03
5 -2 -3 3.1 1.42
5 -2 -2 423.04 22.97
5 -2 -2 427.16 23.69
5 -2 -1 331.38 13.5
5 -2 0 12.2 2.57
5 -2 1 81.06 5.8
5 -2 2 418.98 14.48
5 -2 3 3.51 1.2
5 -2 4 87.61 8.35
5 -2 6 0.87 0.64
5 -2 7 56.07 9.02
5 -2 8 67.9 10.15
5 -2 9 -0.21 0.68
-5 1 8 28.77 3.24
-5 1 7 152.29 7.82
5 -1 -6 1.18 0.85
-5 1 6 0.74 0.58
5 -1 -5 141.33 8.44
-5 1 5 136.31 8.09
5 -1 -4 214.71 12.54
-5 1 4 217.31 12.16
5 -1 -3 20.75 3.91
-5 1 3 20.99 1.94
-5 1 2 397.73 13.11
5 -1 -2 405.32 15.25
-5 1 2 425.15 14.03
5 -1 -1 21.33 5.06
5 -1 -1 28 6.59
-5 1 1 28.33 3.27
5 -1 0 228.19 8.46
5 -1 1 248.37 8.9
5 -1 2 14 3.56
5 -1 3 38.24 5.72
5 -1 4 49.88 7.76
5 -1 5 2.41 1.11
5 -1 6 84.95 10.29
5 -1 7 86.81 9.77
5 -1 8 115 7.26
5 -1 9 4.47 1.88
5 -1 10 6.54 1.63
-5 0 7 49.9 3.31
-5 0 6 126.61 7.71
5 0 -5 113.29 7.43
-5 0 5 126.67 7.65
-5 0 4 120.08 7.06
-5 0 3 4.62 0.83
-5 0 3 4.13 0.67
-5 0 2 1.74 0.71
-5 0 2 0.91 0.43
-5 0 1 263.97 9.08
-5 0 1 245.62 8.37
5 0 0 3.94 1.32
-5 0 0 5.06 0.79
5 0 1 0.63 0.59
5 0 2 170.61 9.01
5 0 3 18.45 3.69
5 0 4 722.8 24.08
5 0 7 292.86 16.49
5 0 8 0.92 0.76
5 0 9 5.1 1.63
5 0 10 199.48 10.16
5 0 11 4.85 1.79
-5 -1 7 183.25 9.35
-5 -1 6 14.76 3.03
-5 -1 5 169.11 10.05
-5 -1 4 19.17 1.3
-5 -1 3 8.56 1.1
-5 -1 3 7.63 0.99
-5 -1 2 758.03 40.99
-5 -1 2 727.45 39.43
-5 -1 1 2.63 0.66
-5 -1 0 233.67 8.22
5 1 1 773.79 25.21
5 1 2 195.24 11.09
5 1 3 2.49 0.74
5 1 4 70.76 5.66
5 1 5 2.46 1.14
5 1 6 19.9 4.26
5 1 7 1.75 0.77
5 1 8 78.44 6.61
5 1 9 18.57 3.74
5 1 10 57.02 5.48
5 1 11 123.13 15.66
-5 -2 6 97.2 5.47
-5 -2 5 47.64 3.09
-5 -2 4 67.39 4.31
-5 -2 4 84.91 5.43
-5 -2 3 11.18 1.02
-5 -2 2 57.18 4.57
-5 -2 1 364.7 20.1
-5 -2 0 25.15 3.1
-5 -2 -1 4.14 1.2
-5 -2 -2 85.96 5.03
5 2 3 57.34 3.56
5 2 4 446.34 15.26
5 2 5 37.48 6.36
5 2 6 1.16 0.67
5 2 7 605.75 33.18
5 2 8 1.59 1.11
5 2 9 3.1 1.08
5 2 10 124.27 11.76
5 2 11 1.67 1.05
-5 -3 5 342.82 16.64
-5 -3 4 0.98 0.64
-5 -3 3 15.34 1.37
-5 -3 2 226.69 13.12
-5 -3 1 2.66 1.13
-5 -3 0 339.62 18.89
-5 -3 -1 96.72 6.11
-5 -3 -2 173.98 10.08
-5 -3 -3 283.9 15.94
-5 -3 -4 1.37 0.79
5 3 5 46.31 3.99
5 3 6 3.56 1.07
5 3 7 109.87 6.83
5 3 8 9.63 1.47
5 3 9 1.12 0.75
5 3 10 122.37 6.61
5 3 11 2.71 0.85
-5 -4 4 37.52 2.67
-5 -4 3 9.31 2.13
-5 -4 2 224.9 11.1
-5 -4 1 36.69 1.95
-5 -4 0 5.3 1.13
-5 -4 -1 405.24 23.06
-5 -4 -2 132.27 8.11
-5 -4 -3 6.09 1.67
-5 -4 -4 426.8 23.78
-5 -4 -5 2.82 0.96
-5 -4 -6 3.24 0.99
-5 -4 -7 663.36 120.61
-5 -4 -8 1.71 1.09
5 4 9 39.98 2.83
5 4 10 116.55 6.41
5 4 11 45.21 8.12
-5 -5 1 -0.36 0.73
-5 -5 0 9.23 2.1
-5 -5 -1 15.15 3.1
-5 -5 -2 12.96 2.73
-5 -5 -3 97.82 6.38
-5 -5 -4 2.47 1.69
-5 -5 -5 2.72 1.19
-5 -5 -5 2.86 1.09
-5 -5 -6 19.94 4.02
-5 -5 -6 22.97 4.51
-5 -5 -7 345.76 16.9
-5 -5 -7 289.8 14.16
-5 -5 -8 1.45 1.06
-5 -5 -8 2.89 1.21
-5 -5 -9 4.74 1.43
-5 -5 -9 5.47 1.91
-5 -6 -3 133.73 7.35
-5 -6 -4 85.63 5.1
-5 -6 -5 20.51 4.18
-5 -6 -6 40.04 3.07
6 -3 -2 12.66 4.93
6 -3 -1 20.88 6.35
6 -3 0 80.79 4.89
6 -3 1 34.8 6.2
6 -3 2 12.79 3.89
6 -3 3 38.2 5.19
6 -3 4 1.89 0.96
6 -2 -4 201.34 10.35
6 -2 -3 0.59 0.56
6 -2 -2 81.25 10.22
6 -2 1 432.8 20.33
6 -2 3 3.87 1.89
6 -2 4 301.79 15.28
6 -2 5 23.46 6.4
6 -2 6 0.26 0.72
6 -1 -4 44.02 3.05
6 -1 2 336.65 19.51
6 -1 3 36.02 5.22
6 -1 4 1.79 1.03
6 -1 5 178.79 9.19
6 -1 6 7.12 2.23
6 -1 7 75.69 9.28
-6 0 0 10.27 0.98
6 0 1 279.47 15.99
6 0 2 2.14 0.71
6 0 3 7.62 1.94
6 0 4 274.12 16.58
6 0 5 24.06 4.29
6 0 6 1.65 0.71
6 0 7 5.63 1.93
6 0 8 49.67 8.83
-6 -1 3 12.69 2.78
-6 -1 2 34.97 2.35
-6 -1 1 115.53 6.1
-6 -1 0 3.44 0.85
-6 -1 -1 91.5 5.72
6 1 2 146.56 8.75
6 1 3 102.12 11.35
6 1 4 124.89 7.66
6 1 6 3.92 1.07
6 1 7 273.17 13.56
-6 -2 2 305.03 14.67
-6 -2 1 1.4 0.72
-6 -2 0 1.07 0.77
-6 -2 -1 165.48 8.47
-6 -2 -2 121.82 7.52
-6 -2 -3 35.27 2.12
6 2 4 300.25 17.34
6 2 5 226.74 11.33
6 2 6 0.65 0.88
6 2 8 37.78 7.3
-6 -3 1 53.89 3.51
-6 -3 0 7.99 1.81
-6 -3 -1 142.57 7.51
-6 -3 -2 230.89 11.55
-6 -3 -3 21.6 4.29
-6 -3 -4 77.49 4.61
-6 -3 -5 79.36 4.76
-6 -3 -6 39.26 2.98
6 3 7 121.82 6.71
6 3 8 4.81 1.97
-6 -4 -2 6.6 1.92
-6 -4 -3 12.84 2.88
-6 -4 -4 7.08 1.96
-6 -4 -5 113.07 6.38
