#------------------------------------------------------------------------------
#$Date: 2021-06-05 22:01:18 +0300 (Sat, 05 Jun 2021) $
#$Revision: 266105 $
#$URL: file:///home/coder/svn-repositories/cod/cif/7/70/72/7707219.cif $
#------------------------------------------------------------------------------
#
# This file is available in the Crystallography Open Database (COD),
# http://www.crystallography.net/
#
# All data on this site have been placed in the public domain by the
# contributors.
#
data_7707219
loop_
_publ_author_name
'Buchner, Magnus R.'
'M\"uller, Matthias'
_publ_section_title
;
 Ethylenediamine complexes of the beryllium halides and pseudo-halides.
;
_journal_issue                   21
_journal_name_full
'Dalton transactions (Cambridge, England : 2003)'
_journal_page_first              7246
_journal_page_last               7255
_journal_paper_doi               10.1039/d1dt01154e
_journal_volume                  50
_journal_year                    2021
_chemical_formula_moiety         'C2 H8 Be1 F2 N2'
_chemical_formula_sum            'C H4 Be0.5 F N'
_chemical_formula_weight         53.56
_space_group_crystal_system      monoclinic
_space_group_IT_number           15
_space_group_name_Hall           '-C 2yc'
_space_group_name_H-M_alt        'C 1 2/c 1'
_atom_sites_solution_hydrogens   difmap
_audit_creation_method           SHELXL-2018/3
_audit_update_record
;
2021-04-07 deposited with the CCDC.	2021-04-27 downloaded from the CCDC.
;
_cell_angle_alpha                90
_cell_angle_beta                 93.483(4)
_cell_angle_gamma                90
_cell_formula_units_Z            8
_cell_length_a                   8.7146(4)
_cell_length_b                   6.1071(3)
_cell_length_c                   8.9467(5)
_cell_measurement_reflns_used    3381
_cell_measurement_temperature    100(2)
_cell_measurement_theta_max      156.77
_cell_measurement_theta_min      9.91
_cell_volume                     475.27(4)
_computing_structure_refinement  'SHELXL-2018/3 (Sheldrick, 2018)'
_computing_structure_solution    'SHELXT 2018/2 (Sheldrick, 2018)'
_diffrn_ambient_temperature      100(2)
_diffrn_detector_area_resol_mean 5.81
_diffrn_measured_fraction_theta_full 0.998
_diffrn_measured_fraction_theta_max 0.990
_diffrn_measurement_device_type  'STOE STADIVARI'
_diffrn_measurement_method       'rotation method, \w scans'
_diffrn_radiation_type           CuK\a
_diffrn_radiation_wavelength     1.54178
_diffrn_reflns_av_R_equivalents  0.0156
_diffrn_reflns_av_unetI/netI     0.0099
_diffrn_reflns_Laue_measured_fraction_full 0.998
_diffrn_reflns_Laue_measured_fraction_max 0.990
_diffrn_reflns_limit_h_max       10
_diffrn_reflns_limit_h_min       -10
_diffrn_reflns_limit_k_max       5
_diffrn_reflns_limit_k_min       -7
_diffrn_reflns_limit_l_max       11
_diffrn_reflns_limit_l_min       -10
_diffrn_reflns_number            2315
_diffrn_reflns_point_group_measured_fraction_full 0.998
_diffrn_reflns_point_group_measured_fraction_max 0.990
_diffrn_reflns_theta_full        67.679
_diffrn_reflns_theta_max         78.274
_diffrn_reflns_theta_min         8.872
_diffrn_source                   'GeniX 3D HF Cu'
_exptl_absorpt_coefficient_mu    1.299
_exptl_absorpt_correction_T_max  0.9255
_exptl_absorpt_correction_T_min  0.1124
_exptl_absorpt_correction_type   multi-scan
_exptl_absorpt_process_details
;
STOE LANA, absorption correction by scaling of reflection intensities.
J. Koziskova, F. Hahn, J. Richter, J. Kozisek, "Comparison of different
absorption corrections on the model structure of tetrakis(\m~2~-acetato)-
diaqua-di-copper(II)", Acta Chimica Slovaca, vol. 9, no. 2, 2016, pp. 136 - 140.
Afterwards a spherical absorption correction was performed within STOE LANA.
;
_exptl_crystal_colour            colorless
_exptl_crystal_density_diffrn    1.497
_exptl_crystal_description       block
_exptl_crystal_F_000             224
_exptl_crystal_size_max          0.06
_exptl_crystal_size_mid          0.05
_exptl_crystal_size_min          0.05
_refine_diff_density_max         0.229
_refine_diff_density_min         -0.268
_refine_diff_density_rms         0.064
_refine_ls_extinction_method     none
_refine_ls_goodness_of_fit_ref   1.134
_refine_ls_hydrogen_treatment    refall
_refine_ls_matrix_type           full
_refine_ls_number_parameters     49
_refine_ls_number_reflns         504
_refine_ls_number_restraints     0
_refine_ls_restrained_S_all      1.134
_refine_ls_R_factor_all          0.0357
_refine_ls_R_factor_gt           0.0330
_refine_ls_shift/su_max          0.000
_refine_ls_shift/su_mean         0.000
_refine_ls_structure_factor_coef Fsqd
_refine_ls_weighting_details
'w=1/[\s^2^(Fo^2^)+(0.0426P)^2^+0.4818P] where P=(Fo^2^+2Fc^2^)/3'
_refine_ls_weighting_scheme      calc
_refine_ls_wR_factor_gt          0.0846
_refine_ls_wR_factor_ref         0.0864
_reflns_Friedel_coverage         0.000
_reflns_number_gt                477
_reflns_number_total             504
_reflns_threshold_expression     'I > 2\s(I)'
_cod_data_source_file            d1dt01154e2.cif
_cod_data_source_block           2
_cod_depositor_comments
'Adding full bibliography for 7707219--7707225.cif.'
_cod_original_sg_symbol_H-M      'C 2/c'
_cod_original_formula_sum        'C H4 Be0.50 F N'
_cod_database_code               7707219
_shelx_shelxl_version_number     2018/3
_shelx_space_group_comment
;
The symmetry employed for this shelxl refinement is uniquely defined
by the following loop, which should always be used as a source of
symmetry information in preference to the above space-group names.
They are only intended as comments.
;
_shelx_res_file
;
TITL 1_a.res in C2/c
    2.res
    created by SHELXL-2018/3 at 11:35:48 on 30-Oct-2018
REM Old TITL 1 in C2/c
REM SHELXT solution in C2/c: R1 0.092, Rweak 0.002, Alpha 0.011
REM <I/s>   0.790 for   49 systematic absences,  Orientation as input
REM Formula found by SHELXT:  C2 Be N2 F2
CELL  1.54178   8.7146   6.1071   8.9467   90.000   93.483   90.000
ZERR    8.000   0.0004   0.0003   0.0005    0.000    0.004    0.000
LATT  7
SYMM -X, Y, 1/2-Z
SFAC C H BE N F
UNIT 8 32 4 8 8
L.S. 10
BOND
LIST 4
TEMP -173.15
FMAP 2
HTAB
ACTA
EQIV $3 -x+1/2, y+1/2, -z+1/2
HTAB N1 F1_$3
EQIV $4 x, -y+1, z+1/2
HTAB N1 F1_$4
PLAN 20
REM EXTI 0.004321
WGHT    0.042600    0.481800
FVAR       1.28664
F1    5    0.367901    0.445271    0.178386    11.00000    0.01888    0.01822 =
         0.01551   -0.00366    0.00000   -0.00473
N1    4    0.428815    0.750810    0.387707    11.00000    0.01517    0.01263 =
         0.01173    0.00001   -0.00168   -0.00001
C1    1    0.537396    0.920809    0.447973    11.00000    0.01699    0.01668 =
         0.01651   -0.00509   -0.00041   -0.00110
BE1   3    0.500000    0.577483    0.250000    10.50000    0.01593    0.01338 =
         0.01175    0.00000   -0.00121    0.00000
H1    2    0.402567    0.666857    0.467085    11.00000    0.02783
H2    2    0.342364    0.817250    0.351937    11.00000    0.02077
H3    2    0.578658    1.005642    0.359687    11.00000    0.03099
H4    2    0.625658    0.847176    0.499306    11.00000    0.02629
HKLF 4




REM  1_a.res in C2/c
REM wR2 = 0.0864, GooF = S = 1.134, Restrained GooF = 1.134 for all data
REM R1 = 0.0330 for 477 Fo > 4sig(Fo) and 0.0357 for all 504 data
REM 49 parameters refined using 0 restraints

END

WGHT      0.0426      0.4818

REM Instructions for potential hydrogen bonds
HTAB N1 F1_$4
HTAB N1 F1_$3

REM Highest difference peak  0.229,  deepest hole -0.268,  1-sigma level  0.064
Q1    1   0.3764  0.2546  0.1193  11.00000  0.05    0.23
Q2    1   0.3392  0.4248  0.4308  11.00000  0.05    0.22
Q3    1   0.7201  0.9226  0.4004  11.00000  0.05    0.21
Q4    1   0.2727  0.4185  0.2866  11.00000  0.05    0.20
Q5    1   0.4897  1.0861  0.3158  11.00000  0.05    0.19
Q6    1   0.3337  0.4699  0.3840  11.00000  0.05    0.18
Q7    1   0.4751  0.8434  0.4225  11.00000  0.05    0.17
Q8    1   0.4839  0.2537  0.1492  11.00000  0.05    0.17
Q9    1   0.3948  0.7403  0.2990  11.00000  0.05    0.17
Q10   1   0.2796  0.5850  0.4143  11.00000  0.05    0.17
Q11   1   0.3822  0.4216  0.2754  11.00000  0.05    0.16
Q12   1   0.6126  0.7601  0.5536  11.00000  0.05    0.16
Q13   1   0.4663  0.4970  0.0655  11.00000  0.05    0.16
Q14   1   0.7215  1.0651  0.2589  11.00000  0.05    0.16
Q15   1   0.4539  0.4223  0.3582  11.00000  0.05    0.16
Q16   1   0.4822  0.6759  0.5888  11.00000  0.05    0.15
Q17   1   0.3975  0.5039  0.2360  11.00000  0.05    0.15
Q18   1   0.6442  0.9194  0.3597  11.00000  0.05    0.15
Q19   1   0.4371  0.6087  0.3200  11.00000  0.05    0.15
Q20   1   0.5000  1.0000  0.5000  10.50000  0.05    0.15
;
_shelx_res_checksum              99345
_shelx_hkl_file
;
  -5  -5   3  251.77    3.50
  -6  -4   3  861.01    6.50
  -5  -5   4   86.29    2.40
  -6  -4   7    3.40    1.00
  -5  -5   5  456.15    4.10
  -6  -4   4  179.58    3.00
  -6  -4   5  359.06    4.00
  -6  -4   6   76.29    2.00
  -6  -2   8  171.78    2.30
  -5  -3   9   39.70    1.20
  -6  -2   7    5.20    1.50
  -6  -2   6    0.20    1.60
  -3  -5   4  100.79    2.60
  -3  -5   7    8.40    1.20
  -4  -4   8   11.80    1.50
  -3  -5   5    0.00    1.60
  -3  -5   6    1.30    1.40
  -3  -3  10   11.10    1.00
  -5  -3   7   36.80    1.60
  -4  -4   7  201.98    3.20
  -5  -3   6    2.10    1.40
  -4  -4   6   44.40    2.00
  -2  -4   9  269.57    2.80
  -1  -5   6   -1.20    1.50
  -3  -3   9  137.79    2.80
  -2  -4   8    5.70    1.80
  -4  -2   8  554.64    5.40
   5   1   7  328.67    6.90
   5   3   6   78.99    4.70
   3   3   5 1542.15   12.90
   2   2   5  161.48    4.20
   3   1   6  534.75    7.60
   4   2   6 1351.06   12.70
   4   4   3   51.09    3.70
   5   3   5    1.90    4.00
   6   4   3  496.65    8.40
   3   3   4   14.30    3.80
   5   1   6 1060.79   11.40
   2   2   4    2.20    2.00
   4   2   5  341.47    7.10
   3   1   5  184.48    5.10
   5   3   4  129.29    5.00
   7   1   5   64.29    5.10
   2   2   3 1713.83   10.30
   4   0   5   -0.10    3.50
   5   1   5  210.48    5.50
   5   3   3  661.63    9.30
   4   2   4  886.71    9.40
   6   0   5    0.30    3.30
   3   1   4  793.82    7.80
   3   3   1  101.39    3.00
   4   2   3   97.89    3.30
   5   1   4  449.26    7.10
   6   2   3  252.47    6.70
   4   0   4 1313.97   10.10
   5   3   1   32.20    3.90
   6   0   4 3700.53   19.60
   3   1   3  833.92    7.10
   7   3   0  215.88    5.80
   7   1   3  296.57    6.90
   8   0   3   -1.80    3.10
   4   2   2 3246.88   15.10
   5   3   0   50.29    3.30
   6   2   2   30.70    4.20
   5   1   3  349.87    5.90
   7  -1   3  309.77    6.20
   6   0   3   -1.50    2.50
   7   1   2 1379.86   12.50
   4   2   1 2248.97   11.90
   5   1   2 1524.05   10.70
   8   2  -2  215.48    6.00
   6   2   0 1005.70    9.60
   7  -1   2 1348.47   12.00
   7   1   1  666.73    8.70
   4   2   0  213.78    4.10
   5   1   1   25.80    2.40
   6   2  -1    8.90    2.60
   7   1   0  990.90   10.50
   5  -1   2 1491.15   10.00
   8   0   0  108.29    4.50
   9  -1  -1   13.50    3.90
   6   2  -2    6.00    2.50
   7  -1   1  671.83    8.40
   6   0   1    0.90    2.20
  -7  -3  -4    1.50    1.40
 -10   0  -3    0.80    1.60
  -9  -3  -2   13.20    2.20
 -10  -2  -2    8.30    1.60
  -9  -3  -1   39.20    2.50
 -10  -2  -1  327.47    4.20
  -8   0  -4  359.76    5.90
  -9  -3   0    5.40    2.40
  -9  -1  -3  171.68    4.50
  -8  -2  -3   10.10    2.80
 -10   0  -2  434.96    4.90
  -7  -3  -2  109.69    4.00
  -9  -3   1    1.60    1.60
 -10  -2   1    0.90    2.10
 -10  -2   2    1.00    1.90
  -9  -1  -2   12.70    3.00
  -8  -2  -2   63.59    3.40
  -8   0  -3   -3.60    2.80
  -8  -2  -1   14.70    3.40
 -10   0   0  176.78    4.20
  -9  -1  -1  316.37    5.60
 -10   2   1   -0.20    1.90
  -8   0  -2    8.20    3.10
  -9   1  -1  317.87    5.70
  -8  -2   0  855.31    9.50
 -10   0   1   -3.00    2.30
  -9  -1   0  262.47    5.20
 -10   2   2    1.60    2.00
 -10   0   2 1198.88    8.50
  -9  -1   1   15.00    3.00
  -9  -1   6   -0.20    0.90
  -8  -2   1  283.97    5.70
 -10   0   3   -2.50    2.60
 -10   2   3   38.10    2.20
  -9   1   0  260.17    5.30
  -8  -2   2  193.48    5.00
 -10   0   4   74.79    2.50
  -9  -1   2  141.09    4.10
  -8  -2   3   -1.50    2.30
  -9  -1   3   59.39    2.90
  -9  -1   4  723.73    7.10
  -9   3   4   63.99    2.20
  -9   3   5    0.40    1.20
  -9   3   5    1.00    0.70
  -9   1   2  137.79    3.60
  -9   1   3   58.39    2.70
  -8   2   1  264.67    5.00
  -9   1   5   74.29    2.80
  -8   0   7   -1.50    2.20
  -8   2   2  176.98    4.50
  -8   0   4   35.90    3.00
  -8   0   6   68.29    3.10
  -8   0   5   -1.20    2.40
  -8   2   3    1.10    2.80
  -8   2   7   22.00    2.10
  -7  -1   5  159.58    4.40
  -7   3   8   16.00    1.70
  -8   2   5  103.29    3.40
  -8   2   6   60.99    2.30
  -7   1   8    1.80    2.00
  -7   3   3   60.69    3.00
  -7   3   4   19.50    2.70
  -7   3   7  998.50    6.50
  -6   0   8  136.59    3.30
  -7   3   5  130.79    3.90
  -6   4   7    2.10    1.80
  -7   1   5  155.68    4.00
  -7   1   6  433.56    5.90
  -6   0   7    0.20    2.00
  -6   4   5  328.97    4.70
  -5   1   9  280.17    4.10
  -4   4   9    2.70    1.50
  -4   2  10  168.98    2.50
  -6   2   6    3.40    2.00
  -5   3   7   37.90    2.30
  -4   4   7  195.08    4.30
  -4   4   6   35.50    3.00
  -3   3   9  119.19    3.50
  -2   2  10   54.99    2.90
  -2   4   9  260.57    3.90
  -1   3  10   41.90    2.50
  -3   3   8   12.00    2.90
  -2   4   8    2.80    3.20
  -2   2   9  240.08    5.80
  -1   5   7  638.94    6.90
  -3   3   7  373.16    7.10
   0   2  10  241.98    4.60
   1   5   8   54.39    2.80
  -2   4   7   68.59    5.00
  -1   3   9  709.53    8.70
  -1   5   6    2.20    3.00
   0   4   9  168.08    4.00
  -1   1   9   27.50    3.50
   4   2   1 2243.38   10.90
   0   2  -2 1113.09    3.50
   3   3  -1 3916.51   14.20
   5   1   1   29.80    1.90
   3   1   1 3496.15   10.50
   3   3  -2    3.30    2.10
   1   1   0  233.88    2.10
   4   0   1   -0.60    1.10
   3  -1   1 3553.34    7.50
   3   1   0 4096.89   11.10
   5   1  -1   10.30    1.90
   2   2  -2 5872.21   13.20
   5  -1   0  530.25    4.70
   4   0   0 2609.34    9.00
   2   2  -3   24.40    1.50
   3   1  -1    6.10    1.50
   2   0   2 2850.11    3.40
  -1   1  -3  286.17    1.70
  -1   3  -3  913.31    5.80
  -1   3  -2   -0.50    1.40
   1   3   2   -0.60    1.30
  -1   1  -2 1152.58    3.30
   0   2   1 1988.00    6.30
   1   3   0  254.17    3.10
   2   2   2 6707.33   12.00
   0   2  -1 1987.80    6.40
   0   2  -3  371.16    3.10
   1   3  -4  141.19    2.80
   3   3   1  102.89    2.50
   0   2  -2 1144.89    5.00
   1   3  -3  323.97    3.90
   2   2   1 1716.23    6.20
   3   3   0  639.14    5.30
   0   2  -2 1109.59    3.20
   2   0  -3    1.60    1.00
   2   0  -4 2348.97    9.00
   1   1  -5  225.98    3.40
   1   1  -3 6935.51   12.20
   0   2  -4  695.63    4.70
   0   2  -3  365.26    2.70
   1   1  -4 1811.62    7.50
   1  -1  -5  206.08    3.20
   1  -1  -4 1786.62    7.70
   1  -1  -3 6935.81   12.80
   0  -2  -4  706.83    5.20
   0   0  -5    3.70    1.50
   0  -2  -3  361.06    3.20
   0  -2  -2 1127.29    4.40
   0   0  -4 1320.37    6.60
  -1   1  -5   42.60    1.90
  -1  -1  -5   42.00    1.80
   0   0  -3   -0.50    1.00
  -2   0  -5    0.80    1.80
  -1  -1  -3  277.07    3.20
  -1   1  -4 2232.18    8.60
  -2  -2  -2 6903.11   13.80
   0   0  -1   -0.40    0.40
  -3  -1  -4  770.32    6.50
  -2  -2  -1 1721.93    5.80
  -2   0  -4 3276.57   11.70
  -2  -2   0   57.99    1.00
  -4  -2  -2 3266.47   12.10
  -1  -1  -1 3568.34    6.60
  -3  -1  -3  849.91    5.90
  -2   0  -3    0.10    1.10
  -2   2  -3 1769.62    7.30
  -4  -2  -1 2298.17    8.90
  -1   1  -2 1150.88    4.20
  -4   0  -3   -0.10    1.20
  -3   1  -3  851.61    5.90
  -4  -2   0  209.38    2.70
  -2   2   4 2188.78    8.40
  -2   2   0   56.69    1.40
  -2   2   3   24.10    1.60
  -1   1   4 1811.12    5.50
  -1   3  -2    0.30    0.80
  -2   2   2 5658.23   12.40
  -1   1   0  227.38    1.70
  -1   3  -1 1484.55    6.80
  -1   1   3 6906.31   10.30
  -1   1   1   94.69    1.30
  -1   3   0  250.77    2.90
  -1   3   3  319.57    3.80
   0   0   3    0.80    0.20
  -1   3   1  821.02    5.40
   0   2  -2 1103.99    4.00
   0   2   4  730.63    4.70
   0   2  -1 1971.60    5.70
   1   3  -2  577.94    4.20
   4   0  -3    0.60    1.10
  -1   3  -2   -0.50    1.10
   2   2  -2 5724.23   12.60
   0   2  -1 1982.10    5.70
  -1   3  -3  939.51    5.80
   1   1  -1   93.09    1.40
  -2   2  -1 1735.03    4.10
   2   2  -4 2182.08    9.90
   3   1  -4 2718.33   10.20
   0   2  -2 1143.09    5.00
   3  -1  -3 1786.42    5.40
  -2   2  -3 1720.83    7.10
  -1   1  -2 1161.28    4.10
   0   2  -3  362.26    2.80
  -4   2  -1 2295.67    8.50
  -1   3  -3  907.21    5.70
  -2   2  -2 6947.40   13.20
   2   2  -2 5518.25    7.50
  -3   1   0 4107.19    7.90
   0   2  -2 1157.18    4.50
  -1   1  -1 3598.64    6.20
  -4   2   1  244.38    2.70
  -2   2  -1 1737.03    6.20
   1   3  -2  574.44    3.70
  -3   3   0  629.84    4.70
  -3   1   1   21.00    0.70
   0   2   3  365.66    3.20
   0   2  -3  358.46    2.40
   0   0  -1    0.20    0.10
   0   2   2 1122.69    5.00
   1   3   3  940.01    6.20
   1   1   3  285.47    2.00
   0   2  -2 1102.99    4.30
   0   2   0  947.11    4.20
   1   3   1 1490.25    7.10
   1   3  -2  583.54    4.50
   2   2   3 1743.43    7.00
   0   0  -2   50.49    0.40
   1   1   1 3579.54    8.10
   4   2   2 3325.27   14.90
   4   0   3    2.80    2.30
   3   1   2  242.48    3.50
   4   2   1 2219.88   11.80
   4   2   0  224.38    4.00
   1   1   0  229.48    2.10
   2   2  -1 1005.00    5.10
   3   1   1 3453.45   11.40
   5  -1   2 1540.25   10.00
   5   1   1   28.40    2.20
   3  -1   2  240.18    3.00
   4   2  -1  245.88    4.20
   2   2  -2 5711.33   11.50
   4   2  -2   32.50    2.30
   2   0   1    1.80    1.00
   4   0   1    4.40    1.30
   2   2  -2 5731.63   12.70
   3  -1  -1    9.10    1.00
   3   1  -2   57.79    1.60
   2   2  -3   24.50    1.40
   1   1  -1   94.09    1.40
   0   2  -2 1116.49    4.00
   2   0  -1    0.70    0.70
   3   1  -3 1890.81    8.20
   2   2  -4 2170.68    9.50
   3   1  -4 2663.83   10.90
   3  -1  -3 1833.12    7.30
   1   1  -2 9999.00   12.70
   3  -1  -4 2619.04   10.00
   2   0  -2    4.40    1.10
   3  -1  -3 1856.51    9.30
   3  -1  -4 2611.74   12.40
   1   1  -3 6896.41   12.10
   2   0  -3   -0.20    1.70
   2   0  -5    1.50    2.20
   1   1  -4 1871.61    7.70
   2  -2  -2 5726.33   14.70
   2   0  -4 2336.97   10.10
   1  -3  -1  827.32    5.20
   2  -2  -4 2132.29   11.40
   2  -2  -3   25.80    1.70
   1  -3  -2  573.54    5.10
   1  -1  -1   89.29    1.70
   1  -1  -5  213.58    4.20
   1  -1  -4 1819.42    9.20
  -3   1  -3  856.21    6.10
  -2  -2   1  976.60    4.30
  -4  -2   0  214.48    3.80
  -2   0  -2 2898.21    8.90
  -4   0  -2   39.20    2.40
  -3  -1  -1 3392.56   11.30
  -4  -2   1  247.38    3.60
  -2   2  -2 6915.41   12.40
  -4   0  -1   -3.90    1.80
  -3  -1   0 4026.60   11.60
  -2   0  -1    0.40    1.10
  -5   1  -1   29.50    2.80
  -5  -1   2 1726.63   11.10
  -2   0   1    0.90    0.80
  -5   1   1    8.30    1.10
  -3  -1   1   11.70    0.90
  -2  -2   0   56.29    1.10
  -5  -1   1    3.90    1.10
  -4   0   2 3183.98    9.70
  -5   1   2 1715.53    8.10
  -3  -1   2   54.99    1.50
  -3   1   2   57.19    1.30
  -2  -2   1  960.10    4.20
  -2   0   2    3.20    1.10
  -2   2   1  981.00    2.80
  -1  -1   1   90.19    1.20
  -4   0   3   -0.10    0.80
  -1   1   1   90.29    0.80
  -3   1   3 1840.82    6.70
  -2  -2   2 5728.33   11.10
  -2   0   3    0.10    0.80
  -1  -1   2 9871.81   11.80
  -3  -1   4 2694.63    9.90
  -3   1   4 2639.54    9.10
  -2   2   2 5630.44    7.70
  -1   1   2 9904.21   10.00
  -2   0   4 2308.27    8.00
  -1  -1   3 6934.41   11.80
  -2  -2   4 2224.28    9.00
  -3   1   5  450.55    4.30
  -2   0   5    0.20    1.20
  -1  -1   4 1790.22    7.20
  -1   1   3 6728.23   10.50
   0   0   2   53.29    0.90
  -1  -1   5  215.98    3.10
  -1   1   4 1802.22    6.60
   0  -2   1 1952.20    4.10
   0  -2   2 1121.69    4.20
   0   0   3    0.10    1.10
   0  -2   3  365.26    3.00
  -1   1   5  218.68    3.00
   0   0   4 1321.47    5.80
   0  -2   4  725.83    4.90
   0   0   5    0.00    1.00
   1  -1   3  285.37    2.50
   1  -3  -2  567.44    4.90
   0  -2  -1 1980.30    6.70
  -1  -1  -1 3606.24    7.00
   1  -3  -1  794.52    5.20
  -1  -3  -3  925.71    6.90
  -2  -2  -3 1720.63    8.10
  -2   0  -2 2944.71    5.20
  -1  -3  -2    1.60    1.20
  -2  -2  -2 6699.13   14.50
   0  -2   0  937.41    4.30
  -1  -3  -1 1470.35    7.60
   1  -3   0  246.18    2.70
  -3  -1  -3  869.81    4.80
  -2  -2  -1 1738.43    7.00
  -1  -1   0  233.38    1.80
  -3  -1  -2  230.28    2.50
  -1  -3   0  236.88    3.00
   0  -4   0  577.24    5.40
   2  -2   1 1719.53    3.70
  -3  -3  -1   93.39    2.60
   0  -2   1 1997.70    5.80
   1  -3   1 1443.26    5.90
  -4  -2  -2 3222.28   11.30
  -3  -1  -1 3384.36    8.30
  -2   0  -1   -0.90    0.40
  -4  -2  -1 2303.77    9.40
  -2  -2   1 1014.60    5.30
   1  -1   1 3592.04    3.50
  -3  -3   1 3907.61   13.30
  -1  -3   2  582.24    4.60
   0  -2   2 1133.99    4.40
  -4  -2   1  238.98    3.20
  -2  -2   2 5688.63   12.60
  -3  -1   1    9.80    0.90
  -1  -1  -2 1154.48    5.70
  -1  -1  -4 2245.88   10.40
   0   0  -6  216.38    4.40
   0  -4  -4  962.60    9.90
   0  -4  -3  149.69    4.10
  -1  -3  -4  223.58    4.80
  -1  -3  -2    2.50    1.90
  -1  -3  -5 5031.90   21.90
  -1  -1  -6  801.12    8.30
  -2  -2  -4    2.50    2.50
  -2  -2  -3 1709.43   10.10
  -1  -3  -1 1512.25    8.00
  -2  -2  -2 6857.81   17.80
  -2   0  -4 3371.16   12.90
  -2  -4  -4  924.81   10.40
  -2  -2  -7  263.97    6.20
  -2   0  -5    1.10    2.00
  -2  -4  -5  117.69    5.10
  -2  -4  -3 2494.95   15.30
  -2  -2  -1 1698.13    8.20
  -3  -3  -4   18.60    3.60
  -3  -1  -5  178.28    5.10
  -3  -1  -4  806.22    7.80
  -3  -3  -5 1567.64   13.40
  -3  -1  -3  873.21    7.20
  -3  -1  -6  540.85    7.70
  -3  -1  -2  242.28    3.90
  -3  -1  -7   98.49    4.40
  -4  -2  -5  330.07    6.70
  -4  -2  -4  875.21    9.40
  -2  -2   0   57.79    1.80
  -4  -2  -6 1369.06   13.00
  -4  -2  -3   98.19    3.40
  -3  -3  -1  102.99    3.50
  -3  -1  -1 3489.55   11.80
  -4  -2  -2 3369.56   15.40
  -4  -4  -3   58.09    4.80
  -4   0  -5   -3.60    2.50
  -4   0  -4 1349.96   10.10
  -5  -1  -5  222.48    5.90
  -5  -1  -4  449.56    7.50
  -4   0  -3    0.50    1.50
  -3  -3   0  649.54    5.90
  -5  -3  -2   74.59    4.20
  -4   0  -2   40.90    2.40
  -3  -1   0 4035.90   11.90
  -3   1  -3  861.01    6.00
  -6  -2  -3  254.37    6.10
  -5  -3  -1   33.00    3.70
  -4  -2   0  220.38    3.90
  -4   0  -1    4.00    2.10
  -3   1  -2  237.88    3.20
  -6  -2  -2   28.40    3.10
  -6   0  -4 3703.03   19.40
  -6   0  -3    0.60    3.00
  -5   1  -3  357.26    5.60
  -4  -2   1  237.48    3.90
  -4   0   0 2682.13   11.00
  -7  -1  -2 1403.76   12.70
  -6  -2   0 1046.30    9.70
  -7  -1  -1  686.23    8.80
  -6   0  -1    0.20    2.20
  -5   1  -1   25.20    2.40
  -7  -1   0 1018.20   10.30
  -6  -2   1   11.70    3.10
  -6   0   0   10.70    2.10
  -4   0   1   -0.40    2.00
  -4  -2   2   30.30    2.20
  -7   1  -2 1358.86   12.20
  -5  -1   2 1722.73   10.50
  -7   1  -1  654.73    8.10
  -6  -2   2    2.20    2.90
  -5   1   1    2.60    1.60
  -4   0   2 3118.09   12.10
  -4   2  -1 2192.28    9.90
  -7  -1   2   11.10    3.20
  -6   0   2  116.89    4.10
  -6   2  -1    4.30    2.40
  -5  -1   3  207.38    4.30
  -4   2   0  220.28    3.70
  -6   2   0 1034.90    9.60
  -2   0   2    4.20    1.20
  -7  -1   3  296.57    6.10
  -3  -1   3 1791.92    8.30
  -7   1   2    9.70    2.80
  -3   1   2   54.29    2.00
  -5   1   3  211.68    4.60
  -6   2   2    2.20    3.40
  -2   2   0   55.69    1.40
   6   2   0 1019.70    9.80
   7   1   2 1357.36   12.40
   5  -1   2 1512.55    9.90
   6   0   1    4.30    2.80
   7   1   1  686.03    8.90
   5  -1   1   28.30    2.90
   4   0  -1    0.40    1.50
   6   2  -1   10.90    2.80
   7   1   0 1023.10   10.50
   3   1  -2   55.39    1.70
   7  -1   2 1358.76   12.00
   5   1  -2 1753.42   10.90
   7  -1   1  675.83    8.70
   4   0  -2 3215.18   12.90
   5  -1  -1    4.50    2.40
   6   0  -2  117.79    4.00
   7   1  -2   12.40    2.90
   4  -2   0  209.78    3.50
   5   1  -3  203.58    4.30
   7  -1  -1   68.19    3.90
   2   0  -2    3.80    1.00
   5  -1  -2 1779.82   11.40
   6  -2   0 1024.70    9.60
   3   1  -3 1830.12    8.70
   7   1  -3  288.77    6.90
   7  -1  -2   11.20    3.80
   6  -2  -1   11.80    2.60
   6   0  -4  452.05    7.20
   3  -1  -3 1830.82    9.80
   4   0  -4  169.58    4.10
   2  -2  -1  971.70    5.90
   3   1  -4 2641.84   11.30
   5  -3  -1 4882.71   19.50
   4  -2  -3 1142.39    9.30
   3  -1  -4 2631.74   13.00
   5  -3  -2  261.07    5.40
   6  -2  -4 1825.52   14.70
   1  -1  -2 9849.11   16.30
   3  -3  -1 3952.10   14.50
   4   0  -5   -1.00    2.20
   2   0  -4 2265.27   10.30
   4  -2  -4  159.38    4.20
   2  -2  -3   26.00    2.50
   3  -3  -2    3.00    1.90
   1  -1  -3 6987.30   16.10
   4  -2  -5  256.57    5.80
   5  -3  -4   82.79    4.00
   5  -1  -6   21.60    4.10
   4   0  -6 4114.59   19.40
   2  -2  -4 2226.48   12.30
   2   0  -5    1.70    2.40
   1  -1  -4 1818.02    9.50
   3  -1  -6  594.34    8.10
   2  -2  -5 1223.98   10.10
   3  -3  -5  642.04    9.00
   1  -3  -2  583.04    5.60
   1  -3  -1  806.32    5.70
   2   0  -6 4055.99   17.30
   4  -4  -4  142.89    5.10
   3  -3  -6  341.47    7.10
   0  -2  -3  375.56    4.50
   0   0  -4 1321.77    7.20
   1  -1  -6  172.58    4.40
   1  -3  -5  356.26    6.80
   0  -2  -5   63.39    2.80
   0   0  -5    1.80    2.10
   2  -4  -5  673.23    9.30
   1  -3  -6   12.90    3.10
   1  -1  -7  658.43    8.70
   0   4   5   46.80    2.40
   1   3   4  230.48    3.30
   1   1   3  295.37    2.70
  -2   0   5    1.00    1.10
   0   0   3    1.10    0.60
   0   2   6  738.03    6.50
   1   3   5 5051.29   15.70
   2   2   2 6753.82   11.40
  -3   1   7    6.90    2.20
   1   1   4 2303.17    8.20
   0   0   4 1324.77    5.70
   2   2   3 1756.32    6.80
  -2   0   6 3958.40   12.50
   1   3   6  257.77    4.20
  -1   1   7  647.24    6.20
   0   2   7 1073.79    8.30
   2   2   5  163.28    2.90
   0   0   6  228.18    3.50
   1   1   7  363.56    4.90
  -1  -1   5  205.78    2.60
   0   0   7   -0.60    1.80
   2   0   3    1.40    0.70
   2   0   4 3315.57    9.90
   3   1   3  849.22    4.70
   3   1   4  782.12    5.30
   2   0   5   -0.10    1.10
   0   0   8  188.88    3.70
   2   0   2 2859.21    6.70
   2   0   6  242.68    3.70
   3   1   6  530.05    5.50
   1  -1   3  284.17    2.50
   2   0   7    2.90    2.10
   4   2   4  852.51    5.90
   1  -1   6  775.42    5.90
   4   2   5  318.97    4.10
   1  -1   7  357.46    4.60
   4   0   5   -0.30    1.40
   0  -2   5   61.79    1.80
   3  -1   4  788.22    5.40
   3  -1   5  184.58    3.10
   3  -1   6  532.15    5.70
   4   0   3    1.40    1.20
   4   0   6  148.59    3.20
   0  -2   4  706.13    4.10
   3  -1   3  848.32    5.10
   5   1   5  215.78    3.90
   3  -1   7  101.49    3.00
   4   0   2   39.40    1.40
   5   1   3  349.67    3.80
   0  -2   3  366.86    2.60
   2  -2   4    2.70    1.40
   2  -2   5  158.48    2.80
   2  -2   6   20.80    1.70
   3  -1   2  235.18    2.50
   5  -1   4  437.06    5.00
   5  -1   5  221.48    3.80
   4  -2   5  336.67    4.70
   4  -2   6 1362.26    9.30
   4   0   1    0.40    0.70
   2  -2   2 6724.33   12.60
   3  -1   1 3539.75    8.50
   4  -2   4  879.91    6.60
   6   0   4 3665.33   13.70
   6   0   3    0.60    1.60
   1  -3   4  223.08    2.90
   4  -2   2 3331.07   11.00
   6   0   2 1612.24    7.90
   1  -3   3  894.71    5.10
   3  -3   3  409.16    4.30
   3  -1   0 3999.50    8.60
   4   0   0 2662.73    7.00
   5  -1   1   29.60    1.50
   1  -3   2    1.90    1.10
   5  -3   4  119.49    3.00
   5  -3   3  657.33    6.10
   2  -2   0   55.39    1.40
   5  -3   2   74.69    2.70
   5  -1   0  540.85    4.20
   3  -3   1   96.39    2.00
  -8   0  -3   -1.60    4.60
  -7  -3  -1  310.57    6.50
  -7  -1  -3  301.77    6.60
  -5  -3  -1   31.40    3.50
  -3  -1  -3  868.81    7.10
  -7  -3   0  205.68    5.70
  -8  -2  -1   12.00    3.30
  -6  -2  -2   34.30    3.30
  -5  -1  -3  362.16    6.20
  -4  -2  -2 3227.48   15.10
  -7  -3   1  324.17    6.90
  -5  -3   1 4712.83   19.00
  -5  -1  -2 1519.25   11.00
  -9  -1   1   10.60    3.60
  -7  -1  -1  693.53    9.30
  -6   0  -2 1638.34   12.20
  -8  -2   3   -1.40    4.50
  -5   1  -2 1483.35   10.20
  -4  -2   0  212.98    4.10
  -8   0   0  111.99    4.60
  -7  -1   0 1029.10   10.60
  -7   1  -1  691.33    8.90
  -6  -2   1   12.20    3.30
  -5  -1  -1   28.10    2.10
  -6   0  -1    4.80    2.50
  -8   0   1   -2.40    3.20
  -7  -1   1   70.69    4.80
  -6  -2   2    5.20    2.50
  -7   1   0 1029.40   10.60
  -6  -2   3  942.21    9.40
  -5  -1   0  531.85    6.10
  -8   0   2 2197.38   15.80
  -6   0   0   15.20    3.00
  -8   0   3    1.40    3.60
  -4  -2   2   31.80    2.00
  -7  -1   3  292.37    6.10
  -7  -1   4    2.30    3.10
  -7  -1   5  219.98    6.00
  -6   2   0 1027.60    9.50
  -5  -1   1    9.60    2.00
  -8   2   3    2.70    3.10
  -7   1   2   13.80    3.00
  -5   1   0  516.25    6.20
  -7   1   3  291.37    6.70
  -6   0   2  122.09    3.80
  -6   2   1   12.70    2.60
  -7   1   4   -0.90    2.90
  -7   1   5  216.28    6.20
  -6   0   3    2.10    3.20
  -6   0   7    1.40    3.30
  -6   2   2    2.30    3.10
  -5  -1   4   57.59    3.10
  -6   0   4  442.46    6.90
  -6   0   5   -2.40    3.60
  -5  -1   5  745.93    8.40
  -5   1   2 1730.43   11.20
  -6   2   4 1813.72   13.90
  -6   2   5  355.86    7.50
  -6   2   6   -0.70    4.10
  -5   3   2  257.07    5.20
  -4   0   2 3086.69   12.70
  -5   1   3  206.38    4.40
  -4   2   1  245.08    4.00
  -6   2   4 1735.23   13.60
  -6   2   6    4.40    3.80
  -5   3   2  248.48    5.80
  -5   1   3  211.78    4.40
  -5   1   7   51.99    4.30
  -4   2   1  241.58    4.40
  -5   3   3  220.98    5.50
  -5   1   4   56.29    3.30
  -5   1   6   13.10    3.30
  -5   3   5    2.50    3.10
  -5   3   6    2.90    3.20
  -4   0   4  158.08    4.20
  -4   0   6 4066.09   19.10
  -4   4   3  855.61    9.90
  -4   0   5   -1.60    2.00
  -4   2   8  613.44    8.90
  -4   4   5   96.19    5.10
  -3   3   1 3844.12   14.70
  -4   2   3 1154.38    9.50
  -3   1   8  819.02   10.10
  -4   2   6  195.68    5.90
  -3   1   6  591.64    8.00
  -3   3   3   81.89    3.30
  -3   3   6  338.07    7.40
  -2   4   7   69.09    4.50
  -3   1   4 2700.73   13.20
  -3   3   5  644.54    8.70
  -2   2   8  143.59    5.50
  -2   0   6 3905.61   17.20
  -2   4   3  175.78    5.30
  -2   4   6  140.79    4.90
  -2   4   4   14.60    3.80
  -2   4   5  675.93    9.00
  -2   2   7   60.29    3.90
  -1   1   8   47.90    4.80
  -1   3   8   76.59    4.40
  -2   2   4 2177.98   12.30
  -2   2   5 1194.58   10.10
  -1   1   7  645.64    8.40
   0   2   8 1090.39   11.80
   1   3   8   -2.60    3.00
  -1   1   6  174.18    4.40
  -1   3   5  357.76    6.40
   1   1   8   40.90    4.50
  -1   3   3  323.57    5.20
   0   0   6  211.98    4.20
   1   3   7   23.10    3.60
   2   2   8   35.30    3.60
   0   2   6  717.93    8.80
   1   1   7  351.26    6.90
   1   3   6  251.87    6.10
   2   4   5  115.19    5.40
   3   3   7  478.35    8.10
   1   1   6  797.12    8.60
   1   3   5 5061.79   22.20
   2   4   4  926.91   10.30
   0   2   4  710.43    6.80
   2   4   3 2495.55   15.30
   3   1   7  105.89    4.60
   3   3   6   52.79    4.10
   4   2   7    3.70    3.30
   4   4   5  336.47    7.20
   2   2   6   25.70    3.30
   4  -2   0  218.48    3.20
   4  -2   1 2247.68    9.10
   4  -4  -2  702.73    7.30
   2  -4  -4   12.00    2.60
   3  -3  -3   80.69    2.70
   4  -4  -1  479.85    5.90
   1  -5  -4   16.10    2.30
   3  -5  -2   55.09    2.90
   4  -4   0  240.28    4.20
   4  -4   1 1368.06    9.10
   1  -3  -4  145.59    3.10
   2  -6  -1   35.90    3.30
   2  -4  -3  166.88    3.60
   1  -5  -3 1979.00   11.80
   2  -6   0  651.23    6.90
   2  -6   2   17.50    2.20
   3  -5   1 1748.63   11.00
   3  -3  -1 3936.01   13.20
   0  -6  -2    2.80    2.90
   2  -4  -2  165.48    3.50
   3  -3   1   97.29    2.30
   1  -3  -3  314.07    3.80
  -1  -5  -3    7.80    2.70
   0  -6  -1  321.97    5.10
   2  -4  -1  327.67    4.40
   0  -6   0 1823.92   11.50
   0  -6   3   -0.60    2.90
   2  -4   1  662.33    6.20
   2  -4   2  153.48    3.50
   0  -6   1  315.97    5.20
   0  -6   2    2.80    1.90
   1  -5   0    3.10    2.00
  -1  -5  -2  318.27    5.30
   1  -5   1  218.38    4.70
   1  -5   2  312.27    5.10
   1  -5   3    5.70    2.00
   0  -4  -2   40.00    2.50
  -2  -6   0  684.43    7.20
  -1  -3  -3  891.21    5.70
   1  -3  -1  793.22    5.40
  -2  -6   1   35.00    2.70
  -2  -6   2   32.60    2.90
   0  -4  -1 1099.89    7.50
  -2  -4  -2  155.58    3.50
  -1  -5   1  167.58    4.20
  -1  -5   4   11.80    2.30
   0  -4   0  556.44    5.50
  -3  -5  -1 1766.52   11.10
  -1  -5   2  288.87    5.10
  -1  -5   3 1978.20   11.70
  -1  -3  -2    1.90    1.40
   0  -4   4  945.81    7.40
   1  -3   2    1.00    1.10
   0  -4   1 1128.09    7.60
   0  -4   3  152.48    3.60
   0  -4   2   41.10    2.20
  -5  -5   0    6.10    2.70
  -2  -4  -1  667.43    6.20
  -3  -5   1  162.98    4.30
  -3  -5   2   60.09    2.80
  -5  -5   2    3.60    2.60
  -2  -4   0   32.70    2.40
  -4  -4  -1 1384.36    9.10
  -3  -3  -2  238.88    3.20
  -2  -4   5  667.43    6.60
  -2  -4   2  155.58    3.50
  -2  -4   4   12.50    2.10
  -1  -3   0  241.78    3.00
  -6  -4   0  234.08    4.30
  -4  -4   0  243.88    4.40
  -4  -4   5   88.69    3.30
  -1  -3   4  140.99    2.90
   5   1  -4   58.69    3.00
   7  -1  -4   -1.80    3.50
   7  -1  -5  219.78    5.00
   6   0  -6    9.90    2.80
   6   0  -4  429.26    6.30
   4  -2   0  207.28    3.40
   5  -3  -1 4730.63   17.80
   6  -2  -3  959.40    9.50
   5  -1  -2 1699.83   10.40
   6  -2  -4 1810.52   13.60
   5  -3  -2  237.88    4.90
   6  -2  -6    2.60    2.80
   6  -2  -5  362.66    6.50
   4  -2  -1  242.88    3.90
   5  -3  -3  225.78    5.60
   5  -1  -6   18.80    4.30
   5  -1  -4   60.59    3.70
   5  -3  -6    2.80    3.80
   5  -3  -5    0.30    3.60
   5  -1  -5  781.02    8.90
   4  -4  -3  851.71    9.10
   4   0  -6 4064.19   18.60
   4   0  -5   -3.20    2.40
   4   0  -4  167.68    3.70
   4  -4  -6   52.49    4.90
   4  -4  -4  146.09    5.20
   4  -2  -8  605.04    8.20
   3  -3  -1 3870.31   14.10
   4  -4  -5  105.99    4.30
   4  -2  -7  102.19    5.10
   4  -2  -3 1159.78    9.40
   3  -1  -8  800.52    9.80
   4  -2  -6  195.78    5.30
   4  -2  -5  268.57    6.10
   4  -2  -4  154.78    4.10
   3  -3  -2    1.40    2.60
   3  -1  -3 1784.52    9.70
   2  -4  -7   62.19    4.00
   3  -3  -6  338.77    6.70
   3  -1  -6  601.34    7.80
   2  -4  -6  137.19    5.40
   3  -3  -5  643.94    8.30
   3  -1  -4 2718.83   13.10
   2  -4  -5  677.43    8.90
   2  -4  -3  175.28    4.40
   2   0  -6 3936.61   17.00
   1  -3  -8   76.29    5.00
   2  -4  -4   12.00    3.00
   2   0  -5    4.10    2.20
   1  -1  -8   49.60    3.90
   1  -3  -7   30.50    4.30
   0  -4  -7 1270.07   11.90
   1  -1  -7  632.64    8.60
   2  -2  -5 1206.38    9.90
  -1  -5  -5  445.76    7.90
   0  -2  -8 1073.09   11.30
   2  -2  -4 2212.28   12.10
   1  -3  -6   11.20    3.00
   1  -1  -6  182.38    4.70
   0  -4  -5   47.00    4.40
   1  -3  -5  342.57    6.20
   0  -4  -4  965.50   10.00
   1  -3  -3  322.67    4.80
  -2  -2  -8   32.40    4.90
   0  -2  -6  722.53    8.60
   2   2   3 1788.22    8.10
   1   1   4 2244.78    9.00
   4   0   7    3.80    2.80
   2   0   6  235.68    4.50
   3  -1   7  102.29    3.40
   5   1   6 1081.69    9.40
   6   2   4  299.57    5.00
   7   1   5   64.29    3.70
   3   1   5  185.58    3.80
   4   2   3   95.79    2.70
   6   0   6  233.78    4.80
   1  -1   5   42.30    2.00
   4   2   2 3250.17   11.40
   5   1   5  219.08    4.50
   2   0   5    0.70    1.60
   3  -1   6  537.25    6.30
   7   1   4    1.90    2.10
   3   1   4  813.42    6.30
   4  -2   6 1390.76   10.00
   6   0   5   -0.30    3.50
   4   0   5   -2.80    2.10
   7   1   3  307.07    5.00
   2   0   4 3251.87   11.00
   3  -1   5  173.88    3.60
   3   1   3  863.71    5.70
   8   0   3   -3.50    2.90
   5  -1   5  215.38    4.80
   5   1   3  353.96    4.60
   7   1   2 1387.66    9.40
   5  -3   5    1.90    2.20
   4  -2   5  324.17    4.90
   4   0   4 1324.37    8.40
   7  -1   4    2.60    2.10
   8   0   2    6.10    2.80
   5   1   2 1546.85    8.40
   2  -2   4    5.30    1.50
   5  -1   4  441.26    5.50
   6  -2   4  291.07    5.40
   8   0   1    5.20    2.80
   4   0   3    0.90    1.50
   4  -2   4  845.92    7.20
   5  -3   4  124.79    3.40
   5   1   1   26.10    1.60
   6  -4   3  509.15    6.30
   6   0   2 1660.13    9.80
   5  -1   3  359.66    4.60
   6  -2   3  246.28    4.50
   7  -1   2 1380.36    9.90
   3  -1   3  838.62    5.60
   4   0   2   39.70    1.90
   5  -3   3  665.63    6.90
   7  -3   2  136.89    3.70
   8  -2   1   15.80    2.50
   4  -2   3   95.19    2.90
   7  -1   1  669.63    7.00
   3  -3   3  408.46    4.60
   5  -1   2 1490.85    8.60
   6  -2   2   32.00    2.40
   7  -3   1  313.47    5.10
   4  -4   2  378.56    5.30
   5  -3   2   82.69    3.20
   6  -4   1    8.60    2.80
   7  -1   0  999.70    8.10
   4  -2   2 3270.37   12.20
   6  -2   1    5.50    1.90
   7  -3   0  212.58    4.70
   5  -5   0    8.80    2.80
   5  -1   1   30.10    1.80
   6   0  -1   -0.70    1.50
   7  -1  -1   78.89    2.90
   3  -3   2  237.98    3.50
  -5  -5   2    1.50    1.80
  -5  -3   0   47.00    2.40
  -6  -4   2  124.89    3.10
  -7  -3   4   24.70    2.10
  -6  -4   3 1069.49    8.00
  -2  -4   0   31.20    1.80
  -5  -3   1 4790.72   15.50
  -4  -4   1  443.26    5.10
  -4  -2   0  205.48    3.00
  -6  -2   2    2.60    1.60
  -5  -1   1    5.30    1.20
  -6  -2   3  974.20    7.30
  -5  -3   2  247.98    3.90
  -3  -5   3  638.44    6.10
  -6  -2   4 1738.23    9.80
  -5  -1   2 1730.03    8.00
  -2  -4   1  321.67    3.90
  -6  -2   5  352.66    5.00
  -5  -3   3  232.88    4.30
  -4  -2   1  244.48    3.00
  -4  -4   4  147.09    3.80
  -5  -3   5   -0.50    2.60
  -5  -1   3  206.58    3.00
  -4  -4   5   92.59    3.20
  -5  -3   6    5.30    1.90
  -4  -4   6   51.49    2.60
  -4  -2   2   33.60    1.50
  -2  -4   2  162.28    3.00
  -5  -1   4   57.29    2.40
  -3  -3   2    4.70    1.60
  -5  -1   5  758.92    6.20
  -4  -2   3 1160.68    7.00
  -2  -4   3  166.08    3.10
  -4  -2   8  616.24    6.10
  -3  -3   3   80.29    2.30
  -4  -2   4  154.18    3.00
  -2  -4   5  653.23    6.50
  -4  -2   7   98.69    2.90
  -3  -3   4  260.27    3.90
  -3  -3   5  622.04    6.20
  -1  -3   2  572.14    4.30
   0  -4   5   47.90    2.60
   0  -4   6   -2.80    2.20
  -3  -1   8  800.22    6.90
  -1  -3   3  311.57    3.50
  -1  -3   8   68.89    2.60
  -3  -1   4 2691.43    9.60
  -3  -1   7    5.40    1.70
  -2  -2   3   25.50    1.50
  -1  -3   7   30.30    2.70
  -3  -1   5  454.85    4.50
  -3  -1   6  586.74    5.50
  -1  -3   4  141.39    2.80
  -1  -3   6    9.90    2.40
  -2  -2   4 2228.98    9.30
  -2  -2   7   60.49    2.50
  -2  -2   5 1218.78    7.60
  -2  -2   6    0.50    1.60
  -1  -1   9   30.40    2.60
   1  -3   8   -0.20    1.70
  -2   0   8  227.58    4.30
   1  -3   7   20.80    2.80
   0  -2   8 1116.09    9.00
   1  -3   3  902.11    5.50
  -2   0   7    1.50    1.60
   1  -3   6  254.87    4.20
  -2  -4  -6   50.89    3.40
  -1  -3  -6  257.77    5.50
   0  -2  -5   60.49    3.20
   1  -3  -2  573.74    5.30
   0  -4  -3  149.99    4.20
  -3  -5  -4   58.39    4.30
  -2  -4  -5  120.99    5.00
  -1  -3  -5 5072.19   20.80
  -2  -2  -6   17.90    2.60
   0  -2  -4  719.63    6.40
  -5  -3  -6   83.39    4.00
  -3  -5  -3  577.64    7.90
  -2  -4  -4  913.51   10.10
  -4  -2  -6 1384.16   12.10
  -3  -5  -2  111.39    4.60
  -1  -3  -4  231.08    4.50
  -3  -3  -5 1538.85   12.70
  -4  -4  -4   13.10    3.40
  -1  -3  -3  930.01    7.90
  -5  -5  -1    7.40    3.20
  -6  -2  -5   57.39    3.80
  -4  -4  -3   54.39    4.40
  -4  -2  -5  329.97    6.20
  -3  -3  -4   15.60    2.80
  -2  -4  -1  665.73    7.30
  -2  -2  -4    2.70    2.10
  -1  -3  -2    1.40    1.90
  -6  -4  -3  507.95    7.80
  -5  -3  -4  123.49    4.90
  -4  -4  -2  390.16    7.20
  -6  -4  -2  200.08    5.90
  -3  -3  -3  404.46    6.10
  -6  -2  -4  308.57    7.10
  -3  -1  -4  768.92    7.10
  -2  -2  -3 1698.53    9.90
  -4  -4  -1 1412.06   11.80
  -3  -3  -2  228.08    5.00
  -4  -4   0  240.28    5.20
  -6  -4   1    9.00    3.10
  -5  -3  -2   81.59    4.00
  -7  -3  -1  314.47    7.20
  -7  -1  -3  301.37    6.80
  -3  -3  -1   94.99    3.30
  -3  -1  -3  848.92    7.00
  -5  -3  -1   33.80    3.10
  -5  -1  -3  360.86    5.90
  -8  -2  -1   12.90    3.40
  -7  -3   0  217.88    5.70
  -6  -2  -2   32.70    3.80
  -4  -2  -2 3193.78   15.00
  -3  -3   0  650.93    6.40
  -4   0  -3    0.70    1.90
  -7  -3   1  319.67    6.20
  -7  -1  -2 1411.96   12.40
  -5  -3   0   47.40    3.20
  -3  -3   1 3874.91   14.50
  -7  -3   2    9.90    3.40
  -6  -2  -1    8.40    2.70
  -5  -3   1 4901.21   20.00
  -4  -2  -1 2180.38   11.60
  -9  -1   1   16.00    3.90
  -8   0  -1    2.20    3.40
  -5  -3   2  237.18    5.20
  -6   0  -2 1604.64   11.20
  -7  -3   3   83.19    3.40
  -7  -1   2   10.70    1.70
  -6  -4   3 1042.90    8.50
  -5  -3   1 4813.92   16.60
  -4  -2   0  207.68    3.20
  -3  -3   0  626.04    5.10
  -2  -4   1  318.77    4.00
  -7  -1   3  290.27    4.50
  -4  -4   2  703.63    6.80
  -7  -1   4    1.40    2.40
  -5  -3   2  261.57    4.80
  -5  -1   1    2.50    1.80
  -7  -1   5  224.08    4.50
  -3  -3   1 3758.42   12.70
  -2  -4   2  157.98    3.20
  -4  -4   4  141.59    4.00
  -5  -3   4   80.59    3.60
  -4  -4   5   95.69    3.10
  -4  -4   6   48.90    2.60
  -2  -4   3  174.68    3.30
  -5  -3   5    4.00    1.90
  -2  -4   4    9.30    2.30
  -2  -4   6  135.59    3.80
  -5  -1   4   61.09    2.40
  -4  -2   3 1169.58    7.30
  -5  -1   5  770.42    6.60
  -5  -1   7   43.10    3.00
  -5  -1   6   19.90    1.80
  -4  -2   8  594.24    6.40
  -3  -3   6  328.07    5.20
  -3  -3   7  366.16    5.20
  -4  -2   6  192.98    4.20
  -4   0   8    5.70    2.60
  -1  -3   8   66.69    2.60
  -1  -3   7   27.70    2.80
  -4   0   7    4.90    2.30
  -2  -2   3   26.80    1.60
  -1  -3   6   14.40    2.30
  -4   0   5    0.60    1.40
  -3  -1   8  780.92    7.50
  -2  -2   8  143.19    3.60
  -2  -2   4 2196.68    9.50
  -3  -1   4 2707.63   10.10
  -3  -1   7    4.50    1.80
  -2  -2   5 1194.18    7.80
  -2  -2   6    2.80    2.20
  -3   1   8  791.02    7.10
  -2   0   9    0.90    2.20
  -1  -1   9   28.30    3.00
   0  -2   8 1087.19    8.80
   5  -5   2   94.49    2.70
   6  -4  -2  122.19    3.00
   6  -4   0  231.38    4.10
   4  -4   3   54.29    2.80
   5  -5   1    7.30    2.10
   5  -3   1   31.60    2.30
   5  -3  -3  220.98    3.70
   4  -2   1 2277.47    9.00
   5  -5  -2    1.70    2.10
   5  -5  -1  192.18    3.90
   5  -3  -2  260.97    4.00
   5  -3   0   49.30    2.20
   3  -5   3  564.54    5.90
   3  -3   3  414.36    4.20
   4  -2   0  221.08    3.00
   4  -2  -2   34.90    1.80
   4  -4   1 1394.96    8.90
   3  -5   2  110.79    3.10
   3  -3   2  236.78    3.20
   4  -4  -3  849.22    6.80
   4  -4   0  231.88    3.80
   2  -4   3 2431.56   10.40
   4  -4  -2  705.23    6.20
   4  -4  -1  474.95    5.20
   2  -6   1  107.69    3.10
   3  -5  -3  664.83    6.50
   3  -5   0   54.99    2.80
   3  -3   1   98.69    2.20
   2  -6   0  682.33    6.60
   3  -5  -1  166.48    3.60
   2  -6  -2   31.20    2.20
   2  -6  -1   35.80    2.40
   3  -3  -3   80.69    2.30
   3  -3   0  633.14    4.90
   0  -6   2    1.80    2.10
   3  -3  -2    1.30    1.60
   3  -3  -1 3943.91   12.00
   1  -5   2  322.57    4.70
   0  -6   1  310.77    4.70
   2  -4  -4   12.00    1.70
   1  -5   1  225.88    4.10
   2  -4   0   30.00    1.90
   0  -6   0 1809.82   10.50
   1  -5  -4   14.10    2.00
   2  -4  -1  337.67    4.20
   0  -6  -2    3.80    1.80
   0  -6  -1  329.07    4.80
   1  -5   0    2.00    1.80
   1  -5  -2  286.67    4.60
   1  -5  -1  170.88    3.80
  -2  -6   1   36.50    3.00
  -1  -5   2  282.77    4.20
   0  -4   2   45.30    1.90
  -2  -6   0  686.33    6.70
  -2  -6  -2   14.40    2.70
  -1  -5  -4   27.40    2.50
   0  -4   1 1136.69    7.10
   1  -3   0  246.28    2.80
   0  -4  -4  967.20    7.10
   1  -3  -3  306.07    3.30
   1  -3  -1  803.52    5.10
  -1  -5   0    3.90    1.80
  -2  -2   6    1.50    1.60
   0  -2   8 1112.59    7.80
   0   0   6  229.18    3.30
   1  -1   8   41.40    2.40
   3   1   5  180.48    2.90
   4   0   7    2.00    1.70
  -1  -1   6  162.78    2.80
   1  -3   8   -0.40    2.40
   2  -2   8   37.00    2.50
   0  -2   7 1070.19    7.60
   1  -1   7  363.76    4.60
   4   0   6  143.69    3.30
  -1  -1   5  226.38    2.80
   1  -3   7   23.60    2.30
   0  -2   6  743.53    5.90
   4   0   5   -2.00    1.70
   5  -1   6 1076.79    7.40
   1  -1   5   42.90    1.50
   2   0   4 3254.77    9.10
   4   0   4 1301.17    6.60
   5  -1   5  215.68    3.70
   0  -2   5   62.39    1.90
   2  -4   6   46.60    2.30
   6  -2   5   57.19    3.00
   3  -3   6   55.89    2.40
   1  -3   5 5081.99   15.00
   1  -1   4 2273.87    7.70
   2  -2   5  158.58    2.90
   0  -2   4  734.23    4.50
   2  -4   5  118.09    2.90
   6  -2   4  300.57    4.20
   3  -3   5 1600.84    9.10
   3  -5   4   53.99    2.30
   7  -3   3  149.69    3.20
   1  -3   4  236.48    3.30
   5  -1   3  357.56    3.70
   2  -4   4  922.11    6.80
   4  -4   4   16.00    1.90
   6  -2   3  247.08    3.80
   3  -3   4   16.10    1.90
   3  -5   3  574.84    5.80
   3  -1   3  833.72    4.70
   7  -3   2  131.19    3.30
   4  -4   3   56.29    2.70
   5  -5   2   99.69    3.00
   1  -3   3  938.41    5.60
   2  -4   3 2505.65   10.70
   2  -2   3 1763.62    7.10
   5  -1   2 1470.35    6.80
  -3  -1   7    7.90    1.90
   0   2   7 1070.89    6.90
  -2   0   8  252.07    3.90
  -1   1   8   48.50    2.20
  -3  -1   4 2655.13    8.40
  -3  -1   5  455.75    4.10
  -3  -1   6  613.14    5.20
  -2  -2   8  138.39    3.20
   0   2   6  721.03    5.30
  -2   0   7    0.40    2.00
  -1  -1   9   29.00    1.90
  -1   1   7  642.44    5.80
   0   2   5   61.19    1.70
  -2  -2   7   59.99    2.80
  -2   0   6 4019.10   12.70
  -2   0   5    1.30    0.90
  -1  -1   8   47.80    2.80
   1   1   8   39.30    2.10
  -2  -2   6    1.90    1.80
   0   0   8  202.88    4.00
  -1  -3   7   32.30    2.40
   1  -1   9  153.58    3.40
  -2  -2   5 1169.58    6.40
   1   1   7  353.56    4.40
  -2  -2   4 2156.18    7.60
  -1  -3   6   10.40    2.20
   0   0   7    0.80    1.40
  -1  -1   6  185.28    3.10
   1  -3   8   -2.50    1.60
   1  -1   8   41.70    2.70
   1   1   6  791.42    5.70
   2   0   8  749.92    6.80
   4   0   8  695.83    6.10
   0   0   6  225.38    3.20
  -1  -1   5  229.08    2.90
   1   1   5   43.40    1.70
   2  -2   8   33.60    2.30
   1  -3   7   24.10    2.10
   1  -1   7  367.96    4.80
   2   0   7   -2.10    2.00
   3  -1   8  812.12    7.00
   0  -2   6  723.13    6.00
   3   1   6  545.75    5.10
   1  -3   6  264.57    4.00
   1  -1   6  783.42    6.10
   2  -4   6   44.80    2.20
   2  -2   7  263.17    4.20
   2   0   6  237.78    3.70
   3  -1   7  101.79    3.40
   0  -2   5   61.09    1.90
   3   1   5  187.08    2.80
   4  -2   7    3.30    1.80
   4   0   6  145.99    3.30
   0  -2   4  714.93    4.70
   1  -3   5 5068.99   15.20
   1  -1   5   42.30    1.70
   2  -4   5  115.79    2.90
   2  -2   6   21.90    1.90
   2   0   5   -0.40    1.20
  -2  -4  -6   45.50    3.30
  -3  -5  -4   60.09    4.10
  -2  -2  -7  259.57    5.70
  -1  -1  -6  785.52    7.80
  -3  -1  -7  101.69    4.20
  -1  -3  -5 5010.40   20.80
  -2  -4  -4  905.71    9.80
   0  -2  -4  734.63    6.60
  -1  -3  -4  228.48    4.60
  -1  -1  -5   44.50    2.90
  -2  -4  -3 2487.05   14.60
  -3  -1  -6  542.55    7.90
  -2  -4  -2  157.88    4.30
  -1  -3  -3  896.01    8.00
  -4  -2  -6 1379.86   12.50
  -3  -3  -5 1593.14   13.00
  -2   0  -5   -1.10    1.70
  -5  -3  -5   -0.60    3.10
  -5  -1  -6 1084.59   11.00
  -4  -4  -3   54.99    4.40
  -6  -4  -3  493.55    8.10
  -3  -3  -4   12.60    3.60
  -4  -2  -5  327.27    7.00
  -2  -2  -4    3.40    2.20
  -4  -4  -2  391.26    6.60
  -6  -4  -2  206.88    5.90
  -5  -3  -4  125.69    5.00
  -5  -1  -5  209.08    6.30
  -4  -4  -1 1362.96   11.30
  -6  -4  -1    7.90    3.40
  -2  -2  -3 1729.73   10.20
  -5  -3  -3  678.53    9.20
  -4  -2  -4  882.01    9.40
  -6  -2  -4  296.07    6.90
  -3  -3  -2  243.28    4.70
  -8  -2  -3   10.00    3.60
  -5  -1  -4  446.86    7.00
  -4  -2  -3   99.49    3.80
  -4   0  -4 1298.87    9.90
  -3  -3  -1   97.59    3.00
  -7  -3  -1  309.97    6.80
  -6  -2  -3  251.87    6.10
  -6   0  -4 3786.02   19.50
  -7  -3   3   82.59    4.30
  -8   0   0  105.09    4.40
  -6  -2   0 1061.89    9.90
  -7  -1   0 1009.60   10.20
  -5  -3   2  239.58    4.90
  -6   0  -1    8.60    1.90
  -8   0   1    1.80    3.30
  -6  -2   1   10.90    3.20
  -7   1   0  984.50    9.40
  -7  -1   1   67.79    3.70
  -5   1  -1   30.00    2.00
  -6   0   0   13.70    2.20
  -7  -1   2   11.20    2.80
  -6  -2   3 1001.20    9.60
  -7   1   1   71.39    3.40
  -7  -1   3  284.97    5.80
  -6  -2   4 1748.43   12.60
  -6  -2   5  344.27    6.30
  -8   0   5    1.50    2.30
  -5  -1   1    3.30    1.50
  -4  -2   2   32.40    1.90
  -7   1   2   14.00    3.30
  -5   1   0  519.05    5.50
  -7   1   3  295.47    6.10
  -6   0   2  117.49    3.60
  -5  -1   2 1675.53   10.30
  -7   1   5  211.98    5.00
  -6   0   3    3.50    2.30
  -6   2   2    4.70    2.00
  -5   1   1    6.10    1.70
  -6   0   4  444.36    6.80
  -5  -1   7   44.20    3.50
  -6   0   5    3.20    3.10
  -6   0   6   10.50    3.30
  -5  -1   5  761.52    8.20
  -5  -1   6   15.70    3.50
   6   0   1    5.10    2.50
   7   1  -1   78.69    4.00
   8   0  -1   -1.90    2.80
   7   1  -2    8.30    3.50
   6  -2   1    2.50    3.30
   7  -1   0 1010.70   10.30
   6   0   0   12.10    2.00
   8   0  -3   -0.30    2.80
   5   1  -1    6.80    1.90
   6   0  -1    2.60    2.70
   7  -1  -1   73.99    3.80
   5   1  -2 1697.63   10.10
   6  -2   0 1042.60    9.40
   8  -2  -3   -1.60    3.00
   4  -2   1 2196.28   10.30
   7  -1  -2    7.40    3.50
   5  -1   0  517.25    5.90
   5   1  -3  203.38    4.00
   6   0  -2  114.99    4.40
   7  -3  -2    7.80    2.90
   5  -3   0   48.20    3.30
   6   0  -3    3.70    2.90
   7  -1  -4   -0.30    3.50
   7  -3  -4   21.60    3.80
   7  -1  -5  212.38    5.20
   6  -4  -3 1012.50   10.20
   6   0  -5    0.80    3.30
   5  -1  -1    6.40    1.30
   6  -2  -2    0.50    3.30
   4  -2   0  207.28    3.50
   5  -3  -1 4751.72   18.90
  -1  -3 -10   26.60    2.20
   0  -2 -10  234.88    3.80
   1  -5  -7  665.93    6.90
   0  -4  -9  171.38    3.90
   3  -3  -7  362.96    6.50
  -2  -2 -10  335.27    3.80
   1  -3  -9  634.14    7.40
   2  -4  -7   64.69    3.20
   2  -2  -8  139.69    4.90
  -2  -4  -9  182.68    3.50
   1  -5  -5   59.29    3.50
  -1  -5  -7  408.56    5.80
   0  -4  -8  120.49    3.90
   0  -2  -9  106.99    4.00
  -3  -5  -7  275.97    4.10
  -1  -5  -6    4.60    2.30
   0  -4  -7 1210.58   11.10
  -2  -4  -8  283.87    4.90
  -2  -2  -9  127.19    4.30
  -4  -4  -8   17.30    2.30
  -5  -5  -6  170.28    3.00
  -4  -2  -9  108.09    2.90
  -3  -5  -6   44.90    3.20
  -1  -3  -8   -1.10    2.30
  -6  -4  -7  223.78    3.30
  -2  -4  -7  194.18    5.10
  -5  -3  -8   -0.40    2.70
  -3  -5  -5   28.30    3.40
  -6  -2  -8    0.50    2.10
  -5  -5  -5  250.37    4.20
  -4  -4  -7    1.90    2.90
  -2  -2  -8   35.00    3.50
  -3  -1  -8  790.72    9.00
  -6  -4  -6  101.89    3.50
  -5  -1  -8   24.00    2.70
  -3  -3  -7  449.76    7.30
  -8  -4  -4   15.10    2.00
  -5  -3  -7   12.50    2.30
  -7  -3  -6   31.50    3.00
  -7  -1  -7   82.89    2.60
  -6  -2  -7  178.38    4.70
  -6  -4  -5   65.49    3.30
  -4  -4  -5  294.27    6.00
  -8  -4  -3    3.10    2.00
  -5  -1  -7  320.57    6.20
  -5  -3  -6   74.39    3.80
  -6  -4  -4   41.90    3.50
  -9  -1  -5  276.57    3.80
  -8  -4  -2   25.60    2.20
  -7  -3  -5   -0.10    2.80
  -7  -1  -6    9.40    3.00
  -6  -2  -6  128.89    4.00
  -8  -2  -5  219.18    4.70
  -6  -4  -3  441.86    6.40
  -5  -3  -5    0.40    2.20
  -7  -3  -4    2.90    2.50
  -8   0  -5    1.00    2.50
  -6  -2  -5   51.09    3.70
 -10   0  -3    0.00    1.80
  -9  -3  -1   38.70    2.80
  -8  -2  -4  192.28    4.20
  -7  -1  -5   54.19    3.50
  -7  -3  -3  137.79    4.10
 -10  -2   0   21.20    2.50
  -9  -1  -3  176.08    3.90
  -8  -2  -3    6.30    2.10
  -8   0  -4  389.56    6.20
  -7  -3  -2  109.09    4.00
 -10  -2   1    4.30    2.20
 -10  -2   2    0.90    1.60
  -8  -2  -2   62.59    3.30
 -10   0  -1   -2.10    2.50
  -8   0  -3    1.90    3.00
 -10   2   0   20.60    1.90
  -9   1  -2    9.20    2.10
 -10   0   0  169.68    3.60
  -8  -2   0  801.62    8.30
  -9  -1   0  254.97    5.00
  -8   0  -2    9.90    2.40
 -10   0   1   -0.70    1.70
 -10   0   5    0.60    1.40
 -10   2   1    1.30    2.00
  -9   1  -1  305.37    5.00
  -8  -2   1  273.57    5.00
  -8  -2   2  191.98    4.60
 -10   0   2 1167.88    7.90
 -10   2   2    1.90    2.00
 -10   0   3   -0.10    1.90
  -9  -1   2  149.99    4.10
  -9  -1   5   70.99    2.40
 -10   2   4   80.89    2.10
  -9  -1   4  721.33    6.40
  -9   1   0  258.97    4.80
  -9   1   1   11.20    2.00
  -9   3   2   55.69    2.20
  -8   2   0  851.51    8.40
  -9   1   2  150.28    3.80
  -9   3   3  463.95    4.70
   5   3   7   12.80    1.20
   6   2   8    0.10    0.80
   1   3   8    0.50    1.20
   2   2   9  121.19    2.60
   3   1  10   58.59    1.80
   4   0  10  477.95    3.20
   5   1   9  308.47    3.00
   2   2   8   31.90    2.30
   1   1   9  143.29    2.90
   0   0   9    2.20    1.60
   3  -1  10   57.29    1.60
   4   2   7    1.20    1.70
   5   1   8   24.40    2.00
   7  -1   8  198.58    1.80
   2   0   9    2.00    1.50
   3   1   8  825.72    6.80
   4   0   9   -0.50    1.30
   6   0   8   72.29    2.00
   1  -1   9  145.39    3.00
   5  -1   9  312.27    3.10
   5   1   7  333.97    4.30
   2  -2   9  121.69    2.60
   4   0   8  706.13    6.20
   6   0   7    1.30    1.50
   7  -1   7   81.29    1.90
   8  -2   6  193.78    2.00
   6  -2   8    1.40    1.30
   5  -1   8   26.80    1.70
   7  -3   7  430.16    2.80
   4  -4   8   16.30    1.20
   6   0   6  226.18    3.90
   5  -3   8    0.00    1.20
   6  -4   7  215.98    2.20
   7  -1   6   10.80    1.90
   2  -2   8   34.40    2.40
   4  -2   8   50.79    2.30
   3  -3   8  129.29    2.80
   5  -1   7  328.57    4.50
   8  -2   5  222.38    2.70
   7  -1   5   66.89    2.50
   4  -2   7    1.00    2.00
   5  -3   7   11.60    1.50
   8  -4   4   17.80    1.20
   6  -4   6  106.59    2.40
   3  -3   7  456.65    5.00
   7  -5   4    1.30    1.20
   7  -3   5    3.70    1.50
   3  -5   6   45.20    1.80
   8  -4   3    2.90    1.20
   5  -3   6   72.69    2.40
   6  -2   5   56.19    2.50
   4  -4   6   80.89    2.50
   6  -4   5   74.69    2.30
   5  -5   5  251.07    3.10
   6  -6   3  144.39    1.90
   7  -3   4    2.30    1.80
   7  -5   3   62.79    1.80
   8  -4   2   29.50    1.60
   4  -6   4  227.68    2.70
   3  -5   5   27.90    2.10
   6  -4   4   45.60    1.80
   7  -3   3  157.38    3.10
   8  -4   1   11.50    1.30
   5  -5   4    7.40    1.50
   6  -6   2  100.79    2.00
   7  -3   2  128.79    2.90
   4  -6   3    0.90    1.20
   6  -4   3  478.95    4.90
   7  -5   1  847.42    5.20
   5  -5   3   21.10    1.90
   6  -6   1   58.89    1.50
   2  -6   3  352.16    3.90
   3  -7   1   -0.50    1.20
   5  -5   2   97.49    2.90
   7  -5  -1   88.89    1.90
   3  -7   0  138.59    2.20
   6  -6  -1   -0.20    1.00
   7  -5  -3  198.38    2.20
   7  -5  -2   12.00    1.40
   2  -6   2   16.40    1.80
   6  -6  -3  155.38    1.90
   4  -6   1  204.38    3.00
   3  -7  -1   62.99    1.60
   5  -5   1    3.50    1.40
   1  -7  -1  244.08    2.60
   2  -6   1   97.69    2.60
   3  -7  -3   49.50    1.50
   5  -5   0   10.10    1.80
   1  -7  -2  463.45    3.40
   4  -6  -1  236.28    3.30
   1  -7  -4   99.99    1.60
   1  -7  -3   28.90    1.30
   2  -6   0  595.94    5.50
   5  -5  -1  178.88    3.20
   6  -4  -2  112.59    2.80
   4  -6  -2  209.78    3.00
 -10  -2   2   -0.90    1.40
 -10  -2   3   40.30    1.70
  -9  -3   1    3.80    1.50
  -8  -2  -1   16.60    2.10
  -9  -3   2   55.69    1.70
  -9  -1   1   13.60    1.40
  -8  -4   2   27.60    1.40
  -8  -2   0  811.22    6.20
  -9  -3   4   64.09    1.50
  -9  -3   5    1.70    1.10
  -9  -1   2  146.69    2.80
  -8  -4   3    1.70    1.00
  -8  -4   4  150.58    1.80
  -8  -4   5   61.79    1.20
  -8  -4   5   33.50    0.90
  -9  -1   3   58.29    1.70
  -9  -1   6    0.80    0.80
  -8  -2   1  258.57    3.60
  -9  -1   5   66.99    1.80
  -8  -2   2  178.98    2.90
  -8   0   6   60.49    1.60
  -8  -2   3    1.00    1.40
  -8  -2   7   22.70    1.20
  -8   0   5   -0.10    1.00
  -7  -3   8   15.60    0.90
  -8  -2   4   96.19    2.10
  -8  -2   5  103.79    2.20
  -8  -2   6   55.39    1.50
  -7  -3   3   60.59    2.10
  -7  -3   7 1012.20    4.60
  -7  -1   8    1.60    1.10
  -7  -3   4   16.70    1.40
  -6  -4   4  158.58    2.60
  -6  -4   7    2.60    1.10
  -7  -3   5  135.69    2.30
  -7  -3   6   72.39    1.60
  -6  -4   5  340.77    3.40
  -6  -4   6   75.09    1.70
  -7  -1   7    1.40    0.90
  -7  -1   6  457.05    4.20
  -6  -2   8  174.88    2.60
  -6   0   7    0.60    1.40
  -5  -3   9   40.40    1.20
  -6  -2   7    6.40    1.40
  -6  -2   6    0.60    1.30
  -5  -3   8   42.30    1.70
  -5  -1   9  308.07    3.00
  -4  -4   8   13.30    1.20
  -3  -3  10   10.80    1.20
  -5  -3   7   34.00    1.80
  -4  -4   7  196.68    2.90
  -5  -3   6    2.00    1.40
  -5  -1   8  799.32    5.60
  -4  -4   5   68.79    2.10
  -4  -4   6   39.80    2.00
  -2  -4   9  269.57    2.60
  -4  -2   9    3.80    1.20
  -3  -1  10   75.89    1.90
  -1  -1  11    4.30    0.60
  -3  -3   9  134.79    2.50
  -4  -2   8  561.34    5.40
  -2  -4   8    4.80    1.60
  -3  -3   8   15.80    1.90
  -2  -2  10   63.09    1.90
  -1  -3  10   42.20    1.50
  -3  -1   9  221.88    3.30
  -2  -4   7   61.89    2.40
  -3  -3   7  379.26    4.90
  -2  -2   9  236.38    3.70
   1  -3  10   26.90    1.50
  -1  -3   9  647.34    5.30
   0  -4   8  115.89    2.70
   0  -2  10  253.57    3.40
   0   0  10    5.90    1.40
  -2  -2   8  143.59    3.70
  -1  -3   8   70.19    2.40
   0  -4   7 1233.38    8.00
  -1  -1   9   31.70    2.10
   2  -4   8  287.07    3.50
   1  -3   9    0.30    1.70
   1  -1  10   23.20    1.60
   2  -2  10  375.56    3.60
   0  -2   9  113.39    2.80
   2   0  10 1120.49    5.70
   0   0   9    1.40    1.50
   3  -3   9  199.68    2.90
   2  -4   7  193.68    3.30
   4  -4   7    6.20    1.50
   1  -1   9  163.18    3.70
   2  -2   9  138.79    3.20
   2   0   9    0.60    1.90
   5  -3   8    1.20    1.30
   5  -1   9  323.67    3.30
   2  -2   8   34.80    2.10
   4   0   9    1.00    1.30
   6  -2   8    0.40    1.10
   7  -1   8  211.88    2.40
   4  -2   8   47.00    2.30
   5  -3   7   12.60    1.50
   6  -2  -6    1.00    1.20
   8  -4  -4  147.29    2.20
   6  -4  -6   76.19    1.70
   8  -2  -3   -0.90    1.30
   7  -3  -5  146.59    2.90
   8  -4  -3    3.40    1.50
   8  -2  -1  259.27    3.60
   7  -5  -4   80.69    1.80
   8  -4   0   90.19    1.80
   8  -4  -1  388.16    3.60
   7  -3  -4   20.00    1.70
   4  -6  -5    7.60    1.20
   7  -3  -3   75.29    2.70
   7  -5  -2   14.20    1.30
   7  -5  -1   83.19    2.10
   7  -5   0   29.50    1.50
   5  -5  -5  466.95    4.00
   6  -6  -2    1.60    1.30
   6  -6   0   24.70    1.50
   5  -5  -4  102.89    2.60
   6  -4  -3  896.11    7.10
   3  -7  -3   45.70    1.40
   4  -4  -5   71.69    2.30
   6  -4  -2  103.89    3.00
   5  -5  -3  259.47    3.80
   3  -7   2    1.90    1.00
   4  -6  -3   59.89    2.40
   3  -7  -2   48.50    1.50
   5  -5  -2    0.50    2.00
   4  -6  -2  196.68    3.40
   5  -5   1    3.00    2.00
   1  -7  -3   31.80    1.40
   2  -6  -4   28.20    1.60
   3  -7   0  135.89    2.40
   3  -7   1    0.50    1.50
   3  -5  -4  111.99    3.10
   4  -6   2    4.70    1.20
   5  -5   0    5.30    1.80
   4  -6  -1  218.68    3.60
   1  -7  -2  490.65    4.20
   2  -6  -3  149.88    3.30
   1  -7   3  193.08    2.30
   1  -7  -1  262.47    3.50
   2  -6  -2   28.70    2.10
  -1  -7  -2  130.99    2.40
   1  -7   0   11.30    1.60
   1  -7   1  234.18    3.40
   1  -7   2  133.69    2.50
   0  -6  -3   -1.40    2.00
   2  -6  -1   28.70    2.50
   2  -6   3  361.96    4.10
   2  -6   0  623.84    6.30
   2  -6   2   17.20    2.20
  -3  -7  -1    0.30    1.30
  -1  -7   3   30.90    1.80
  -1  -7   0    9.90    1.90
  -1  -7   2  510.45    4.40
  -3  -7   3   49.50    1.80
   0  -6   4   44.60    2.00
  -3  -7   1   62.39    2.10
  -3  -7   2   47.70    1.70
  -2  -6  -2   14.10    1.70
   0  -6   3   -1.60    2.10
  -2  -6   5  131.89    2.30
   0  -6   1  301.27    4.60
  -2  -6  -1   95.89    2.90
  -6  -6   0   24.70    1.30
  -4  -6  -1  192.98    3.20
  -4  -6   5   34.30    1.50
  -6  -6   4    1.20    1.00
  -2  -6   0  590.44    5.80
  -2  -6   1   28.30    2.20
  -2  -6   3  149.69    3.20
  -6  -6   1   -0.40    1.40
  -6  -6   3  143.09    2.20
  -4  -6   0    1.40    1.90
  -4  -6   4   20.20    1.70
  -2  -6   2   27.60    1.70
  -4  -6   1  215.48    3.20
  -4  -6   2  186.88    3.20
  -4  -6   3   64.79    1.90
  -7  -5   0   33.70    1.50
  -5  -5  -1    3.40    1.30
  -7  -5   1   82.29    2.10
  -7  -5   4   87.29    1.70
  -3  -5   4  110.69    3.00
  -7  -5   3  192.38    2.60
  -5  -5   2    3.00    1.70
  -5  -5   3  234.38    3.50
  -8  -4   1  392.56    3.50
  -8  -4   4  151.48    2.20
  -8  -4   3    1.70    1.10
  -4  -4   5   65.89    2.00
  -1   5   8   98.39    2.50
  -3   3   8   13.60    2.60
  -2   2   9  223.98    5.20
  -2   4   8    4.10    2.60
  -1   5   7  672.13    6.90
   1   3  10   25.80    2.00
  -3   3   7  367.86    6.40
   0   4   9  168.08    3.70
  -2   4   7   58.79    3.20
  -2   2   8  132.59    4.80
  -1   5   6   -1.80    2.60
  -1   5   5   58.99    3.40
   2   4   9  182.98    3.50
  -1   3   8   74.39    3.70
   0   2   9  111.89    4.00
   0   4   8  115.99    3.80
   1   5   7  402.96    5.70
   1   5   6    2.30    2.50
   3   5   7  285.37    4.50
   2   2   9  136.19    4.40
   1   5   5  449.06    7.10
   4   4   8   15.70    3.00
   1   3   8    1.30    2.70
   3   5   6   45.80    3.50
   4   2   9  112.29    3.00
   5   5   6  168.38    3.20
   6   4   7  208.48    3.30
   3   3   8  130.89    4.60
   5   3   8   -1.30    2.70
   2   2   8   35.80    3.20
   4   4   7    4.10    3.20
   5   5   5  260.67    4.50
   6   2   8   -1.10    1.90
   3   1   8  825.62    9.50
   5   1   8   26.60    2.80
   3   3   7  460.35    7.70
   8   4   4   14.80    1.90
   7   1   7   81.29    2.80
   7   3   6   29.80    3.10
   4   2   7    0.20    2.40
   4   4   5  320.97    6.50
   6   4   5   70.59    3.50
   8   4   3    4.30    2.00
   9   3   4   50.79    2.60
   5   1   7  327.57    5.90
   5   3   6   80.29    4.00
   6   4   4   46.30    3.70
   7   3   5    5.20    2.80
   8   4   2   28.80    2.30
   6   2   6  121.59    4.00
   6   4   3  447.06    6.70
   7   1   6    7.80    2.60
   8   2   5  228.78    4.70
  10   2   3   11.00    2.30
   7   3   4    3.90    2.50
   6   2   5   48.80    3.60
   8   0   5   -3.00    2.50
   9   3   2   15.90    2.60
  10   2   2    9.10    2.30
   7   1   5   63.29    3.80
   8   2   4  189.88    4.30
   7   3   3  140.19    4.30
   9   3   1   42.50    2.40
   9   3   0    1.80    2.20
   7   3   2  110.39    4.10
   8   0   4  384.86    6.10
   8   2   3   10.10    2.30
   9  -1   3  174.88    3.60
  10   2  -1    4.10    2.10
   8   2   2   63.39    3.50
   9   1   2   12.60    3.00
   8   0   3   -2.40    3.00
  10   0   1    2.00    2.50
   9  -1   2    9.90    2.20
   9   1   1  314.97    5.50
  10   0   0  173.38    3.80
   8   2   0  844.82    9.00
   4   4   8   17.50    1.90
   3   3   9  203.68    4.20
   1   1   9  156.38    4.60
   1   3   8    2.80    2.40
   4   4   7    1.50    2.70
   4   2   9  111.79    3.60
   6   4   6  105.89    2.60
   5   3   8   -1.90    2.50
   7   3   7  436.16    3.70
   3   1   9  204.88    4.40
   2   2   8   31.60    3.20
   4   4   6   81.79    3.30
   3   3   7  462.45    7.10
   4   4   5  317.47    5.90
   6   2   8   -0.20    1.90
   4   2   8   50.49    3.30
   7   3   6   31.30    2.50
   6   0   8   68.39    2.50
   4   2   7   -0.90    3.10
   6   2   7  177.78    4.10
   8   0   7   -0.80    1.50
   8   2   6  195.88    3.40
   7   3   5    1.70    2.50
   7   1   7   81.39    2.90
   5   3   5   -0.20    3.30
   7   3   4    4.40    2.50
   6   0   7    1.60    2.70
   6   2   6  122.89    3.80
   9   1   5  276.17    3.70
   7   1   6   10.30    2.80
   8   0   6  526.45    5.30
  10   0   4   24.00    1.90
   8   2   4  186.58    3.90
   9  -1   5  251.97    3.40
   7  -1   6   11.40    2.50
   9   1   4  308.77    4.40
   7   1   5   53.89    3.10
   8   2   3    5.50    2.70
   8   2   2   59.39    2.90
   9  -1   4  293.87    4.00
   7  -1   5   54.49    2.90
  10   0   2  426.36    4.70
   8   0   4  365.76    5.40
   9   1   2   11.10    2.70
  10  -2   2   10.60    1.90
   8  -2   4  172.38    3.50
   9  -1   3  170.48    3.70
   8   0   3   -0.90    1.90
   9  -3   2   14.70    1.60
  10  -2   1  321.37    3.70
   8  -2   3    7.40    2.20
   9  -1   2   13.30    2.70
  10   0  -1    0.90    2.00
   9  -3   1   43.40    2.50
  10  -2   0   22.10    1.90
   8  -2   2   66.29    3.50
   9  -1   1  314.37    5.00
  10  -2  -1    2.50    2.40
  10  -2  -4   74.99    2.00
   7  -3   2  118.59    4.00
   9  -3   0    5.90    2.60
  10  -2  -3   41.80    2.30
  10  -2  -2   -0.40    1.60
   8  -4   0  108.79    3.30
   9  -3  -1    1.60    2.10
   9  -1  -1   14.30    2.70
   8   0   5    1.20    1.10
  10  -2   3   10.80    0.70
   9  -3   4   41.80    0.90
   8   0   3    0.90    1.10
   9  -3   3  278.57    2.00
   9  -3   0    2.50    0.80
   7  -3   5    2.50    0.80
   8  -2   1   10.40    1.00
   8  -4   0   69.09    1.40
   8  -4   1    6.10    1.00
   5  -3   5   -0.10    1.50
   6  -6  -1    0.10    0.90
   6  -6   1   46.40    1.50
   5  -5   4    8.70    1.40
   3  -7   3    2.90    1.10
   6  -4   2  186.98    3.30
   5  -5   3   21.10    1.50
   6  -4   1    8.60    1.60
   3  -7   2    5.20    1.60
   5  -5   2  100.69    3.00
   4  -6   2    6.50    1.90
   5  -5   1    6.20    1.60
   2  -6   4   65.99    2.20
   3  -7   1   -0.50    1.30
   3  -5   4   57.19    2.30
   5  -5  -1  190.38    3.50
   5  -5   0    7.00    1.70
   2  -6   3  404.46    4.90
   2  -6   2   16.00    1.80
   1  -7   0    8.90    1.10
   2  -6  -3  150.48    2.80
   2  -6   1  101.29    2.90
  -1  -7   2  481.75    3.90
   0  -6   3   -0.70    1.40
   2  -6  -2   30.10    1.80
   2  -6  -1   29.60    2.00
   2  -6   0  583.24    5.50
  -4   0   9   -2.10    1.60
  -3   1   9  237.28    3.40
  -2   2   8  138.49    3.00
  -1  -1  11   10.40    1.30
  -1   1  10  400.56    4.00
   0   0  11    0.70    1.00
   0   2   9  105.89    2.40
  -4   0   8    4.20    1.50
  -2   0  10  303.57    3.40
   1   1  10   22.10    1.60
  -2  -2  10   70.39    1.80
   1  -1  11  172.08    1.90
  -3  -1   9  237.98    3.60
  -1  -3  10   44.20    1.20
  -1   1   9   29.20    1.90
  -2   0   9   -0.60    1.20
   0   0  10    6.20    1.60
  -1  -1  10  395.96    3.90
   2   0  10 1086.09    5.80
  -2  -2   9  252.07    3.40
   3  -1  10   63.59    2.00
   0  -4   9  166.68    2.00
   0  -2  10  256.47    3.20
   1  -1  10   24.80    1.90
  -1  -3   9  674.33    5.00
  -1  -1   9   26.80    2.20
   2  -2  10  379.06    3.40
   2   0   9    0.10    1.90
   0  -2   9  113.79    2.90
   1  -1   9  151.48    3.60
  -1  -3   8   76.59    3.10
   3  -1   9  208.68    3.20
   6  -2   8    1.70    0.90
   0  -4   8  120.19    2.60
   4  -2   9  108.99    2.20
   2  -2   9  131.99    2.80
   3  -3   9  204.08    2.80
   5  -1   8   26.00    1.70
   4  -4   8   17.00    1.70
   0  -4   7 1229.78    7.50
   2  -4   8  287.07    3.50
   2  -2   8   35.30    2.20
   3  -5   7  275.97    3.10
   4  -2   8   46.80    2.20
   3  -3   8  129.09    2.70
   5  -1   7  322.87    4.00
   6  -2   7  180.68    2.60
   7  -3   6   28.90    1.40
   2  -4   7  193.08    3.40
   4  -6   5  143.49    1.70
   4  -2   7   -0.30    1.40
   3  -3   7  447.06    5.10
   6  -2   6  131.39    2.70
   8  -4   4   18.00    1.10
   2  -4   6   43.40    1.90
   7  -5   4    1.10    1.20
   4  -6   4  213.58    2.50
   5  -5   5  246.18    3.20
   6  -6   3  134.89    1.80
   7  -3   5    4.90    1.10
   3  -5   5   29.10    2.00
   6  -4   5   66.09    1.90
   6  -2   5   55.69    2.30
   8  -4   3    2.80    1.30
   7  -5   3   57.49    1.70
   4  -6   3    2.80    1.10
   4  -4   5  312.57    4.20
   5  -5   4    8.80    1.50
   6  -6   2   93.99    1.80
   7  -3   4    2.30    1.20
   6  -4   4   40.50    1.70
   8  -4   2   27.50    1.60
   4  -6   2    6.90    1.40
   6  -6   1   52.89    1.60
   7  -5   2  119.19    2.20
   5  -5   3   19.70    1.40
   7  -3   3  152.08    2.80
   6  -4   3  437.56    4.70
   8   2   0  879.41    9.00
   9  -1   2   11.70    2.50
   9   1   1  324.67    5.10
  10   0   0  176.28    3.40
   8   2  -1  299.07    5.50
   9   1   0  264.57    4.90
  10  -2   0   23.70    1.80
  10   0  -1   -1.60    2.30
   9  -1   1  319.07    5.30
   9   1  -1   14.10    3.00
  10   0  -2 1163.58    8.10
   9  -3   0    2.00    1.80
  10   0  -3    0.40    2.30
   9   1  -3   59.39    3.10
   9   1  -2  149.19    3.90
  10  -2  -2   -1.00    1.60
   9  -1   0  255.37    4.60
  10  -2  -4   78.29    2.00
  10  -2  -3   40.50    2.30
   8  -2   1   15.30    2.20
   9  -1  -1   11.00    2.60
   9  -1  -2  140.89    4.00
   8  -2   0  788.42    8.10
   9  -3  -5    1.20    1.80
   8  -4  -2   28.40    2.00
   9  -1  -5   71.39    2.50
   9  -1  -3   60.19    2.60
   8  -4  -3    2.30    2.00
   8  -2  -1  273.37    5.10
   8   0  -4   35.30    3.00
   8   0  -3    2.50    2.30
   8  -4  -4  152.18    3.10
   8  -2  -7   21.70    1.90
   8  -2  -2  192.48    4.40
   8  -2  -4  103.69    3.60
   7  -1  -7    2.60    2.00
   7  -1  -6  472.45    6.20
   7  -3  -3   73.09    2.90
   7  -1  -5  157.68    3.90
   7  -3  -6   78.39    2.50
   7  -3  -4   18.90    2.00
   5  -3  -9   40.30    2.00
   6  -4  -7    3.50    1.60
   6  -2  -8  167.58    3.20
   4  -4  -9    1.30    1.50
   5  -5  -6   21.80    2.00
   5  -5  -4   95.29    3.00
   6  -4  -6   75.69    2.80
   6  -4  -4  169.08    4.20
   5  -5  -5  434.76    4.90
   3  -5  -8  135.59    2.60
   4  -2  -9    5.10    2.00
   2  -6  -6   24.30    1.30
   4  -4  -8   12.10    2.30
   5  -3  -7   37.00    2.30
   5  -3  -6    3.70    2.50
   3  -3  -9  121.79    3.40
   4  -4  -7  195.78    4.20
   2  -4  -9  276.17    3.80
   3  -5  -6    0.40    2.10
   3  -5  -4  105.29    4.30
   4  -4  -6   43.00    2.70
   3  -5  -5    0.10    2.30
   0  -6  -6   55.39    2.30
   1  -5  -8  105.79    2.80
   2  -2  -9  226.38    4.50
   2  -4  -8    2.30    2.30
   3  -3  -7  374.56    6.70
   1  -3  -9  705.13    7.70
  -1  -5  -8   55.39    2.70
   1  -5  -6    0.30    3.10
   4  -6  -5    5.80    0.30
   5  -5  -2    0.80    0.50
   2  -6  -6  301.27    2.00
   1  -7  -4   64.29    1.20
   2  -6  -5   81.79    1.80
   3  -5  -5   -1.40    1.60
   0  -6  -6   52.69    1.70
   2  -6  -4   24.10    2.10
   3  -5  -4   94.29    2.90
  -2  -6  -6   33.40    1.60
  -1  -7  -4   57.59    1.60
   1  -5  -6    0.60    1.70
   2  -6  -2   29.40    2.20
   2  -6  -1   30.30    2.00
   0  -6  -5  100.09    2.60
  -1  -7  -3  188.28    2.90
   1  -5  -5   59.59    2.90
  -4  -6  -5  137.59    2.40
  -1  -7  -2  138.29    3.10
  -1  -5  -6    2.90    2.30
  -3  -7  -3    2.00    1.40
  -1  -7  -1  237.58    3.40
   0  -6  -4   44.70    2.90
  -3  -5  -6   43.60    2.40
  -3  -7  -2    4.80    2.00
   0  -6  -3    1.10    2.50
  -2  -6  -4   61.39    3.30
  -1  -5  -5  453.25    6.40
   0  -6  -2    2.30    2.10
  -3  -5  -5   34.20    2.50
  -4  -6  -3    0.50    2.10
  -2  -6  -2   17.20    2.50
  -2  -6  -1  104.59    3.80
  -3  -5  -4   61.29    3.00
  -2  -6   0  652.73    7.00
  -7  -5  -3   61.39    2.10
  -6  -6  -1   56.69    2.20
  -6  -6   2   -0.10    0.90
  -5  -5  -4    9.60    2.00
  -4  -6  -2    4.20    1.90
  -4  -6  -1  200.78    3.90
  -4  -6   0    1.90    2.00
  -4  -6   1  238.68    3.90
  -8  -4  -3    3.30    1.40
  -7  -5  -2  128.89    2.90
  -6  -4  -4   46.70    2.40
  -8  -4  -2   27.60    2.00
  -7  -5   3  199.68    2.70
  -7  -5   0   30.70    2.00
  -9  -3  -2   17.70    1.20
  -7  -5   1   86.39    2.70
  -7  -5   2   13.90    1.50
  -5  -5   2    4.40    2.10
  -7  -3  -3  141.49    3.30
  -5  -5   1  161.48    3.60
 -10  -2  -1  326.07    2.70
 -10   0   4   72.89    1.70
  -9  -3   4   64.99    2.00
  -8  -2   0  813.12    7.20
  -8  -2   1  273.87    4.40
  -9  -1   7    0.90    1.10
  -9  -1   3   56.59    2.30
  -8  -2   2  179.18    3.50
  -9  -1   5   66.19    2.30
  -9  -1   6    1.40    1.10
  -8  -2   3    1.20    1.30
  -7  -3   3   68.29    2.60
  -7  -3   7  997.00    5.10
  -8  -2   4  105.59    2.80
  -8  -2   7   23.30    1.40
  -7  -3   4   16.00    2.20
  -7  -3   6   76.89    2.00
  -8   0   3    0.80    1.50
  -7  -1   9    4.90    1.20
  -8   0   4   33.60    2.10
  -8   0   5    0.90    1.60
  -8   0   6   66.29    2.40
  -6  -2   9   27.30    1.20
  -7  -1   8    1.50    1.60
  -7   1   8    1.40    1.10
  -7  -1   5  164.28    3.30
  -7  -1   6  491.25    5.30
  -7  -1   7    3.00    1.20
  -6  -2   8  172.78    2.70
  -5  -3   6    3.80    1.90
  -7   1   5  162.88    3.20
  -7   1   6  482.85    5.00
  -7   1   7    1.00    1.20
  -6  -2   7    4.70    2.00
  -5  -1  10  181.88    2.30
  -6  -2   6    1.90    1.60
  -6   0   9   -0.90    1.30
  -6   0   8  160.08    3.20
  -4  -2   9    5.00    1.50
  -5  -1   9  323.67    3.80
  -6   0   7   -0.40    1.40
  -3   1  11   54.59    1.30
  -5  -1   8  793.12    6.60
  -4  -2   8  499.65    5.50
  -4   0  10   74.29    2.10
  -1  -1  11    3.50    0.70
  -3  -1  10   75.69    2.30
  -4   2   9    4.70    1.60
  -2   0  11    0.20    1.20
  -4   0   9    0.90    1.70
  -4   2   8  566.44    5.80
  -3   1  10   81.59    2.40
  -1   3  10   38.90    1.30
  -4   0   8    2.80    2.00
  -2   2  10   68.69    2.50
  -1  -1  10  387.76    4.60
  -3   1   9  235.58    4.30
  -2   0  10  307.37    4.20
   1   1  11  189.28    2.70
   1   3  10   28.20    1.80
  -2   0   9    0.50    2.20
  -1  -1   9   29.70    2.80
   4   0  10  288.97    2.90
  -6  -4  -4   42.30    2.40
  -4  -4  -5  311.17    5.00
  -5  -5  -4   10.60    2.00
  -7  -5  -2  125.69    2.50
  -4  -6  -3    0.90    2.00
  -3  -7  -1    1.10    1.60
  -2  -6  -3  349.67    5.10
  -3  -5  -4   57.29    2.90
  -3  -7   0  130.29    2.70
  -6  -6  -1   60.79    2.20
  -6  -4  -3  470.45    6.00
  -3  -7   1   61.19    2.00
  -7  -5  -1  853.71    6.00
  -3  -7   2   46.70    1.50
  -6  -6   0   25.60    2.20
  -6  -4  -2  191.38    4.20
  -5  -5  -2   93.79    2.90
  -4  -6  -1  201.38    3.80
  -2  -6  -1  100.89    3.10
  -7  -5   0   35.20    1.90
  -6  -6   1    1.40    1.60
  -6  -6   4   -1.80    1.30
  -4  -6   0    0.20    1.70
  -2  -6   0  608.64    6.30
  -5  -5  -1    2.90    1.50
  -6  -4  -1    9.10    1.90
  -4  -6   1  220.68    3.70
  -2  -6   1   32.30    2.50
  -7  -5   2   16.30    1.90
  -5  -5   0    8.00    2.00
  -8  -4   3    3.30    1.40
  -7  -5   5  346.17    2.80
  -2  -6   2   30.20    2.00
  -4  -6   4   21.40    1.90
  -4  -6   5   34.30    1.40
  -5  -5   1  165.68    3.80
  -5  -5   2    4.80    1.50
  -5  -5   7   51.19    1.30
  -5  -5   3  247.88    3.70
  -5  -5   4   95.79    2.30
  -5  -5   5  434.46    4.00
  -5  -5   6   23.30    1.40
  -3  -5   7   11.20    1.30
  -7  -3   3   62.29    2.20
  -6  -4   4  153.98    2.80
  -6  -4   7    3.10    1.00
  -3  -5   5    0.50    1.50
  -3  -5   6    0.40    1.20
  -7  -3   4   15.50    1.50
  -6  -4   5  325.57    3.60
  -7  -3   5  128.39    2.40
  -7  -3   6   66.19    1.80
  -2  -4   8    1.70    0.70
  -7  -1   8    1.10    0.70
  -7  -1   7    1.40    0.60
  -4  -2  10  125.19    1.50
  -5  -3   6    0.50    0.90
   9  -3  -1    3.90    1.60
   9   1  -5   66.49    2.30
   9   1  -2  138.69    3.90
  10   0  -3   -2.20    1.80
   9  -1   0  251.37    4.70
   9   1  -4  732.33    6.70
   9   1  -3   58.99    3.20
  10  -2  -4   78.59    2.10
  10  -2  -3   37.80    2.20
   9  -3  -2   56.49    2.30
   9  -1  -1   15.00    2.20
   8  -2   0  860.81    8.50
   9  -3  -3  459.05    4.70
   9  -1  -2  143.99    3.80
   8   0  -7    0.70    1.60
   9  -3  -4   65.19    2.30
   9  -1  -3   55.59    3.20
   9  -1  -4  707.13    6.90
   8  -4  -4  156.58    2.50
   8  -2  -1  273.97    5.10
   8   0  -6   74.39    2.90
   8  -2  -2  178.48    4.20
   8   0  -4   34.90    3.20
   7  -3  -8   16.60    1.40
   8  -2  -3    0.60    2.10
   7  -1  -8    0.10    1.60
   8  -2  -6   55.99    2.30
   7  -3  -2    7.40    2.20
   8  -2  -5  103.79    2.80
   8  -2  -4   95.89    2.90
   6  -2  -9   26.00    1.50
   7  -3  -7  955.70    6.00
   7  -3  -3   62.79    3.00
   7  -3  -5  128.19    3.20
   7  -3  -4   15.30    2.20
   7  -1  -6  429.96    5.50
   6  -4  -7    1.50    1.30
   4  -2 -10  148.09    2.00
   6  -4  -4  157.68    3.80
   5  -3  -9   39.50    1.70
   6  -4  -6   74.29    2.40
   6  -4  -5  333.67    4.80
   4  -4  -9    2.20    1.10
   6  -2  -7    7.40    1.60
   3  -3 -10   11.60    1.60
   5  -1  -8  809.32    7.80
   6  -2  -6   -0.30    2.80
   5  -3  -8   44.70    2.40
  -1  -5  -7  421.86    5.50
  -1  -3  -8    0.50    2.50
   0  -4  -7 1197.08   10.10
   1  -5  -5   58.49    3.20
  -2  -6  -5   68.19    2.70
  -1  -5  -6    1.20    1.60
  -5  -5  -6  170.68    2.90
  -5  -3  -7   12.20    2.20
  -4  -4  -7    3.60    2.00
  -3  -5  -6   43.50    2.40
  -3  -3  -7  474.55    7.10
  -6  -4  -6  104.29    3.20
  -2  -6  -3  391.16    5.60
  -3  -5  -5   33.60    2.80
  -6  -6  -2   98.79    2.50
  -4  -6  -3    3.10    2.00
  -8  -4  -4   18.00    2.00
  -5  -3  -6   76.39    3.70
  -4  -6  -2    4.80    2.00
  -7  -3  -5    0.10    1.60
  -9  -3  -3  180.18    1.50
  -5  -3  -5   -0.90    0.70
  -8   0   4   37.30    3.30
  -8   0   5    0.10    2.30
  -8   2   2  183.08    4.40
  -8   2   7   20.00    2.10
  -8   2   3    0.00    1.90
  -7   3   8   16.70    1.30
  -8   2   6   51.19    2.10
  -7   1   8    2.30    1.40
  -7   1   7    1.90    2.00
  -7   3   3   59.59    3.20
  -7   3   7  969.30    5.90
  -7   1   6  426.86    5.50
  -7   3   4   15.80    2.00
  -7   3   5  136.49    3.40
  -7   3   6   71.29    2.60
  -6   4   7    2.80    1.50
  -6   4   4  173.98    4.20
  -5   1   9  282.67    3.70
  -5   5   5  438.56    4.70
  -5   5   6   21.20    1.70
  -6   4   6   76.59    2.70
  -4   4   9    0.20    1.20
  -6   2   7    5.60    1.70
  -6   2   6    1.10    2.50
  -5   1   8  807.22    7.60
  -3   3  10   11.10    1.50
  -3   5   8  143.39    2.50
  -5   3   8   42.80    2.10
  -4   2   9    3.20    1.60
  -4   4   8   11.20    1.50
   0   0   0    0.00    0.00

_computing_structure_solution     'SHELXT 2018/2 (Sheldrick, 2018)'
;
_shelx_hkl_checksum              1525
loop_
_space_group_symop_operation_xyz
'x, y, z'
'-x, y, -z+1/2'
'x+1/2, y+1/2, z'
'-x+1/2, y+1/2, -z+1/2'
'-x, -y, -z'
'x, -y, z-1/2'
'-x+1/2, -y+1/2, -z'
'x+1/2, -y+1/2, z-1/2'
loop_
_atom_site_label
_atom_site_type_symbol
_atom_site_fract_x
_atom_site_fract_y
_atom_site_fract_z
_atom_site_U_iso_or_equiv
_atom_site_adp_type
_atom_site_occupancy
_atom_site_site_symmetry_order
_atom_site_calc_flag
_atom_site_refinement_flags_posn
_atom_site_refinement_flags_adp
_atom_site_refinement_flags_occupancy
_atom_site_disorder_assembly
_atom_site_disorder_group
F1 F 0.36790(8) 0.44527(12) 0.17839(8) 0.0176(3) Uani 1 1 d . . . . .
N1 N 0.42881(11) 0.75081(17) 0.38771(11) 0.0133(3) Uani 1 1 d . . . . .
C1 C 0.53740(14) 0.9208(2) 0.44797(14) 0.0168(3) Uani 1 1 d . . . . .
Be1 Be 0.500000 0.5775(4) 0.250000 0.0138(5) Uani 1 2 d S T P . .
H1 H 0.403(2) 0.667(3) 0.467(2) 0.028(4) Uiso 1 1 d . . . . .
H2 H 0.342(2) 0.817(3) 0.3519(18) 0.021(4) Uiso 1 1 d . . . . .
H3 H 0.579(2) 1.006(3) 0.360(2) 0.031(5) Uiso 1 1 d . . . . .
H4 H 0.626(2) 0.847(3) 0.499(2) 0.026(4) Uiso 1 1 d . . . . .
loop_
_atom_site_aniso_label
_atom_site_aniso_U_11
_atom_site_aniso_U_22
_atom_site_aniso_U_33
_atom_site_aniso_U_23
_atom_site_aniso_U_13
_atom_site_aniso_U_12
F1 0.0189(4) 0.0182(5) 0.0155(4) -0.0037(3) 0.0000(3) -0.0047(3)
N1 0.0152(5) 0.0126(5) 0.0117(5) 0.0000(4) -0.0017(4) 0.0000(4)
C1 0.0170(6) 0.0167(6) 0.0165(6) -0.0051(5) -0.0004(5) -0.0011(5)
Be1 0.0159(10) 0.0134(10) 0.0117(10) 0.000 -0.0012(8) 0.000
loop_
_atom_type_symbol
_atom_type_description
_atom_type_scat_dispersion_real
_atom_type_scat_dispersion_imag
_atom_type_scat_source
C C 0.0181 0.0091 'International Tables Vol C Tables 4.2.6.8 and 6.1.1.4'
H H 0.0000 0.0000 'International Tables Vol C Tables 4.2.6.8 and 6.1.1.4'
Be Be 0.0038 0.0014 'International Tables Vol C Tables 4.2.6.8 and 6.1.1.4'
N N 0.0311 0.0180 'International Tables Vol C Tables 4.2.6.8 and 6.1.1.4'
F F 0.0727 0.0534 'International Tables Vol C Tables 4.2.6.8 and 6.1.1.4'
loop_
_geom_angle_atom_site_label_1
_geom_angle_atom_site_label_2
_geom_angle_atom_site_label_3
_geom_angle
_geom_angle_site_symmetry_1
_geom_angle_site_symmetry_3
_geom_angle_publ_flag
C1 N1 Be1 115.45(9) . . ?
N1 C1 C1 112.39(13) . 5_676 ?
F1 Be1 F1 115.63(15) 2_655 . ?
F1 Be1 N1 108.33(4) 2_655 . ?
F1 Be1 N1 108.92(4) . . ?
F1 Be1 N1 108.93(4) 2_655 2_655 ?
F1 Be1 N1 108.33(4) . 2_655 ?
N1 Be1 N1 106.31(13) . 2_655 ?
loop_
_geom_bond_atom_site_label_1
_geom_bond_atom_site_label_2
_geom_bond_distance
_geom_bond_site_symmetry_2
_geom_bond_publ_flag
F1 Be1 1.5159(13) . ?
N1 C1 1.4839(15) . ?
N1 Be1 1.7652(17) . ?
C1 C1 1.517(2) 5_676 ?
loop_
_geom_hbond_atom_site_label_D
_geom_hbond_atom_site_label_H
_geom_hbond_atom_site_label_A
_geom_hbond_distance_DH
_geom_hbond_distance_HA
_geom_hbond_distance_DA
_geom_hbond_angle_DHA
_geom_hbond_site_symmetry_A
_geom_hbond_publ_flag
N1 H2 F1 0.897(18) 1.996(18) 2.8741(13) 165.9(15) 4 yes
N1 H1 F1 0.916(19) 2.050(19) 2.9405(12) 163.6(17) 6_566 yes
