#------------------------------------------------------------------------------
#$Date: 2021-09-28 01:59:49 +0300 (Tue, 28 Sep 2021) $
#$Revision: 269333 $
#$URL: file:///home/coder/svn-repositories/cod/cif/7/70/84/7708446.cif $
#------------------------------------------------------------------------------
#
# This file is available in the Crystallography Open Database (COD),
# http://www.crystallography.net/
#
# All data on this site have been placed in the public domain by the
# contributors.
#
data_7708446
loop_
_publ_author_name
'Huang, Li'
'Ouyang, Congrui'
'Liu, Xing'
'Zhou, Jian'
'Zou, Hua-Hong'
'Yuan, Hua'
'Wen, Dou'
_publ_section_title
;
 A series of organic hybrid polyoxovanadate clusters incorporating
 tris(hydroxymethyl)methane derivatives
;
_journal_name_full               'Dalton Transactions'
_journal_paper_doi               10.1039/D1DT02912F
_journal_year                    2021
_chemical_formula_moiety         'C16 H30 N2 O18 V4'
_chemical_formula_sum            'C16 H30 N2 O18 V4'
_chemical_formula_weight         742.18
_space_group_crystal_system      triclinic
_space_group_IT_number           2
_space_group_name_Hall           '-P 1'
_space_group_name_H-M_alt        'P -1'
_atom_sites_solution_hydrogens   mixed
_audit_creation_method           SHELXL-2014/7
_audit_update_record
;
2021-08-29 deposited with the CCDC.	2021-09-27 downloaded from the CCDC.
;
_cell_angle_alpha                65.414(10)
_cell_angle_beta                 76.7110(16)
_cell_angle_gamma                85.4870(12)
_cell_formula_units_Z            1
_cell_length_a                   8.266(5)
_cell_length_b                   8.933(6)
_cell_length_c                   9.866(6)
_cell_measurement_reflns_used    14768
_cell_measurement_temperature    293(2)
_cell_measurement_theta_max      27.9086
_cell_measurement_theta_min      2.5493
_cell_volume                     644.6(7)
_computing_structure_refinement  'SHELXL-2014/7 (Sheldrick, 2014)'
_diffrn_ambient_temperature      293(2)
_diffrn_measured_fraction_theta_full 0.998
_diffrn_measured_fraction_theta_max 0.998
_diffrn_measurement_device_type  'Bruker APEX-II CCD'
_diffrn_measurement_method       '\w scans'
_diffrn_radiation_type           MoK\a
_diffrn_radiation_wavelength     0.71073
_diffrn_reflns_av_R_equivalents  0.0404
_diffrn_reflns_av_unetI/netI     0.0278
_diffrn_reflns_Laue_measured_fraction_full 0.998
_diffrn_reflns_Laue_measured_fraction_max 0.998
_diffrn_reflns_limit_h_max       9
_diffrn_reflns_limit_h_min       -9
_diffrn_reflns_limit_k_max       10
_diffrn_reflns_limit_k_min       -9
_diffrn_reflns_limit_l_max       11
_diffrn_reflns_limit_l_min       -11
_diffrn_reflns_number            11631
_diffrn_reflns_point_group_measured_fraction_full 0.998
_diffrn_reflns_point_group_measured_fraction_max 0.998
_diffrn_reflns_theta_full        25.098
_diffrn_reflns_theta_max         25.098
_diffrn_reflns_theta_min         3.044
_exptl_absorpt_coefficient_mu    1.493
_exptl_absorpt_correction_type   multi-scan
_exptl_absorpt_process_details   'SADABS 2014/5'
_exptl_crystal_colour            blue
_exptl_crystal_density_diffrn    1.912
_exptl_crystal_description       block
_exptl_crystal_F_000             376
_exptl_crystal_size_max          0.072
_exptl_crystal_size_mid          0.056
_exptl_crystal_size_min          0.052
_exptl_transmission_factor_max   0.922
_exptl_transmission_factor_min   0.903
_refine_diff_density_max         0.969
_refine_diff_density_min         -0.678
_refine_diff_density_rms         0.078
_refine_ls_extinction_method     none
_refine_ls_goodness_of_fit_ref   1.058
_refine_ls_hydrogen_treatment    constr
_refine_ls_matrix_type           full
_refine_ls_number_parameters     184
_refine_ls_number_reflns         2290
_refine_ls_number_restraints     0
_refine_ls_restrained_S_all      1.058
_refine_ls_R_factor_all          0.0426
_refine_ls_R_factor_gt           0.0327
_refine_ls_shift/su_max          0.000
_refine_ls_shift/su_mean         0.000
_refine_ls_structure_factor_coef Fsqd
_refine_ls_weighting_details
'w=1/[\s^2^(Fo^2^)+(0.0287P)^2^+1.5768P] where P=(Fo^2^+2Fc^2^)/3'
_refine_ls_weighting_scheme      calc
_refine_ls_wR_factor_gt          0.0795
_refine_ls_wR_factor_ref         0.0849
_reflns_Friedel_coverage         0.000
_reflns_number_gt                1943
_reflns_number_total             2290
_reflns_threshold_expression     'I > 2\s(I)'
_cod_data_source_file            d1dt02912f2.cif
_cod_data_source_block           6
_cod_database_code               7708446
_shelx_shelxl_version_number     2014/7
_shelx_space_group_comment
;
The symmetry employed for this shelxl refinement is uniquely defined
by the following loop, which should always be used as a source of
symmetry information in preference to the above space-group names.
They are only intended as comments.
;
_shelx_estimated_absorpt_t_min   0.900
_shelx_estimated_absorpt_t_max   0.926
_shelx_res_file
;

    2.res created by SHELXL-2014/7


TITL 1_a.res in P-1
CELL 0.71073 8.2658 8.933 9.8665 65.414 76.711 85.487
ZERR 2 0.0053 0.0064 0.0063 0.0096 0.0016 0.0012
LATT 1
SFAC C H N O V
UNIT 16 30 2 18 4

L.S. 40
PLAN  20
SIZE 0.052 0.056 0.072
TEMP 20
ACTA
FMAP 2
HTAB
BOND $H
CONF
OMIT -2 50.2
OMIT 0 0 1
OMIT 1 0 0
EQIV $1 x+1, y, z
HTAB O9 O4_$1
EQIV $2 x, y-1, z
HTAB N1 O5_$2
HTAB C2 O7
HTAB C2 O4
HTAB C4 O7
HTAB C4 O4

WGHT    0.028688    1.576783
FVAR       0.73815
V1    5    0.720872    0.664871    0.232898    11.00000    0.01854    0.02112 =
         0.01456   -0.00624   -0.00246    0.00174
V2    5    0.362238    0.662012    0.453865    11.00000    0.01591    0.01494 =
         0.01584   -0.00607   -0.00580    0.00420
O1    4    0.524312    0.466591    0.375911    11.00000    0.01885    0.01571 =
         0.01492   -0.00698   -0.00620    0.00229
O9    4    0.815161    0.496839    0.138738    11.00000    0.02510    0.03293 =
         0.02764   -0.01486   -0.00425    0.00631
AFIX   7
H9A   2    0.745655    0.417801    0.171102    11.00000   -1.50000
H9B   2    0.906049    0.459665    0.165370    11.00000   -1.50000
AFIX   0
O8    4    0.561583    0.737511    0.088565    11.00000    0.02729    0.02918 =
         0.01891   -0.00780   -0.00738    0.00474
O7    4    0.311524    0.725569    0.246629    11.00000    0.02524    0.02388 =
         0.02052   -0.00771   -0.01166    0.00583
O5    4    0.257610    0.797341    0.505561    11.00000    0.02675    0.02178 =
         0.03079   -0.01255   -0.01070    0.00932
O2    4    0.209244    0.464402    0.568441    11.00000    0.01677    0.01938 =
         0.01905   -0.00992   -0.00570    0.00290
O4    4    0.132805    0.379120    0.180989    11.00000    0.04869    0.03101 =
         0.03297   -0.00709   -0.01621    0.00822
O3    4    0.424032    0.211172    0.660148    11.00000    0.01988    0.01554 =
         0.01745   -0.00623   -0.00719    0.00193
O6    4    0.871764    0.796567    0.142298    11.00000    0.02825    0.03461 =
         0.02830   -0.00793   -0.00031   -0.00592
N1    3    0.219778    0.172579    0.380159    11.00000    0.03042    0.01584 =
         0.02463   -0.00755   -0.01431    0.00171
AFIX  43
H1    2    0.225003    0.067293    0.425987    11.00000   -1.20000
AFIX   0
C1    1    0.291367    0.270012    0.444534    11.00000    0.02145    0.01762 =
         0.02222   -0.01030   -0.00950    0.00209
C2    1    0.154442    0.378184    0.491027    11.00000    0.01882    0.02099 =
         0.02313   -0.01122   -0.00794    0.00204
AFIX  23
H2A   2    0.120316    0.457797    0.400340    11.00000   -1.20000
H2B   2    0.058464    0.309218    0.557580    11.00000   -1.20000
AFIX   0
C3    1    0.345208    0.140013    0.585987    11.00000    0.02243    0.01649 =
         0.02269   -0.00807   -0.00772    0.00074
AFIX  23
H3A   2    0.248360    0.076209    0.657474    11.00000   -1.20000
H3B   2    0.421374    0.065442    0.555896    11.00000   -1.20000
AFIX   0
C4    1    0.443477    0.369811    0.323541    11.00000    0.02157    0.01780 =
         0.01969   -0.01124   -0.00805    0.00316
AFIX  23
H4A   2    0.522862    0.294469    0.298233    11.00000   -1.20000
H4B   2    0.407399    0.442408    0.231307    11.00000   -1.20000
AFIX   0
C5    1    0.148291    0.229238    0.259539    11.00000    0.03035    0.03179 =
         0.02588   -0.01142   -0.00577    0.00112
C6    1    0.084002    0.097739    0.224151    11.00000    0.05765    0.04936 =
         0.03812   -0.01494   -0.01863   -0.00852
AFIX 137
H6A   2   -0.016030    0.134489    0.187082    11.00000   -1.50000
H6B   2    0.060916   -0.002160    0.315294    11.00000   -1.50000
H6C   2    0.166503    0.077811    0.147719    11.00000   -1.50000
AFIX   0
C7    1    0.404879    0.758138    0.115001    11.00000    0.03112    0.01674 =
         0.02241   -0.00675   -0.01181    0.00344
C8    1    0.323087    0.821797   -0.017343    11.00000    0.04678    0.04714 =
         0.02752   -0.01270   -0.01991    0.01193
AFIX 137
H8A   2    0.393627    0.904080   -0.103386    11.00000   -1.50000
H8B   2    0.218829    0.869467    0.008716    11.00000   -1.50000
H8C   2    0.304021    0.732923   -0.042765    11.00000   -1.50000

AFIX   0
HKLF 4

REM  1_a.res in P-1
REM R1 =  0.0327 for    1943 Fo > 4sig(Fo)  and  0.0426 for all    2290 data
REM    184 parameters refined using      0 restraints

END

WGHT      0.0293      1.5056

REM Instructions for potential hydrogen bonds
HTAB O9 O4_$1
HTAB N1 O5_$2
HTAB C2 O7
HTAB C2 O4
HTAB C4 O7
HTAB C4 O4

REM Highest difference peak  0.969,  deepest hole -0.678,  1-sigma level  0.078
Q1    1   0.0718  0.3200  0.1427  11.00000  0.05    0.97
Q2    1   0.0680 -0.0171  0.2208  11.00000  0.05    0.64
Q3    1   0.8420  0.5481  0.0274  11.00000  0.05    0.48
Q4    1   0.3293  0.8514  0.4533  11.00000  0.05    0.28
Q5    1   0.0740  0.4607  0.1338  11.00000  0.05    0.27
Q6    1   0.3170  0.7340  0.5347  11.00000  0.05    0.27
Q7    1   0.3676  0.2979  0.3926  11.00000  0.05    0.26
Q8    1   0.2916  0.5276  0.5576  11.00000  0.05    0.26
Q9    1   0.2606  0.2180  0.4138  11.00000  0.05    0.26
Q10   1   0.3102  0.2108  0.5141  11.00000  0.05    0.25
Q11   1   0.3058  0.9365 -0.0437  11.00000  0.05    0.25
Q12   1   0.3979  0.8209 -0.1132  11.00000  0.05    0.25
Q13   1   0.8224  0.7400  0.2430  11.00000  0.05    0.24
Q14   1   0.9988  0.3933  0.1656  11.00000  0.05    0.24
Q15   1   0.0796  0.1392  0.1071  11.00000  0.05    0.24
Q16   1   0.9208  0.3609  0.1935  11.00000  0.05    0.22
Q17   1   0.5257  0.4328  0.4624  11.00000  0.05    0.22
Q18   1   0.2075  0.8255  0.5039  11.00000  0.05    0.22
Q19   1   0.5597  0.6340  0.1807  11.00000  0.05    0.21
Q20   1   0.2291  0.3277  0.4599  11.00000  0.05    0.21
;
_shelx_res_checksum              17537
loop_
_space_group_symop_operation_xyz
'x, y, z'
'-x, -y, -z'
loop_
_atom_site_label
_atom_site_type_symbol
_atom_site_fract_x
_atom_site_fract_y
_atom_site_fract_z
_atom_site_U_iso_or_equiv
_atom_site_adp_type
_atom_site_occupancy
_atom_site_site_symmetry_order
_atom_site_calc_flag
_atom_site_refinement_flags_posn
_atom_site_refinement_flags_adp
_atom_site_refinement_flags_occupancy
_atom_site_disorder_assembly
_atom_site_disorder_group
V1 V 0.72087(7) 0.66487(7) 0.23290(6) 0.01873(16) Uani 1 1 d . . . . .
V2 V 0.36224(6) 0.66201(6) 0.45386(6) 0.01546(15) Uani 1 1 d . . . . .
O1 O 0.5243(3) 0.4666(2) 0.3759(2) 0.0159(5) Uani 1 1 d . . . . .
O9 O 0.8152(3) 0.4968(3) 0.1387(3) 0.0283(6) Uani 1 1 d . . . . .
H9A H 0.7457 0.4178 0.1711 0.042 Uiso 1 1 d R U . . .
H9B H 0.9060 0.4597 0.1654 0.042 Uiso 1 1 d R U . . .
O8 O 0.5616(3) 0.7375(3) 0.0886(3) 0.0257(5) Uani 1 1 d . . . . .
O7 O 0.3115(3) 0.7256(3) 0.2466(3) 0.0228(5) Uani 1 1 d . . . . .
O5 O 0.2576(3) 0.7973(3) 0.5056(3) 0.0256(5) Uani 1 1 d . . . . .
O2 O 0.2092(3) 0.4644(3) 0.5684(2) 0.0175(5) Uani 1 1 d . . . . .
O4 O 0.1328(4) 0.3791(3) 0.1810(3) 0.0388(7) Uani 1 1 d . . . . .
O3 O 0.4240(3) 0.2112(2) 0.6601(2) 0.0173(5) Uani 1 1 d . . . . .
O6 O 0.8718(3) 0.7966(3) 0.1423(3) 0.0327(6) Uani 1 1 d . . . . .
N1 N 0.2198(4) 0.1726(3) 0.3802(3) 0.0225(6) Uani 1 1 d . . . . .
H1 H 0.2250 0.0673 0.4260 0.027 Uiso 1 1 calc R U . . .
C1 C 0.2914(4) 0.2700(4) 0.4445(4) 0.0190(7) Uani 1 1 d . . . . .
C2 C 0.1544(4) 0.3782(4) 0.4910(4) 0.0197(7) Uani 1 1 d . . . . .
H2A H 0.1203 0.4578 0.4003 0.024 Uiso 1 1 calc R U . . .
H2B H 0.0585 0.3092 0.5576 0.024 Uiso 1 1 calc R U . . .
C3 C 0.3452(4) 0.1400(4) 0.5860(4) 0.0200(7) Uani 1 1 d . . . . .
H3A H 0.2484 0.0762 0.6575 0.024 Uiso 1 1 calc R U . . .
H3B H 0.4214 0.0654 0.5559 0.024 Uiso 1 1 calc R U . . .
C4 C 0.4435(4) 0.3698(4) 0.3235(4) 0.0180(7) Uani 1 1 d . . . . .
H4A H 0.5229 0.2945 0.2982 0.022 Uiso 1 1 calc R U . . .
H4B H 0.4074 0.4424 0.2313 0.022 Uiso 1 1 calc R U . . .
C5 C 0.1483(5) 0.2292(5) 0.2595(4) 0.0296(8) Uani 1 1 d . . . . .
C6 C 0.0840(6) 0.0977(6) 0.2242(5) 0.0474(11) Uani 1 1 d . . . . .
H6A H -0.0160 0.1345 0.1871 0.071 Uiso 1 1 calc R U . . .
H6B H 0.0609 -0.0022 0.3153 0.071 Uiso 1 1 calc R U . . .
H6C H 0.1665 0.0778 0.1477 0.071 Uiso 1 1 calc R U . . .
C7 C 0.4049(4) 0.7581(4) 0.1150(4) 0.0230(7) Uani 1 1 d . . . . .
C8 C 0.3231(5) 0.8218(5) -0.0173(4) 0.0399(10) Uani 1 1 d . . . . .
H8A H 0.3936 0.9041 -0.1034 0.060 Uiso 1 1 calc R U . . .
H8B H 0.2188 0.8695 0.0087 0.060 Uiso 1 1 calc R U . . .
H8C H 0.3040 0.7329 -0.0428 0.060 Uiso 1 1 calc R U . . .
loop_
_atom_site_aniso_label
_atom_site_aniso_U_11
_atom_site_aniso_U_22
_atom_site_aniso_U_33
_atom_site_aniso_U_23
_atom_site_aniso_U_13
_atom_site_aniso_U_12
V1 0.0185(3) 0.0211(3) 0.0146(3) -0.0062(2) -0.0025(2) 0.0017(2)
V2 0.0159(3) 0.0149(3) 0.0158(3) -0.0061(2) -0.0058(2) 0.0042(2)
O1 0.0188(11) 0.0157(11) 0.0149(11) -0.0070(9) -0.0062(9) 0.0023(9)
O9 0.0251(13) 0.0329(14) 0.0276(13) -0.0149(11) -0.0043(11) 0.0063(11)
O8 0.0273(13) 0.0292(13) 0.0189(12) -0.0078(10) -0.0074(10) 0.0047(10)
O7 0.0252(13) 0.0239(12) 0.0205(12) -0.0077(10) -0.0117(10) 0.0058(10)
O5 0.0267(13) 0.0218(12) 0.0308(13) -0.0125(11) -0.0107(11) 0.0093(10)
O2 0.0168(11) 0.0194(11) 0.0191(11) -0.0099(9) -0.0057(9) 0.0029(9)
O4 0.0487(17) 0.0310(15) 0.0330(15) -0.0071(12) -0.0162(13) 0.0082(13)
O3 0.0199(11) 0.0155(11) 0.0175(11) -0.0062(9) -0.0072(9) 0.0019(9)
O6 0.0283(14) 0.0346(14) 0.0283(14) -0.0079(12) -0.0003(11) -0.0059(11)
N1 0.0304(16) 0.0158(13) 0.0246(15) -0.0075(12) -0.0143(12) 0.0017(12)
C1 0.0214(17) 0.0176(16) 0.0222(17) -0.0103(14) -0.0095(13) 0.0021(13)
C2 0.0188(16) 0.0210(17) 0.0231(17) -0.0112(14) -0.0079(13) 0.0020(13)
C3 0.0224(17) 0.0165(16) 0.0227(17) -0.0081(14) -0.0077(14) 0.0007(13)
C4 0.0216(17) 0.0178(16) 0.0197(16) -0.0112(13) -0.0081(13) 0.0032(13)
C5 0.030(2) 0.032(2) 0.0259(19) -0.0114(16) -0.0058(15) 0.0011(16)
C6 0.058(3) 0.049(3) 0.038(2) -0.015(2) -0.019(2) -0.009(2)
C7 0.031(2) 0.0167(16) 0.0224(18) -0.0067(14) -0.0118(15) 0.0034(14)
C8 0.047(3) 0.047(2) 0.028(2) -0.0127(18) -0.0199(18) 0.012(2)
loop_
_atom_type_symbol
_atom_type_description
_atom_type_scat_dispersion_real
_atom_type_scat_dispersion_imag
_atom_type_scat_source
C C 0.0033 0.0016 'International Tables Vol C Tables 4.2.6.8 and 6.1.1.4'
H H 0.0000 0.0000 'International Tables Vol C Tables 4.2.6.8 and 6.1.1.4'
N N 0.0061 0.0033 'International Tables Vol C Tables 4.2.6.8 and 6.1.1.4'
O O 0.0106 0.0060 'International Tables Vol C Tables 4.2.6.8 and 6.1.1.4'
V V 0.3005 0.5294 'International Tables Vol C Tables 4.2.6.8 and 6.1.1.4'
loop_
_geom_angle_atom_site_label_1
_geom_angle_atom_site_label_2
_geom_angle_atom_site_label_3
_geom_angle
_geom_angle_site_symmetry_1
_geom_angle_site_symmetry_3
_geom_angle_publ_flag
O6 V1 O3 98.70(12) . 2_666 ?
O6 V1 O2 101.03(12) . 2_666 ?
O3 V1 O2 86.37(10) 2_666 2_666 ?
O6 V1 O8 103.08(12) . . ?
O3 V1 O8 85.49(10) 2_666 . ?
O2 V1 O8 155.45(10) 2_666 . ?
O6 V1 O9 96.18(13) . . ?
O3 V1 O9 164.66(10) 2_666 . ?
O2 V1 O9 94.46(10) 2_666 . ?
O8 V1 O9 87.54(10) . . ?
O6 V1 O1 174.56(11) . . ?
O3 V1 O1 82.46(10) 2_666 . ?
O2 V1 O1 73.70(9) 2_666 . ?
O8 V1 O1 82.28(10) . . ?
O9 V1 O1 83.08(10) . . ?
O5 V2 O1 104.35(11) . 2_666 ?
O5 V2 O3 99.52(12) . 2_666 ?
O1 V2 O3 87.72(10) 2_666 2_666 ?
O5 V2 O2 101.43(12) . . ?
O1 V2 O2 79.82(9) 2_666 . ?
O3 V2 O2 157.71(9) 2_666 . ?
O5 V2 O7 101.01(11) . . ?
O1 V2 O7 154.53(9) 2_666 . ?
O3 V2 O7 85.84(10) 2_666 . ?
O2 V2 O7 97.49(9) . . ?
O5 V2 O1 178.28(10) . . ?
O1 V2 O1 75.16(9) 2_666 . ?
O3 V2 O1 78.83(9) 2_666 . ?
O2 V2 O1 80.14(9) . . ?
O7 V2 O1 79.42(9) . . ?
C4 O1 V2 115.36(18) . 2_666 ?
C4 O1 V1 126.61(18) . . ?
V2 O1 V1 98.47(9) 2_666 . ?
C4 O1 V2 118.08(17) . . ?
V2 O1 V2 104.84(9) 2_666 . ?
V1 O1 V2 88.61(9) . . ?
V1 O9 H9A 109.5 . . ?
V1 O9 H9B 109.1 . . ?
H9A O9 H9B 109.5 . . ?
C7 O8 V1 130.2(2) . . ?
C7 O7 V2 132.3(2) . . ?
C2 O2 V2 121.44(19) . . ?
C2 O2 V1 119.51(19) . 2_666 ?
V2 O2 V1 106.65(10) . 2_666 ?
C3 O3 V1 116.48(19) . 2_666 ?
C3 O3 V2 118.67(19) . 2_666 ?
V1 O3 V2 108.80(11) 2_666 2_666 ?
C5 N1 C1 127.9(3) . . ?
C5 N1 H1 116.1 . . ?
C1 N1 H1 116.1 . . ?
N1 C1 C3 104.4(2) . . ?
N1 C1 C2 109.0(3) . . ?
C3 C1 C2 110.4(3) . . ?
N1 C1 C4 108.0(3) . . ?
C3 C1 C4 111.0(3) . . ?
C2 C1 C4 113.6(3) . . ?
O2 C2 C1 112.4(2) . . ?
O2 C2 H2A 109.1 . . ?
C1 C2 H2A 109.1 . . ?
O2 C2 H2B 109.1 . . ?
C1 C2 H2B 109.1 . . ?
H2A C2 H2B 107.8 . . ?
O3 C3 C1 112.4(3) . . ?
O3 C3 H3A 109.1 . . ?
C1 C3 H3A 109.1 . . ?
O3 C3 H3B 109.1 . . ?
C1 C3 H3B 109.1 . . ?
H3A C3 H3B 107.8 . . ?
O1 C4 C1 112.5(2) . . ?
O1 C4 H4A 109.1 . . ?
C1 C4 H4A 109.1 . . ?
O1 C4 H4B 109.1 . . ?
C1 C4 H4B 109.1 . . ?
H4A C4 H4B 107.8 . . ?
O4 C5 N1 123.4(3) . . ?
O4 C5 C6 121.4(3) . . ?
N1 C5 C6 115.3(3) . . ?
C5 C6 H6A 109.5 . . ?
C5 C6 H6B 109.5 . . ?
H6A C6 H6B 109.5 . . ?
C5 C6 H6C 109.5 . . ?
H6A C6 H6C 109.5 . . ?
H6B C6 H6C 109.5 . . ?
O8 C7 O7 125.2(3) . . ?
O8 C7 C8 117.7(3) . . ?
O7 C7 C8 117.1(3) . . ?
C7 C8 H8A 109.5 . . ?
C7 C8 H8B 109.5 . . ?
H8A C8 H8B 109.5 . . ?
C7 C8 H8C 109.5 . . ?
H8A C8 H8C 109.5 . . ?
H8B C8 H8C 109.5 . . ?
loop_
_geom_bond_atom_site_label_1
_geom_bond_atom_site_label_2
_geom_bond_distance
_geom_bond_site_symmetry_2
_geom_bond_publ_flag
V1 O6 1.607(3) . ?
V1 O3 1.989(2) 2_666 ?
V1 O2 2.010(2) 2_666 ?
V1 O8 2.035(2) . ?
V1 O9 2.090(3) . ?
V1 O1 2.255(2) . ?
V2 O5 1.617(2) . ?
V2 O1 1.992(2) 2_666 ?
V2 O3 2.003(2) 2_666 ?
V2 O2 2.007(2) . ?
V2 O7 2.017(3) . ?
V2 O1 2.389(2) . ?
O1 C4 1.443(4) . ?
O1 V2 1.992(2) 2_666 ?
O9 H9A 0.8500 . ?
O9 H9B 0.8501 . ?
O8 C7 1.275(4) . ?
O7 C7 1.276(4) . ?
O2 C2 1.444(4) . ?
O2 V1 2.010(2) 2_666 ?
O4 C5 1.251(4) . ?
O3 C3 1.427(4) . ?
O3 V1 1.989(2) 2_666 ?
O3 V2 2.003(2) 2_666 ?
N1 C5 1.340(4) . ?
N1 C1 1.492(4) . ?
N1 H1 0.8600 . ?
C1 C3 1.533(4) . ?
C1 C2 1.544(4) . ?
C1 C4 1.550(5) . ?
C2 H2A 0.9700 . ?
C2 H2B 0.9700 . ?
C3 H3A 0.9700 . ?
C3 H3B 0.9700 . ?
C4 H4A 0.9700 . ?
C4 H4B 0.9700 . ?
C5 C6 1.520(5) . ?
C6 H6A 0.9600 . ?
C6 H6B 0.9600 . ?
C6 H6C 0.9600 . ?
C7 C8 1.488(5) . ?
C8 H8A 0.9600 . ?
C8 H8B 0.9600 . ?
C8 H8C 0.9600 . ?
loop_
_geom_hbond_atom_site_label_D
_geom_hbond_atom_site_label_H
_geom_hbond_atom_site_label_A
_geom_hbond_distance_DH
_geom_hbond_distance_HA
_geom_hbond_distance_DA
_geom_hbond_angle_DHA
_geom_hbond_site_symmetry_A
O9 H9B O4 0.85 1.97 2.807(4) 167.6 1_655
N1 H1 O5 0.86 2.22 3.070(4) 170.4 1_545
C2 H2A O7 0.97 2.64 3.178(4) 114.9 .
C2 H2A O4 0.97 2.52 3.102(5) 118.6 .
C4 H4B O7 0.97 2.65 3.113(4) 110.0 .
C4 H4B O4 0.97 2.58 3.179(4) 119.9 .
loop_
_geom_torsion_atom_site_label_1
_geom_torsion_atom_site_label_2
_geom_torsion_atom_site_label_3
_geom_torsion_atom_site_label_4
_geom_torsion
_geom_torsion_site_symmetry_1
_geom_torsion_site_symmetry_2
_geom_torsion_site_symmetry_3
_geom_torsion_site_symmetry_4
_geom_torsion_publ_flag
C5 N1 C1 C3 176.8(3) . . . . ?
C5 N1 C1 C2 58.8(4) . . . . ?
C5 N1 C1 C4 -65.1(4) . . . . ?
V2 O2 C2 C1 75.5(3) . . . . ?
V1 O2 C2 C1 -61.6(3) 2_666 . . . ?
N1 C1 C2 O2 174.2(2) . . . . ?
C3 C1 C2 O2 60.1(3) . . . . ?
C4 C1 C2 O2 -65.3(3) . . . . ?
V1 O3 C3 C1 70.1(3) 2_666 . . . ?
V2 O3 C3 C1 -63.0(3) 2_666 . . . ?
N1 C1 C3 O3 177.6(2) . . . . ?
C2 C1 C3 O3 -65.5(3) . . . . ?
C4 C1 C3 O3 61.5(3) . . . . ?
V2 O1 C4 C1 67.6(3) 2_666 . . . ?
V1 O1 C4 C1 -168.66(18) . . . . ?
V2 O1 C4 C1 -57.4(3) . . . . ?
N1 C1 C4 O1 -178.9(2) . . . . ?
C3 C1 C4 O1 -65.0(3) . . . . ?
C2 C1 C4 O1 60.1(3) . . . . ?
C1 N1 C5 O4 0.5(6) . . . . ?
C1 N1 C5 C6 -178.8(3) . . . . ?
V1 O8 C7 O7 -4.7(5) . . . . ?
V1 O8 C7 C8 176.7(2) . . . . ?
V2 O7 C7 O8 9.0(5) . . . . ?
V2 O7 C7 C8 -172.4(2) . . . . ?
