#------------------------------------------------------------------------------
#$Date: 2021-11-24 02:05:13 +0200 (Wed, 24 Nov 2021) $
#$Revision: 270844 $
#$URL: file:///home/coder/svn-repositories/cod/cif/7/70/89/7708915.cif $
#------------------------------------------------------------------------------
#
# This file is available in the Crystallography Open Database (COD),
# http://www.crystallography.net/
#
# All data on this site have been placed in the public domain by the
# contributors.
#
data_7708915
loop_
_publ_author_name
'Liu, Xiaomeng'
'Kang, Lei'
'Guo, Ruixin'
'Lin, Zheshuai'
_publ_section_title
;
 Two metal-free cyanurate crystals with a large optical birefringence
 resulting from the combination of \p-conjugated units
;
_journal_name_full               'Dalton Transactions'
_journal_paper_doi               10.1039/D1DT03500B
_journal_year                    2021
_chemical_formula_sum            'C4 H8 N6 O3'
_chemical_formula_weight         188.16
_space_group_crystal_system      triclinic
_space_group_IT_number           2
_space_group_name_Hall           '-P 1'
_space_group_name_H-M_alt        'P -1'
_atom_sites_solution_hydrogens   difmap
_audit_creation_method           SHELXL-2018/3
_audit_update_record
;
2021-01-21 deposited with the CCDC.	2021-11-05 downloaded from the CCDC.
;
_cell_angle_alpha                87.925(4)
_cell_angle_beta                 83.172(4)
_cell_angle_gamma                79.273(5)
_cell_formula_units_Z            2
_cell_length_a                   3.7706(2)
_cell_length_b                   9.8381(6)
_cell_length_c                   10.4914(5)
_cell_measurement_reflns_used    2863
_cell_measurement_temperature    293(2)
_cell_measurement_theta_max      30.0970
_cell_measurement_theta_min      3.9330
_cell_volume                     379.63(4)
_computing_structure_refinement  'SHELXL-2018/3 (Sheldrick, 2018)'
_computing_structure_solution    'SHELXT 2018/2 (Sheldrick, 2018)'
_diffrn_ambient_temperature      293(2)
_diffrn_measured_fraction_theta_full 0.996
_diffrn_measured_fraction_theta_max 0.864
_diffrn_measurement_device_type  'XtaLAB AFC12 (RINC): Kappa dual home/near'
_diffrn_radiation_type           MoK\a
_diffrn_radiation_wavelength     0.71073
_diffrn_reflns_av_R_equivalents  0.0232
_diffrn_reflns_av_unetI/netI     0.0360
_diffrn_reflns_Laue_measured_fraction_full 0.996
_diffrn_reflns_Laue_measured_fraction_max 0.864
_diffrn_reflns_limit_h_max       5
_diffrn_reflns_limit_h_min       -5
_diffrn_reflns_limit_k_max       12
_diffrn_reflns_limit_k_min       -13
_diffrn_reflns_limit_l_max       13
_diffrn_reflns_limit_l_min       -13
_diffrn_reflns_number            5161
_diffrn_reflns_point_group_measured_fraction_full 0.996
_diffrn_reflns_point_group_measured_fraction_max 0.864
_diffrn_reflns_theta_full        25.242
_diffrn_reflns_theta_max         29.713
_diffrn_reflns_theta_min         2.854
_exptl_absorpt_coefficient_mu    0.140
_exptl_absorpt_correction_T_max  1.00000
_exptl_absorpt_correction_T_min  0.62987
_exptl_absorpt_correction_type   multi-scan
_exptl_crystal_colour            colourless
_exptl_crystal_density_diffrn    1.646
_exptl_crystal_description       plate
_exptl_crystal_F_000             196
_exptl_crystal_size_max          0.2
_exptl_crystal_size_mid          0.1
_exptl_crystal_size_min          0.05
_refine_diff_density_max         0.204
_refine_diff_density_min         -0.217
_refine_diff_density_rms         0.054
_refine_ls_extinction_method     none
_refine_ls_goodness_of_fit_ref   1.061
_refine_ls_hydrogen_treatment    refall
_refine_ls_matrix_type           full
_refine_ls_number_parameters     150
_refine_ls_number_reflns         1863
_refine_ls_number_restraints     0
_refine_ls_restrained_S_all      1.061
_refine_ls_R_factor_all          0.0453
_refine_ls_R_factor_gt           0.0375
_refine_ls_shift/su_max          0.000
_refine_ls_shift/su_mean         0.000
_refine_ls_structure_factor_coef Fsqd
_refine_ls_weighting_details
'w=1/[\s^2^(Fo^2^)+(0.0640P)^2^+0.0538P] where P=(Fo^2^+2Fc^2^)/3'
_refine_ls_weighting_scheme      calc
_refine_ls_wR_factor_gt          0.1067
_refine_ls_wR_factor_ref         0.1128
_reflns_Friedel_coverage         0.000
_reflns_number_gt                1589
_reflns_number_total             1863
_reflns_threshold_expression     'I > 2\s(I)'
_cod_data_source_file            d1dt03500b2.cif
_cod_data_source_block           1204-1_CCDC1
_cod_database_code               7708915
_shelx_shelxl_version_number     2018/3
_shelx_space_group_comment
;
The symmetry employed for this shelxl refinement is uniquely defined
by the following loop, which should always be used as a source of
symmetry information in preference to the above space-group names.
They are only intended as comments.
;
_shelx_res_file
;
TITL 1204-1_a.res in P-1
    1204-1.res
    created by SHELXL-2018/3 at 19:59:26 on 04-Dec-2020
REM Old TITL 1204-1 in P-1
REM SHELXT solution in P-1: R1 0.221, Rweak 0.009, Alpha 0.031
REM <I/s> 0.000 for 0 systematic absences, Orientation as input
REM Formula found by SHELXT: C10 O3
CELL 0.71073 3.7706 9.8381 10.4914 87.925 83.172 79.273
ZERR 2 0.0002 0.0006 0.0005 0.004 0.004 0.005
LATT 1
SFAC C H N O
UNIT 8 16 12 6

L.S. 4
PLAN  20
list 4
fmap 2
ACTA
OMIT 2 4 6
OMIT 0 3 5
REM <olex2.extras>
REM <HklSrc "%.\\1204-1.hkl">
REM </olex2.extras>

WGHT    0.064000    0.053800
FVAR       1.00848
O001  4    1.166392   -0.081821    0.847638    11.00000    0.05510    0.03149 =
         0.02291   -0.00105   -0.00944    0.01675
O002  4    0.421948    0.330715    0.916683    11.00000    0.06105    0.03605 =
         0.02696   -0.00537   -0.00242    0.01891
O003  4    0.717239    0.167498    0.511519    11.00000    0.05491    0.04810 =
         0.01824    0.00220   -0.00581    0.01664
N004  3    0.936948    0.041593    0.678245    11.00000    0.03801    0.02626 =
         0.01711   -0.00110   -0.00344    0.00658
N005  3    0.792008    0.125648    0.881727    11.00000    0.04164    0.02747 =
         0.01765   -0.00083   -0.00513    0.00721
N006  3   -0.282020    0.727027    0.693207    11.00000    0.04297    0.03150 =
         0.02845    0.00190   -0.00617    0.00699
N007  3    0.554649    0.260453    0.709693    11.00000    0.03846    0.02996 =
         0.02302    0.00192   -0.00358    0.00943
N008  3    0.137590    0.533464    0.629364    11.00000    0.04707    0.03791 =
         0.02431   -0.00227   -0.00154    0.00705
N009  3   -0.055417    0.569647    0.842155    11.00000    0.06710    0.04120 =
         0.02273    0.00282    0.00004    0.02277
C00A  1    0.977087    0.021753    0.805093    11.00000    0.03293    0.02549 =
         0.01966    0.00006   -0.00510    0.00310
C00B  1   -0.068169    0.610304    0.722701    11.00000    0.03237    0.02711 =
         0.02417   -0.00028   -0.00439   -0.00057
C00C  1    0.729909    0.160291    0.629398    11.00000    0.03232    0.03057 =
         0.02026    0.00365   -0.00359    0.00413
C00D  1    0.580676    0.244586    0.836460    11.00000    0.03464    0.02624 =
         0.02369   -0.00064   -0.00249    0.00567
H004  2    1.044015   -0.020850    0.620899    11.00000    0.04084
H005  2    0.805187    0.119408    0.965824    11.00000    0.04141
H00A  2   -0.316147    0.746513    0.612500    11.00000    0.05734
H00E  2    0.082498    0.494390    0.857137    11.00000    0.05750
H00F  2   -0.199117    0.619514    0.903724    11.00000    0.05939
H00C  2    0.262849    0.452354    0.648602    11.00000    0.05607
H00B  2   -0.435846    0.771941    0.753976    11.00000    0.04817
H00D  2    0.159380    0.575531    0.562771    11.00000    0.08196
HKLF 4




REM  1204-1_a.res in P-1
REM wR2 = 0.1128, GooF = S = 1.061, Restrained GooF = 1.061 for all data
REM R1 = 0.0375 for 1589 Fo > 4sig(Fo) and 0.0453 for all 1863 data
REM 150 parameters refined using 0 restraints

END

WGHT      0.0640      0.0538

REM Highest difference peak  0.204,  deepest hole -0.217,  1-sigma level  0.054
Q1    1   0.9752  0.0432  0.7407  11.00000  0.05    0.20
Q2    1   0.6136  0.2563  0.7641  11.00000  0.05    0.17
Q3    1   0.7070  0.1807  0.8585  11.00000  0.05    0.16
Q4    1   0.7957  0.1957  0.8470  11.00000  0.05    0.16
Q5    1   0.5635  0.3411  0.9701  11.00000  0.05    0.15
Q6    1   0.6203  0.1153  0.5459  11.00000  0.05    0.15
Q7    1   0.2921  0.6151  0.5623  11.00000  0.05    0.15
Q8    1   0.3980  0.5611  0.6662  11.00000  0.05    0.14
Q9    1  -0.1363  0.8328  0.6651  11.00000  0.05    0.14
Q10   1   1.2057  0.1014  0.5032  11.00000  0.05    0.13
Q11   1   0.8911  0.0877  0.8432  11.00000  0.05    0.13
Q12   1   1.0106  0.2207  0.5007  11.00000  0.05    0.13
Q13   1   0.6880  0.2316  0.6724  11.00000  0.05    0.13
Q14   1   0.5000  0.0000  0.5000  10.50000  0.05    0.13
Q15   1   0.0363  0.5216  0.5549  11.00000  0.05    0.13
Q16   1   0.5835  0.3438  0.6864  11.00000  0.05    0.12
Q17   1   1.2448 -0.0327  0.9328  11.00000  0.05    0.12
Q18   1   0.0394  0.6159  0.7876  11.00000  0.05    0.12
Q19   1  -0.0391  0.7408  0.9813  11.00000  0.05    0.12
Q20   1   0.1126  0.2377  1.0057  11.00000  0.05    0.12
;
_shelx_res_checksum              7706
loop_
_space_group_symop_operation_xyz
'x, y, z'
'-x, -y, -z'
loop_
_atom_site_label
_atom_site_type_symbol
_atom_site_fract_x
_atom_site_fract_y
_atom_site_fract_z
_atom_site_U_iso_or_equiv
_atom_site_adp_type
_atom_site_occupancy
_atom_site_site_symmetry_order
_atom_site_calc_flag
_atom_site_refinement_flags_posn
_atom_site_refinement_flags_adp
_atom_site_refinement_flags_occupancy
_atom_site_disorder_assembly
_atom_site_disorder_group
O001 O 1.1664(3) -0.08182(9) 0.84764(8) 0.0393(3) Uani 1 1 d . . . . .
O002 O 0.4219(3) 0.33072(10) 0.91668(8) 0.0450(3) Uani 1 1 d . . . . .
O003 O 0.7172(3) 0.16750(10) 0.51152(8) 0.0437(3) Uani 1 1 d . . . . .
N004 N 0.9369(3) 0.04159(10) 0.67825(8) 0.0287(2) Uani 1 1 d . . . . .
N005 N 0.7920(3) 0.12565(10) 0.88173(9) 0.0305(2) Uani 1 1 d . . . . .
N006 N -0.2820(3) 0.72703(11) 0.69321(11) 0.0360(3) Uani 1 1 d . . . . .
N007 N 0.5546(3) 0.26045(10) 0.70969(9) 0.0326(3) Uani 1 1 d . . . . .
N008 N 0.1376(3) 0.53346(13) 0.62936(11) 0.0385(3) Uani 1 1 d . . . . .
N009 N -0.0554(4) 0.56965(13) 0.84216(10) 0.0484(4) Uani 1 1 d . . . . .
C00A C 0.9771(3) 0.02175(11) 0.80509(10) 0.0270(2) Uani 1 1 d . . . . .
C00B C -0.0682(3) 0.61030(11) 0.72270(10) 0.0284(2) Uani 1 1 d . . . . .
C00C C 0.7299(3) 0.16029(12) 0.62940(10) 0.0290(3) Uani 1 1 d . . . . .
C00D C 0.5807(3) 0.24459(11) 0.83646(10) 0.0297(3) Uani 1 1 d . . . . .
H004 H 1.044(5) -0.0209(19) 0.6209(17) 0.041(4) Uiso 1 1 d . . . . .
H005 H 0.805(4) 0.1194(17) 0.9658(19) 0.041(4) Uiso 1 1 d . . . . .
H00A H -0.316(5) 0.747(2) 0.612(2) 0.057(5) Uiso 1 1 d . . . . .
H00E H 0.082(5) 0.494(2) 0.857(2) 0.057(5) Uiso 1 1 d . . . . .
H00F H -0.199(5) 0.620(2) 0.9037(19) 0.059(5) Uiso 1 1 d . . . . .
H00C H 0.263(5) 0.452(2) 0.6486(19) 0.056(5) Uiso 1 1 d . . . . .
H00B H -0.436(5) 0.7719(19) 0.7540(19) 0.048(4) Uiso 1 1 d . . . . .
H00D H 0.159(7) 0.576(2) 0.563(2) 0.082(7) Uiso 1 1 d . . . . .
loop_
_atom_site_aniso_label
_atom_site_aniso_U_11
_atom_site_aniso_U_22
_atom_site_aniso_U_33
_atom_site_aniso_U_23
_atom_site_aniso_U_13
_atom_site_aniso_U_12
O001 0.0551(6) 0.0315(5) 0.0229(4) -0.0010(3) -0.0094(4) 0.0168(4)
O002 0.0610(6) 0.0360(5) 0.0270(4) -0.0054(3) -0.0024(4) 0.0189(4)
O003 0.0549(6) 0.0481(5) 0.0182(4) 0.0022(4) -0.0058(4) 0.0166(4)
N004 0.0380(5) 0.0263(5) 0.0171(4) -0.0011(3) -0.0034(3) 0.0066(4)
N005 0.0416(6) 0.0275(5) 0.0177(4) -0.0008(3) -0.0051(4) 0.0072(4)
N006 0.0430(6) 0.0315(5) 0.0285(5) 0.0019(4) -0.0062(4) 0.0070(4)
N007 0.0385(5) 0.0300(5) 0.0230(5) 0.0019(4) -0.0036(4) 0.0094(4)
N008 0.0471(6) 0.0379(6) 0.0243(5) -0.0023(4) -0.0015(4) 0.0070(5)
N009 0.0671(8) 0.0412(6) 0.0227(5) 0.0028(4) 0.0000(5) 0.0228(6)
C00A 0.0329(5) 0.0255(5) 0.0197(5) 0.0001(4) -0.0051(4) 0.0031(4)
C00B 0.0324(5) 0.0271(5) 0.0242(5) -0.0003(4) -0.0044(4) -0.0006(4)
C00C 0.0323(5) 0.0306(5) 0.0203(5) 0.0036(4) -0.0036(4) 0.0041(4)
C00D 0.0346(6) 0.0262(5) 0.0237(5) -0.0006(4) -0.0025(4) 0.0057(4)
loop_
_atom_type_symbol
_atom_type_description
_atom_type_scat_dispersion_real
_atom_type_scat_dispersion_imag
_atom_type_scat_source
C C 0.0033 0.0016 'International Tables Vol C Tables 4.2.6.8 and 6.1.1.4'
H H 0.0000 0.0000 'International Tables Vol C Tables 4.2.6.8 and 6.1.1.4'
N N 0.0061 0.0033 'International Tables Vol C Tables 4.2.6.8 and 6.1.1.4'
O O 0.0106 0.0060 'International Tables Vol C Tables 4.2.6.8 and 6.1.1.4'
loop_
_geom_angle_atom_site_label_1
_geom_angle_atom_site_label_2
_geom_angle_atom_site_label_3
_geom_angle
_geom_angle_site_symmetry_1
_geom_angle_site_symmetry_3
_geom_angle_publ_flag
C00A N004 C00C 123.20(9) . . ?
C00A N005 C00D 123.72(9) . . ?
C00C N007 C00D 119.38(9) . . ?
O001 C00A N005 122.36(10) . . ?
O001 C00A N004 123.08(10) . . ?
N005 C00A N004 114.56(9) . . ?
N009 C00B N006 120.64(11) . . ?
N009 C00B N008 119.61(11) . . ?
N006 C00B N008 119.75(11) . . ?
O003 C00C N007 122.96(10) . . ?
O003 C00C N004 117.38(10) . . ?
N007 C00C N004 119.66(9) . . ?
O002 C00D N007 123.25(10) . . ?
O002 C00D N005 117.29(10) . . ?
N007 C00D N005 119.46(9) . . ?
loop_
_geom_bond_atom_site_label_1
_geom_bond_atom_site_label_2
_geom_bond_distance
_geom_bond_site_symmetry_2
_geom_bond_publ_flag
O001 C00A 1.2325(13) . ?
O002 C00D 1.2360(14) . ?
O003 C00C 1.2423(14) . ?
N004 C00A 1.3602(13) . ?
N004 C00C 1.3958(13) . ?
N005 C00A 1.3560(13) . ?
N005 C00D 1.3901(13) . ?
N006 C00B 1.3242(15) . ?
N007 C00C 1.3427(15) . ?
N007 C00D 1.3465(14) . ?
N008 C00B 1.3368(15) . ?
N009 C00B 1.3053(15) . ?
