#------------------------------------------------------------------------------
#$Date: 2022-03-09 01:50:31 +0200 (Wed, 09 Mar 2022) $
#$Revision: 273540 $
#$URL: file:///home/coder/svn-repositories/cod/cif/7/70/96/7709686.cif $
#------------------------------------------------------------------------------
#
# This file is available in the Crystallography Open Database (COD),
# http://www.crystallography.net/
#
# All data on this site have been placed in the public domain by the
# contributors.
#
data_7709686
loop_
_publ_author_name
'Gehlhaar, Alexander'
'Schiavo, Eduardo'
'W\"olper, Christoph'
'Schulte, Yannick'
'Auer, Alexander A.'
'Schulz, Stephan'
_publ_section_title
;
 Comparing London dispersion pnictogen--\p interactions in
 naphthyl-substituted dipnictanes
;
_journal_name_full               'Dalton Transactions'
_journal_paper_doi               10.1039/D2DT00477A
_journal_year                    2022
_chemical_formula_sum            'C20 H12 As2'
_chemical_formula_weight         402.14
_space_group_crystal_system      triclinic
_space_group_IT_number           2
_space_group_name_Hall           '-P 1'
_space_group_name_H-M_alt        'P -1'
_atom_sites_solution_hydrogens   geom
_atom_sites_solution_primary     direct
_atom_sites_solution_secondary   difmap
_audit_creation_method           SHELXL-2017/1
_audit_update_record
;
2021-12-01 deposited with the CCDC.	2022-03-01 downloaded from the CCDC.
;
_cell_angle_alpha                75.105(6)
_cell_angle_beta                 69.115(6)
_cell_angle_gamma                78.997(8)
_cell_formula_units_Z            2
_cell_length_a                   8.3154(8)
_cell_length_b                   9.7984(10)
_cell_length_c                   10.2317(7)
_cell_measurement_reflns_used    9786
_cell_measurement_temperature    100(2)
_cell_measurement_theta_max      80.39
_cell_measurement_theta_min      4.70
_cell_volume                     748.15(12)
_computing_cell_refinement       'Bruker APEX3(v2017.3-0)'
_computing_data_collection       'Bruker APEX3(v2017.3-0)'
_computing_data_reduction        'Bruker APEX3(v2017.3-0)'
_computing_molecular_graphics    'ORTEP/PLATON (Spek)'
_computing_publication_material  'BRUKER AXS SHELXTL (c) 2008 / Vers. 2008/4'
_computing_structure_refinement  'SHELXL-2017/1 (Sheldrick, 2017)'
_computing_structure_solution    'Bruker APEX3(v2017.3-0)'
_diffrn_ambient_temperature      100(2)
_diffrn_detector_area_resol_mean 7.3910
_diffrn_measured_fraction_theta_full 1.000
_diffrn_measured_fraction_theta_max 0.990
_diffrn_measurement_device_type  'Bruker D8 Venture (Photon II detector)'
_diffrn_measurement_method       'Data collection strategy APEX 3/Queen'
_diffrn_radiation_monochromator  'multilayer mirror'
_diffrn_radiation_type           CuK\a
_diffrn_radiation_wavelength     1.54178
_diffrn_reflns_av_R_equivalents  0.0385
_diffrn_reflns_av_unetI/netI     0.0126
_diffrn_reflns_Laue_measured_fraction_full 1.000
_diffrn_reflns_Laue_measured_fraction_max 0.990
_diffrn_reflns_limit_h_max       9
_diffrn_reflns_limit_h_min       -10
_diffrn_reflns_limit_k_max       12
_diffrn_reflns_limit_k_min       -12
_diffrn_reflns_limit_l_max       13
_diffrn_reflns_limit_l_min       -13
_diffrn_reflns_number            65245
_diffrn_reflns_point_group_measured_fraction_full 1.000
_diffrn_reflns_point_group_measured_fraction_max 0.990
_diffrn_reflns_theta_full        67.679
_diffrn_reflns_theta_max         80.944
_diffrn_reflns_theta_min         4.698
_diffrn_source                   'micro-focus sealed tube'
_diffrn_source_type              'INCOATEC I\mS 3.0'
_exptl_absorpt_coefficient_mu    5.450
_exptl_absorpt_correction_T_max  0.75
_exptl_absorpt_correction_T_min  0.57
_exptl_absorpt_correction_type   multi-scan
_exptl_absorpt_process_details
; 
 SADABS
 R.H. Blessing, Acta Cryst. (1995) A51 33-38 
;
_exptl_crystal_colour            'pale yellow'
_exptl_crystal_density_diffrn    1.785
_exptl_crystal_description       prism
_exptl_crystal_F_000             396
_exptl_crystal_size_max          0.177
_exptl_crystal_size_mid          0.069
_exptl_crystal_size_min          0.067
_refine_diff_density_max         1.685
_refine_diff_density_min         -0.847
_refine_diff_density_rms         0.076
_refine_ls_extinction_method     none
_refine_ls_goodness_of_fit_ref   1.061
_refine_ls_hydrogen_treatment    constr
_refine_ls_matrix_type           full
_refine_ls_number_parameters     199
_refine_ls_number_reflns         3269
_refine_ls_number_restraints     0
_refine_ls_restrained_S_all      1.061
_refine_ls_R_factor_all          0.0265
_refine_ls_R_factor_gt           0.0260
_refine_ls_shift/su_max          0.001
_refine_ls_shift/su_mean         0.000
_refine_ls_structure_factor_coef Fsqd
_refine_ls_weighting_details
'w=1/[\s^2^(Fo^2^)+(0.0329P)^2^+1.0747P] where P=(Fo^2^+2Fc^2^)/3'
_refine_ls_weighting_scheme      calc
_refine_ls_wR_factor_gt          0.0685
_refine_ls_wR_factor_ref         0.0690
_reflns_Friedel_coverage         0.000
_reflns_number_gt                3186
_reflns_number_total             3269
_reflns_threshold_expression     'I > 2\s(I)'
_cod_data_source_file            d2dt00477a2.cif
_cod_data_source_block           alf_122m
_cod_depositor_comments
;
The following automatic conversions were performed:

data item '_atom_sites_solution_secondary' value 'diffmap' was
changed to 'difmap'.

Automatic conversion script
Id: cif_fix_values 7556 2019-12-06 15:28:31Z antanas 
;
_cod_database_code               7709686
_shelx_shelxl_version_number     2017/1
_shelx_space_group_comment
;
The symmetry employed for this shelxl refinement is uniquely defined
by the following loop, which should always be used as a source of
symmetry information in preference to the above space-group names.
They are only intended as comments.
;
_shelx_estimated_absorpt_t_min   0.445
_shelx_estimated_absorpt_t_max   0.712
_shelx_res_file
;
TITL alf_122m in P-1
    alf_122m.res
    created by SHELXL-2017/1 at 13:04:24 on 02-Mar-2021
CELL 1.54178 8.31540 9.79840 10.23170 75.1055 69.1147 78.9974
ZERR 2.00 0.00080 0.00100 0.00070 0.0064 0.0059 0.0076
LATT  1
SFAC C H AS
UNIT 40 24 4
TEMP -173.150
SIZE 0.067 0.069 0.177
L.S. 16
ACTA
LIST 6
FMAP 2
PLAN 20
WGHT    0.032900    1.074700
FVAR       0.18799
AS1   3    0.636142    0.347546    0.906697    11.00000    0.03343    0.01744 =
         0.02509   -0.00491   -0.01736   -0.00001
AS2   3    0.323916    0.335362    0.983416    11.00000    0.02781    0.01750 =
         0.01712   -0.00448   -0.00482    0.00214
C10   1    0.682476    0.178988    0.823193    11.00000    0.02565    0.01487 =
         0.01933   -0.00228   -0.01091    0.00169
C11   1    0.539329    0.115618    0.828626    11.00000    0.02323    0.01404 =
         0.01647   -0.00174   -0.00826    0.00113
C12   1    0.365527    0.169841    0.895856    11.00000    0.02545    0.01552 =
         0.01639   -0.00130   -0.00691   -0.00002
C13   1    0.230223    0.104328    0.901098    11.00000    0.02351    0.02323 =
         0.02442    0.00048   -0.00751   -0.00350
AFIX  43
H13   2    0.114434    0.139646    0.947264    11.00000   -1.20000
AFIX   0
C14   1    0.262175   -0.014610    0.838554    11.00000    0.03330    0.02363 =
         0.03041    0.00135   -0.01493   -0.01059
AFIX  43
H14   2    0.167462   -0.058267    0.842421    11.00000   -1.20000
AFIX   0
C15   1    0.427355   -0.068088    0.772427    11.00000    0.03835    0.01806 =
         0.02506   -0.00323   -0.01484   -0.00402
AFIX  43
H15   2    0.446425   -0.148296    0.730635    11.00000   -1.20000
AFIX   0
C16   1    0.570995   -0.004650    0.765649    11.00000    0.03053    0.01559 =
         0.01853   -0.00170   -0.01059   -0.00012
C17   1    0.745032   -0.056939    0.697744    11.00000    0.03530    0.01808 =
         0.02167   -0.00629   -0.00968    0.00664
AFIX  43
H17   2    0.767711   -0.136083    0.653764    11.00000   -1.20000
AFIX   0
C18   1    0.880295    0.005747    0.695155    11.00000    0.02544    0.02482 =
         0.02440   -0.00338   -0.00644    0.00761
AFIX  43
H18   2    0.995959   -0.030498    0.649830    11.00000   -1.20000
AFIX   0
C19   1    0.848972    0.123543    0.759240    11.00000    0.02252    0.02181 =
         0.02665   -0.00007   -0.01128    0.00089
AFIX  43
H19   2    0.943793    0.165098    0.758274    11.00000   -1.20000
AFIX   0
C20   1    0.625075    0.487228    0.732949    11.00000    0.02767    0.01460 =
         0.02263   -0.00431   -0.01108   -0.00006
C21   1    0.460806    0.536143    0.714702    11.00000    0.02689    0.01333 =
         0.01865   -0.00577   -0.00887    0.00058
C22   1    0.307093    0.483089    0.816317    11.00000    0.02684    0.01561 =
         0.01976   -0.00542   -0.00886    0.00260
C23   1    0.148780    0.537797    0.799259    11.00000    0.02419    0.02186 =
         0.03185   -0.00790   -0.00886    0.00270
AFIX  43
H23   2    0.045925    0.502916    0.868064    11.00000   -1.20000
AFIX   0
C24   1    0.139158    0.645680    0.679614    11.00000    0.03120    0.02139 =
         0.04051   -0.00718   -0.02052    0.00519
AFIX  43
H24   2    0.029195    0.684190    0.669854    11.00000   -1.20000
AFIX   0
C25   1    0.285419    0.695536    0.577710    11.00000    0.04238    0.01737 =
         0.02880   -0.00349   -0.02144    0.00193
AFIX  43
H25   2    0.276296    0.766679    0.496976    11.00000   -1.20000
AFIX   0
C26   1    0.450509    0.642011    0.591469    11.00000    0.03322    0.01520 =
         0.02109   -0.00594   -0.01135   -0.00012
C27   1    0.605230    0.692594    0.489475    11.00000    0.04322    0.01692 =
         0.02042   -0.00203   -0.00828   -0.00381
AFIX  43
H27   2    0.600327    0.762037    0.406503    11.00000   -1.20000
AFIX   0
C28   1    0.761338    0.642116    0.509741    11.00000    0.03319    0.02168 =
         0.03066   -0.00420   -0.00135   -0.00603
AFIX  43
H28   2    0.864177    0.676219    0.440158    11.00000   -1.20000
AFIX   0
C29   1    0.771614    0.540030    0.632680    11.00000    0.02559    0.01903 =
         0.03634   -0.00562   -0.00914   -0.00187
AFIX  43
H29   2    0.880883    0.507552    0.646187    11.00000   -1.20000
AFIX   0
HKLF 4




REM  alf_122m in P-1
REM R1 =  0.0260 for    3186 Fo > 4sig(Fo)  and  0.0265 for all    3269 data
REM    199 parameters refined using      0 restraints

END

WGHT      0.0329      1.0750

REM Highest difference peak  1.685,  deepest hole -0.847,  1-sigma level  0.076
Q1    1   0.7341  0.3469  0.8611  11.00000  0.05    1.68
Q2    1   0.4917  0.3581  1.0085  11.00000  0.05    0.71
Q3    1   0.6130  0.1460  0.8214  11.00000  0.05    0.47
Q4    1   0.2984  0.1349  0.9011  11.00000  0.05    0.41
Q5    1   0.4987 -0.0379  0.7785  11.00000  0.05    0.41
Q6    1   0.7561  0.1422  0.7961  11.00000  0.05    0.41
Q7    1   0.3998  0.3805  0.9787  11.00000  0.05    0.41
Q8    1   0.5458  0.5224  0.7213  11.00000  0.05    0.40
Q9    1   0.3858  0.3977  1.0155  11.00000  0.05    0.40
Q10   1   0.7278  0.3812  0.9616  11.00000  0.05    0.39
Q11   1   0.6701  0.2353  0.8531  11.00000  0.05    0.37
Q12   1   0.4536  0.1465  0.8676  11.00000  0.05    0.37
Q13   1   0.6435  0.4358  0.8011  11.00000  0.05    0.36
Q14   1   0.2299  0.5230  0.8129  11.00000  0.05    0.35
Q15   1   0.8111 -0.0205  0.7005  11.00000  0.05    0.34
Q16   1   0.3849  0.5041  0.7697  11.00000  0.05    0.33
Q17   1   0.4583  0.5957  0.6571  11.00000  0.05    0.32
Q18   1   0.2500  0.2570  0.9527  11.00000  0.05    0.32
Q19   1   0.5289  0.6674  0.5434  11.00000  0.05    0.32
Q20   1   0.6980  0.5019  0.6766  11.00000  0.05    0.31
;
_shelx_res_checksum              14342
loop_
_space_group_symop_operation_xyz
'x, y, z'
'-x, -y, -z'
loop_
_atom_site_label
_atom_site_type_symbol
_atom_site_fract_x
_atom_site_fract_y
_atom_site_fract_z
_atom_site_U_iso_or_equiv
_atom_site_adp_type
_atom_site_occupancy
_atom_site_site_symmetry_order
_atom_site_calc_flag
_atom_site_refinement_flags_posn
_atom_site_refinement_flags_adp
_atom_site_refinement_flags_occupancy
_atom_site_disorder_assembly
_atom_site_disorder_group
As1 As 0.63614(3) 0.34755(2) 0.90670(3) 0.02341(8) Uani 1 1 d . . . . .
As2 As 0.32392(3) 0.33536(2) 0.98342(2) 0.02198(8) Uani 1 1 d . . . . .
C10 C 0.6825(3) 0.1790(2) 0.8232(2) 0.0197(4) Uani 1 1 d . . . . .
C11 C 0.5393(3) 0.1156(2) 0.8286(2) 0.0181(4) Uani 1 1 d . . . . .
C12 C 0.3655(3) 0.1698(2) 0.8959(2) 0.0198(4) Uani 1 1 d . . . . .
C13 C 0.2302(3) 0.1043(2) 0.9011(2) 0.0247(4) Uani 1 1 d . . . . .
H13 H 0.114434 0.139646 0.947264 0.030 Uiso 1 1 calc R U . . .
C14 C 0.2622(3) -0.0146(2) 0.8386(3) 0.0281(5) Uani 1 1 d . . . . .
H14 H 0.167462 -0.058267 0.842421 0.034 Uiso 1 1 calc R U . . .
C15 C 0.4274(3) -0.0681(2) 0.7724(2) 0.0260(4) Uani 1 1 d . . . . .
H15 H 0.446425 -0.148296 0.730635 0.031 Uiso 1 1 calc R U . . .
C16 C 0.5710(3) -0.0046(2) 0.7656(2) 0.0215(4) Uani 1 1 d . . . . .
C17 C 0.7450(3) -0.0569(2) 0.6977(2) 0.0258(4) Uani 1 1 d . . . . .
H17 H 0.767711 -0.136083 0.653764 0.031 Uiso 1 1 calc R U . . .
C18 C 0.8803(3) 0.0057(2) 0.6952(2) 0.0272(5) Uani 1 1 d . . . . .
H18 H 0.995959 -0.030498 0.649830 0.033 Uiso 1 1 calc R U . . .
C19 C 0.8490(3) 0.1235(2) 0.7592(2) 0.0242(4) Uani 1 1 d . . . . .
H19 H 0.943793 0.165098 0.758274 0.029 Uiso 1 1 calc R U . . .
C20 C 0.6251(3) 0.4872(2) 0.7329(2) 0.0210(4) Uani 1 1 d . . . . .
C21 C 0.4608(3) 0.5361(2) 0.7147(2) 0.0191(4) Uani 1 1 d . . . . .
C22 C 0.3071(3) 0.4831(2) 0.8163(2) 0.0207(4) Uani 1 1 d . . . . .
C23 C 0.1488(3) 0.5378(2) 0.7993(3) 0.0263(4) Uani 1 1 d . . . . .
H23 H 0.045925 0.502916 0.868064 0.032 Uiso 1 1 calc R U . . .
C24 C 0.1392(3) 0.6457(2) 0.6796(3) 0.0295(5) Uani 1 1 d . . . . .
H24 H 0.029195 0.684190 0.669854 0.035 Uiso 1 1 calc R U . . .
C25 C 0.2854(3) 0.6955(2) 0.5777(3) 0.0277(5) Uani 1 1 d . . . . .
H25 H 0.276296 0.766679 0.496976 0.033 Uiso 1 1 calc R U . . .
C26 C 0.4505(3) 0.6420(2) 0.5915(2) 0.0224(4) Uani 1 1 d . . . . .
C27 C 0.6052(3) 0.6926(2) 0.4895(2) 0.0277(5) Uani 1 1 d . . . . .
H27 H 0.600327 0.762037 0.406503 0.033 Uiso 1 1 calc R U . . .
C28 C 0.7613(3) 0.6421(2) 0.5097(3) 0.0308(5) Uani 1 1 d . . . . .
H28 H 0.864177 0.676219 0.440158 0.037 Uiso 1 1 calc R U . . .
C29 C 0.7716(3) 0.5400(2) 0.6327(3) 0.0273(5) Uani 1 1 d . . . . .
H29 H 0.880883 0.507552 0.646187 0.033 Uiso 1 1 calc R U . . .
loop_
_atom_site_aniso_label
_atom_site_aniso_U_11
_atom_site_aniso_U_22
_atom_site_aniso_U_33
_atom_site_aniso_U_23
_atom_site_aniso_U_13
_atom_site_aniso_U_12
As1 0.03343(14) 0.01744(13) 0.02509(14) -0.00491(9) -0.01736(10) -0.00001(9)
As2 0.02781(13) 0.01750(12) 0.01712(12) -0.00448(9) -0.00482(9) 0.00214(9)
C10 0.0257(10) 0.0149(9) 0.0193(9) -0.0023(7) -0.0109(8) 0.0017(7)
C11 0.0232(10) 0.0140(9) 0.0165(9) -0.0017(7) -0.0083(7) 0.0011(7)
C12 0.0255(10) 0.0155(9) 0.0164(9) -0.0013(7) -0.0069(8) 0.0000(7)
C13 0.0235(10) 0.0232(10) 0.0244(10) 0.0005(8) -0.0075(8) -0.0035(8)
C14 0.0333(12) 0.0236(11) 0.0304(11) 0.0014(9) -0.0149(9) -0.0106(9)
C15 0.0384(12) 0.0181(10) 0.0251(10) -0.0032(8) -0.0148(9) -0.0040(9)
C16 0.0305(11) 0.0156(9) 0.0185(9) -0.0017(7) -0.0106(8) -0.0001(8)
C17 0.0353(12) 0.0181(10) 0.0217(10) -0.0063(8) -0.0097(9) 0.0066(8)
C18 0.0254(10) 0.0248(11) 0.0244(11) -0.0034(8) -0.0064(8) 0.0076(8)
C19 0.0225(10) 0.0218(10) 0.0266(11) -0.0001(8) -0.0113(8) 0.0009(8)
C20 0.0277(10) 0.0146(9) 0.0226(10) -0.0043(7) -0.0111(8) -0.0001(7)
C21 0.0269(10) 0.0133(8) 0.0186(9) -0.0058(7) -0.0089(8) 0.0006(7)
C22 0.0268(10) 0.0156(9) 0.0198(9) -0.0054(7) -0.0089(8) 0.0026(7)
C23 0.0242(10) 0.0219(10) 0.0318(12) -0.0079(9) -0.0089(9) 0.0027(8)
C24 0.0312(11) 0.0214(10) 0.0405(13) -0.0072(9) -0.0205(10) 0.0052(9)
C25 0.0424(13) 0.0174(10) 0.0288(11) -0.0035(8) -0.0214(10) 0.0019(9)
C26 0.0332(11) 0.0152(9) 0.0211(10) -0.0059(8) -0.0114(9) -0.0001(8)
C27 0.0432(13) 0.0169(10) 0.0204(10) -0.0020(8) -0.0083(9) -0.0038(9)
C28 0.0332(12) 0.0217(11) 0.0307(12) -0.0042(9) -0.0013(10) -0.0060(9)
C29 0.0256(11) 0.0190(10) 0.0363(12) -0.0056(9) -0.0091(9) -0.0019(8)
loop_
_atom_type_symbol
_atom_type_description
_atom_type_scat_dispersion_real
_atom_type_scat_dispersion_imag
_atom_type_scat_source
C C 0.0181 0.0091 'International Tables Vol C Tables 4.2.6.8 and 6.1.1.4'
H H 0.0000 0.0000 'International Tables Vol C Tables 4.2.6.8 and 6.1.1.4'
As As -0.9300 1.0051 'International Tables Vol C Tables 4.2.6.8 and 6.1.1.4'
loop_
_geom_angle_atom_site_label_1
_geom_angle_atom_site_label_2
_geom_angle_atom_site_label_3
_geom_angle
_geom_angle_site_symmetry_1
_geom_angle_site_symmetry_3
_geom_angle_publ_flag
C10 As1 C20 96.09(8) . . ?
C10 As1 As2 90.87(6) . . ?
C20 As1 As2 90.54(6) . . ?
C22 As2 C12 97.62(8) . . ?
C22 As2 As1 90.26(6) . . ?
C12 As2 As1 90.17(6) . . ?
C19 C10 C11 120.28(19) . . ?
C19 C10 As1 121.22(16) . . ?
C11 C10 As1 118.49(15) . . ?
C10 C11 C16 119.09(18) . . ?
C10 C11 C12 121.42(18) . . ?
C16 C11 C12 119.49(19) . . ?
C13 C12 C11 119.81(19) . . ?
C13 C12 As2 121.17(16) . . ?
C11 C12 As2 119.01(15) . . ?
C12 C13 C14 120.5(2) . . ?
C15 C14 C13 120.9(2) . . ?
C14 C15 C16 120.5(2) . . ?
C15 C16 C17 122.3(2) . . ?
C15 C16 C11 118.8(2) . . ?
C17 C16 C11 118.9(2) . . ?
C18 C17 C16 120.6(2) . . ?
C17 C18 C19 120.4(2) . . ?
C10 C19 C18 120.6(2) . . ?
C29 C20 C21 120.2(2) . . ?
C29 C20 As1 121.13(17) . . ?
C21 C20 As1 118.60(15) . . ?
C22 C21 C20 121.51(19) . . ?
C22 C21 C26 119.43(19) . . ?
C20 C21 C26 119.05(19) . . ?
C23 C22 C21 120.1(2) . . ?
C23 C22 As2 120.94(17) . . ?
C21 C22 As2 118.92(15) . . ?
C22 C23 C24 120.1(2) . . ?
C25 C24 C23 121.1(2) . . ?
C24 C25 C26 120.5(2) . . ?
C25 C26 C27 122.3(2) . . ?
C25 C26 C21 118.7(2) . . ?
C27 C26 C21 118.9(2) . . ?
C28 C27 C26 120.4(2) . . ?
C27 C28 C29 120.8(2) . . ?
C20 C29 C28 120.5(2) . . ?
loop_
_geom_bond_atom_site_label_1
_geom_bond_atom_site_label_2
_geom_bond_distance
_geom_bond_site_symmetry_2
_geom_bond_publ_flag
As1 C10 1.963(2) . ?
As1 C20 1.965(2) . ?
As1 As2 2.4471(4) . ?
As2 C22 1.964(2) . ?
As2 C12 1.966(2) . ?
C10 C19 1.375(3) . ?
C10 C11 1.422(3) . ?
C11 C16 1.423(3) . ?
C11 C12 1.425(3) . ?
C12 C13 1.377(3) . ?
C13 C14 1.408(3) . ?
C14 C15 1.365(3) . ?
C15 C16 1.421(3) . ?
C16 C17 1.422(3) . ?
C17 C18 1.370(3) . ?
C18 C19 1.408(3) . ?
C20 C29 1.372(3) . ?
C20 C21 1.420(3) . ?
C21 C22 1.419(3) . ?
C21 C26 1.430(3) . ?
C22 C23 1.377(3) . ?
C23 C24 1.412(3) . ?
C24 C25 1.366(4) . ?
C25 C26 1.416(3) . ?
C26 C27 1.418(3) . ?
C27 C28 1.366(4) . ?
C28 C29 1.410(3) . ?
