#------------------------------------------------------------------------------
#$Date: 2022-03-16 01:58:16 +0200 (Wed, 16 Mar 2022) $
#$Revision: 273708 $
#$URL: file:///home/coder/svn-repositories/cod/cif/7/70/97/7709755.cif $
#------------------------------------------------------------------------------
#
# This file is available in the Crystallography Open Database (COD),
# http://www.crystallography.net/
#
# All data on this site have been placed in the public domain by the
# contributors.
#
data_7709755
loop_
_publ_author_name
'Priola, Emanuele'
'Giordana, Alessia'
'Gomila, Rosa Maria'
'Zangrando, Ennio'
'Andreo, Luca'
'Rabezzana, Roberto'
'Operti, Lorenza'
'Diana, Eliano'
'Mahmoudi, Ghodrat'
'Frontera, Antonio'
_publ_section_title
;
 Metallophilic interactions in silver(I) dicyanoaurate complexes
;
_journal_name_full               'Dalton Transactions'
_journal_paper_doi               10.1039/D2DT00615D
_journal_year                    2022
_chemical_formula_moiety         '2(C2 Au N2),(C26 H18 Ag2 N6)'
_chemical_formula_sum            'C30 H18 Ag2 Au2 N10'
_chemical_formula_weight         1128.22
_space_group_crystal_system      triclinic
_space_group_IT_number           2
_space_group_name_Hall           '-P 1'
_space_group_name_H-M_alt        'P -1'
_atom_sites_solution_hydrogens   geom
_audit_creation_method           SHELXL-2018/3
_audit_update_record
;
2022-02-25 deposited with the CCDC.	2022-03-15 downloaded from the CCDC.
;
_cell_angle_alpha                86.98(3)
_cell_angle_beta                 79.08(2)
_cell_angle_gamma                83.75(2)
_cell_formula_units_Z            1
_cell_length_a                   7.2797(13)
_cell_length_b                   9.847(4)
_cell_length_c                   10.868(3)
_cell_measurement_reflns_used    354
_cell_measurement_temperature    297(2)
_cell_measurement_theta_max      15.97
_cell_measurement_theta_min      4.27
_cell_volume                     760.0(4)
_computing_cell_refinement       'CrysAlisPro 1.171.38.46 (Rigaku OD, 2015)'
_computing_data_collection       'CrysAlisPro 1.171.38.46 (Rigaku OD, 2015)'
_computing_data_reduction        'CrysAlisPro 1.171.38.46 (Rigaku OD, 2015)'
_computing_structure_refinement  'SHELXL-2018/3 (Sheldrick, 2018)'
_computing_structure_solution    'ShelXS (Sheldrick, 2008)'
_diffrn_ambient_temperature      297(2)
_diffrn_measured_fraction_theta_full 0.995
_diffrn_measured_fraction_theta_max 0.994
_diffrn_measurement_device       'four-circle diffractometer'
_diffrn_measurement_method       '\w scans'
_diffrn_radiation_monochromator  graphite
_diffrn_radiation_type           MoK\a
_diffrn_radiation_wavelength     0.71073
_diffrn_reflns_av_R_equivalents  0.1583
_diffrn_reflns_av_unetI/netI     0.3490
_diffrn_reflns_Laue_measured_fraction_full 0.995
_diffrn_reflns_Laue_measured_fraction_max 0.994
_diffrn_reflns_limit_h_max       8
_diffrn_reflns_limit_h_min       -9
_diffrn_reflns_limit_k_max       9
_diffrn_reflns_limit_k_min       -12
_diffrn_reflns_limit_l_max       11
_diffrn_reflns_limit_l_min       -13
_diffrn_reflns_number            6139
_diffrn_reflns_point_group_measured_fraction_full 0.995
_diffrn_reflns_point_group_measured_fraction_max 0.994
_diffrn_reflns_theta_full        25.242
_diffrn_reflns_theta_max         26.370
_diffrn_reflns_theta_min         3.367
_diffrn_source                   'fine-focus sealed X-ray tube'
_diffrn_source_type              'Enhance (Mo) X-ray Source'
_exptl_absorpt_coefficient_mu    10.930
_exptl_absorpt_correction_T_max  1.00000
_exptl_absorpt_correction_T_min  0.33890
_exptl_absorpt_correction_type   multi-scan
_exptl_absorpt_process_details
;
CrysAlisPro 1.171.38.46 (Rigaku Oxford Diffraction, 2015)
Empirical absorption correction using spherical harmonics,
 implemented in SCALE3 ABSPACK scaling algorithm.
;
_exptl_crystal_colour            colourless
_exptl_crystal_density_diffrn    2.465
_exptl_crystal_description       plate
_exptl_crystal_F_000             520
_exptl_crystal_size_max          0.210
_exptl_crystal_size_mid          0.150
_exptl_crystal_size_min          0.050
_refine_diff_density_max         1.359
_refine_diff_density_min         -1.830
_refine_diff_density_rms         0.255
_refine_ls_extinction_method     none
_refine_ls_goodness_of_fit_ref   0.934
_refine_ls_hydrogen_treatment    constr
_refine_ls_matrix_type           full
_refine_ls_number_parameters     199
_refine_ls_number_reflns         3091
_refine_ls_number_restraints     36
_refine_ls_restrained_S_all      0.930
_refine_ls_R_factor_all          0.2697
_refine_ls_R_factor_gt           0.0972
_refine_ls_shift/su_max          0.000
_refine_ls_shift/su_mean         0.000
_refine_ls_structure_factor_coef Fsqd
_refine_ls_weighting_details
'w=1/[\s^2^(Fo^2^)+(0.0373P)^2^] where P=(Fo^2^+2Fc^2^)/3'
_refine_ls_weighting_scheme      calc
_refine_ls_wR_factor_gt          0.1507
_refine_ls_wR_factor_ref         0.2131
_reflns_Friedel_coverage         0.000
_reflns_number_gt                1069
_reflns_number_total             3091
_reflns_threshold_expression     'I > 2\s(I)'
_cod_data_source_file            d2dt00615d2.cif
_cod_data_source_block           1
_cod_database_code               7709755
_shelx_shelxl_version_number     2018/3
_shelx_space_group_comment
;
The symmetry employed for this shelxl refinement is uniquely defined
by the following loop, which should always be used as a source of
symmetry information in preference to the above space-group names.
They are only intended as comments.
;
_shelx_estimated_absorpt_t_min   0.207
_shelx_estimated_absorpt_t_max   0.611
_shelx_res_file
;
TITL exp_91 in P-1 #2
    shelx.res
    created by SHELXL-2018/3 at 18:38:33 on 16-Nov-2021
CELL  0.71073   7.2797   9.8471  10.8684   86.982   79.082   83.747
ZERR     1.00   0.0013   0.0040   0.0034    0.029    0.020    0.022
LATT   1
SFAC  C    H    AG   AU   N
UNIT  30 18 2 2 10
MERG   2
ABIN
shel 1000 0.8
ISOR 0.01 0.02 N4 c6 C7 C8 C6 C13 C15
FMAP   2   53   53
PLAN   -10
SIZE     0.050   0.150   0.210
ACTA
BOND $H
L.S.  10
TEMP    24.00
WGHT    0.037300
FVAR       0.74469
AU1   4    0.621752    0.149336    0.512121    11.00000    0.04730    0.06472 =
         0.07925    0.00511   -0.01334   -0.00745
N1    5    0.597697    0.253763    0.778701    11.00000    0.04579    0.04174 =
         0.19123    0.00705   -0.03621    0.00193
N2    5    0.665593    0.088543    0.226928    11.00000    0.08564    0.11161 =
         0.07809   -0.04252   -0.06951    0.01392
C1    1    0.608365    0.201929    0.676410    11.00000    0.04280    0.16554 =
         0.08719    0.00704   -0.02369   -0.02171
C2    1    0.653806    0.104579    0.337392    11.00000    0.05078    0.03495 =
         0.11000   -0.00456   -0.04291   -0.00449
AG1   3    1.034309    0.089085    0.586526    11.00000    0.07839    0.05030 =
         0.06987   -0.00445   -0.01147   -0.02772
N3    5    1.108104    0.293004    0.656469    11.00000    0.03609    0.03521 =
         0.09271    0.00211   -0.01134   -0.01395
N4    5    1.152275    0.217129    0.421947    11.00000    0.03356    0.03375 =
         0.02759   -0.00789   -0.00159   -0.00215
N5    5    1.111964    0.057976    0.279069    11.00000    0.05287    0.03373 =
         0.10013   -0.01549   -0.03205   -0.00125
C3    1    1.097927    0.323657    0.773748    11.00000    0.11576    0.07580 =
         0.12686   -0.03585   -0.04337   -0.04690
AFIX  43
H3    2    1.060633    0.259172    0.836579    11.00000   -1.20000
AFIX   0
C4    1    1.139951    0.446332    0.806731    11.00000    0.06905    0.08582 =
         0.02951    0.00956   -0.03453   -0.00886
AFIX  43
H4    2    1.122313    0.461736    0.892055    11.00000   -1.20000
AFIX   0
C5    1    1.199934    0.540281    0.733505    11.00000    0.06196    0.04786 =
         0.07488    0.01048   -0.04969   -0.00352
AFIX  43
H5    2    1.218883    0.624563    0.761141    11.00000   -1.20000
AFIX   0
C6    1    1.237518    0.507823    0.602716    11.00000    0.06414    0.06644 =
         0.07460   -0.00369   -0.02275   -0.01921
AFIX  43
H6    2    1.293293    0.567312    0.541024    11.00000   -1.20000
AFIX   0
C7    1    1.185186    0.380603    0.572785    11.00000    0.03827    0.03796 =
         0.05778   -0.00228   -0.00879   -0.00900
C8    1    1.207703    0.340198    0.439129    11.00000    0.03971    0.03999 =
         0.03614   -0.00485   -0.00613   -0.00033
C9    1    1.286974    0.421682    0.334871    11.00000    0.08321    0.04587 =
         0.05989    0.01343    0.00088   -0.02776
AFIX  43
H9    2    1.332241    0.502879    0.349696    11.00000   -1.20000
AFIX   0
C10   1    1.298927    0.386824    0.218025    11.00000    0.05442    0.05747 =
         0.06720    0.01660   -0.03363   -0.02374
AFIX  43
H10   2    1.341301    0.447752    0.153206    11.00000   -1.20000
AFIX   0
C11   1    1.251119    0.264568    0.189814    11.00000    0.02866    0.03464 =
         0.09127   -0.02654   -0.01764    0.01653
C12   1    1.275826    0.214583    0.065944    11.00000    0.05666    0.07088 =
         0.06417   -0.00999   -0.00180   -0.01913
AFIX  43
H12   2    1.325423    0.265814   -0.004471    11.00000   -1.20000
AFIX   0
C13   1    1.222735    0.088114    0.057087    11.00000    0.06673    0.06918 =
         0.07408   -0.01308   -0.01076   -0.01087
AFIX  43
H13   2    1.243795    0.050823   -0.021820    11.00000   -1.20000
AFIX   0
C14   1    1.142425    0.014349    0.154459    11.00000    0.09946    0.10878 =
         0.05193   -0.02823    0.01071   -0.01152
AFIX  43
H14   2    1.104640   -0.069662    0.139901    11.00000   -1.20000
AFIX   0
C15   1    1.174531    0.180971    0.296182    11.00000    0.03990    0.04744 =
         0.05817    0.00569   -0.01536   -0.01048
HKLF    4




REM  exp_91 in P-1 #2
REM wR2 = 0.2131, GooF = S = 0.934, Restrained GooF = 0.930 for all data
REM R1 = 0.0972 for 1069 Fo > 4sig(Fo) and 0.2697 for all 3091 data
REM 199 parameters refined using 36 restraints

END

WGHT      0.0374      0.0000

REM Highest difference peak  1.359,  deepest hole -1.830,  1-sigma level  0.255
Q1    1   0.9209  0.1580  0.9072  11.00000  0.05    1.36
Q2    1   0.5963  0.0356  0.5750  11.00000  0.05    1.31
Q3    1   0.6468  0.2453  0.4378  11.00000  0.05    1.30
Q4    1   1.0024  0.0156  0.3615  11.00000  0.05    1.23
Q5    1   0.5282  0.2404  0.5970  11.00000  0.05    1.12
Q6    1   0.5406  0.0196  0.3748  11.00000  0.05    1.08
Q7    1   0.6145  0.0746  0.4463  11.00000  0.05    0.94
Q8    1   1.2890  0.4551  0.5274  11.00000  0.05    0.90
Q9    1   0.5802  0.3215  0.5836  11.00000  0.05    0.90
Q10   1   1.0609  0.1795  0.4989  11.00000  0.05    0.90
;
_shelx_res_checksum              46857
_shelx_fab_file
;
-8 -6 1 3.2239 0.4621
-8 -5 1 -2.0611 0.5673
-8 -5 2 -2.5901 0.5027
-8 -4 1 -2.5279 -0.0152
-8 -4 2 -3.1503 -0.1310
-8 -4 3 -2.6600 -0.2239
-8 -3 1 1.7991 -0.2983
-8 -3 2 3.3512 -0.3242
-8 -3 3 3.2065 -0.3174
-8 -2 1 -0.5959 -0.3644
-8 -2 2 -1.0146 -0.2321
-8 -2 3 -1.3428 -0.0705
-8 -1 1 2.8326 -0.1551
-8 -1 2 1.6674 -0.0959
-8 -1 3 1.2324 -0.0489
-8 -1 4 1.5761 -0.0218
-8 0 1 -1.7342 0.2956
-8 0 2 -1.0054 0.2450
-8 0 3 -0.0347 0.1433
-8 0 4 0.6374 0.0266
-8 1 1 -3.8022 0.2924
-8 1 2 -2.7439 0.2646
-8 1 3 -2.1816 0.2393
-8 2 1 8.7223 0.0047
-8 2 2 7.2419 -0.0516
-8 2 3 4.9938 -0.0661
-8 3 1 -6.7712 -0.0343
-8 3 2 -6.5099 0.0167
-7 -8 1 1.7935 0.1371
-7 -7 1 -2.9497 -0.4475
-7 -7 2 -2.6644 -0.4621
-7 -6 1 2.2159 -0.4939
-7 -6 2 3.0387 -0.4054
-7 -6 3 3.3894 -0.3012
-7 -6 4 3.0490 -0.2111
-7 -5 1 1.3197 0.0779
-7 -5 2 1.8414 0.1609
-7 -5 3 1.2102 0.1979
-7 -5 4 -0.0021 0.1872
-7 -5 5 -1.0519 0.1467
-7 -4 1 -2.3153 0.3642
-7 -4 2 -3.3499 0.3729
-7 -4 3 -3.1037 0.3562
-7 -4 4 -1.7958 0.3273
-7 -4 5 -0.1424 0.2924
-7 -3 1 -0.9291 0.3197
-7 -3 2 -1.6111 0.2042
-7 -3 3 -1.6601 0.0744
-7 -3 4 -1.1898 -0.0453
-7 -3 5 -0.5104 -0.1347
-7 -3 6 0.0957 -0.1817
-7 -2 1 2.0233 0.0848
-7 -2 2 3.3750 0.0181
-7 -2 3 3.2204 -0.0312
-7 -2 4 1.5754 -0.0579
-7 -2 5 -0.8069 -0.0627
-7 -2 6 -2.8632 -0.0515
-7 -1 1 -1.6909 -0.3368
-7 -1 2 -2.4961 -0.2910
-7 -1 3 -2.9186 -0.1915
-7 -1 4 -2.7748 -0.0684
-7 -1 5 -2.0675 0.0412
-7 -1 6 -1.0675 0.1083
-7 0 1 3.3798 -0.3990
-7 0 2 3.3253 -0.3377
-7 0 3 3.5190 -0.2755
-7 0 4 4.1275 -0.2186
-7 0 5 4.7850 -0.1660
-7 0 6 4.9116 -0.1131
-7 1 1 -5.3919 -0.0021
-7 1 2 -4.4830 0.0284
-7 1 3 -2.8886 0.0073
-7 1 4 -1.3762 -0.0537
-7 1 5 -0.3942 -0.1276
-7 1 6 0.0960 -0.1840
-7 2 1 3.2510 0.2566
-7 2 2 3.2264 0.2513
-7 2 3 2.1845 0.2478
-7 2 4 0.5056 0.2520
-7 2 5 -1.0780 0.2572
-7 3 1 5.1754 0.2240
-7 3 2 3.5053 0.1719
-7 3 3 1.5669 0.1413
-7 3 4 0.0784 0.1273
-7 3 5 -0.7197 0.1177
-7 4 3 -5.4241 0.1745
-7 4 4 -2.6497 0.1168
-7 5 3 3.4580 -0.2559
-7 6 1 0.5622 -0.3376
-6 -9 1 -0.8904 -0.2005
-6 -9 2 -0.1142 -0.1370
-6 -8 1 4.2379 0.3464
-6 -8 2 3.4393 0.3337
-6 -8 3 2.3770 0.2754
-6 -7 1 -1.8631 0.3272
-6 -7 2 -2.5155 0.2858
-6 -7 3 -2.6825 0.2384
-6 -7 4 -2.3577 0.1940
-6 -7 5 -1.6799 0.1575
-6 -6 1 -1.3628 0.1040
-6 -6 2 -0.5884 0.0226
-6 -6 3 0.3822 -0.0218
-6 -6 4 1.2816 -0.0226
-6 -6 5 1.8336 0.0038
-6 -6 6 1.8928 0.0294
-6 -5 1 2.7408 -0.2437
-6 -5 2 2.7271 -0.2425
-6 -5 3 2.3236 -0.2354
-6 -5 4 1.6383 -0.2410
-6 -5 5 0.8807 -0.2656
-6 -5 6 0.2861 -0.2961
-6 -5 7 0.0151 -0.3073
-6 -4 1 -1.3893 -0.3606
-6 -4 2 -0.3688 -0.2860
-6 -4 3 0.1233 -0.2124
-6 -4 4 0.0013 -0.1502
-6 -4 5 -0.4944 -0.0981
-6 -4 6 -0.9912 -0.0496
-6 -4 7 -1.2089 -0.0023
-6 -3 1 -1.2723 -0.0844
-6 -3 2 -2.0667 -0.0248
-6 -3 3 -1.9233 0.0274
-6 -3 4 -0.8884 0.0778
-6 -3 5 0.5979 0.1269
-6 -3 6 1.9142 0.1667
-6 -3 7 2.5581 0.1856
-6 -2 1 1.0697 0.2999
-6 -2 2 0.3535 0.2862
-6 -2 3 -0.4069 0.2417
-6 -2 4 -0.8455 0.1769
-6 -2 5 -0.8357 0.1056
-6 -2 6 -0.4886 0.0403
-6 -2 7 -0.0302 -0.0096
-6 -2 8 0.3396 -0.0395
-6 -1 1 1.1092 0.3380
-6 -1 2 1.3110 0.2855
-6 -1 3 0.9137 0.2320
-6 -1 4 -0.3992 0.1798
-6 -1 5 -2.4112 0.1304
-6 -1 6 -4.4423 0.0861
-6 -1 7 -5.7102 0.0505
-6 -1 8 -5.7512 0.0266
-6 0 1 -1.4643 0.0097
-6 0 2 -1.6761 -0.0533
-6 0 3 -1.8207 -0.0800
-6 0 4 -1.7406 -0.0689
-6 0 5 -1.3425 -0.0310
-6 0 6 -0.7083 0.0155
-6 0 7 -0.0774 0.0530
-6 0 8 0.2930 0.0711
-6 1 1 0.1763 -0.2804
-6 1 2 0.8912 -0.2815
-6 1 3 1.9991 -0.2692
-6 1 4 3.5368 -0.2459
-6 1 5 5.1551 -0.2145
-6 1 6 6.2742 -0.1774
-6 1 7 6.4095 -0.1369
-6 1 8 5.4482 -0.0956
-6 2 1 -2.2702 -0.2724
-6 2 2 -1.2949 -0.2095
-6 2 3 -0.0349 -0.1665
-6 2 4 0.9206 -0.1571
-6 2 5 1.2657 -0.1786
-6 2 6 1.1139 -0.2141
-6 2 7 0.8462 -0.2419
-6 3 1 5.4530 -0.0163
-6 3 2 4.3293 0.0384
-6 3 3 2.2863 0.0901
-6 3 4 -0.0474 0.1433
-6 3 5 -1.9738 0.1971
-6 3 6 -3.0309 0.2412
-6 3 7 -3.1343 0.2597
-6 4 1 -1.0227 0.2000
-6 4 2 -2.4259 0.1882
-6 4 3 -3.4539 0.1709
-6 4 4 -3.8404 0.1486
-6 4 5 -3.6390 0.1198
-6 4 6 -3.0948 0.0847
-6 5 1 -5.1077 0.2772
-6 5 2 -2.5488 0.2565
-6 5 3 0.1805 0.2221
-6 5 4 2.1535 0.1727
-6 5 5 2.9680 0.1136
-6 5 6 2.7477 0.0584
-6 6 1 4.0067 0.0345
-6 6 2 2.4607 -0.0315
-6 6 3 0.7456 -0.0957
-6 6 4 -0.3386 -0.1337
-6 6 5 -0.5017 -0.1303
-6 7 1 -1.4279 -0.2219
-6 7 2 -1.9198 -0.2245
-6 7 3 -1.7668 -0.2011
-6 8 1 1.6393 -0.2330
-5 -10 1 -1.2698 0.3754
-5 -10 2 -1.3527 0.3263
-5 -9 1 -5.3519 -0.2000
-5 -9 2 -5.0397 -0.1825
-5 -9 3 -3.7449 -0.1524
-5 -9 4 -2.1900 -0.1305
-5 -8 1 3.1141 -0.4214
-5 -8 2 3.7436 -0.4344
-5 -8 3 3.1701 -0.4285
-5 -8 4 1.7460 -0.3857
-5 -8 5 0.1969 -0.2987
-5 -8 6 -0.8099 -0.1783
-5 -7 1 3.4662 -0.3152
-5 -7 2 1.7479 -0.2323
-5 -7 3 0.2924 -0.1346
-5 -7 4 -0.4655 -0.0408
-5 -7 5 -0.5528 0.0341
-5 -7 6 -0.3589 0.0841
-5 -7 7 -0.3251 0.1108
-5 -6 1 -3.3893 0.1414
-5 -6 2 -3.0719 0.1876
-5 -6 3 -2.4150 0.2242
-5 -6 4 -1.7645 0.2488
-5 -6 5 -1.3557 0.2621
-5 -6 6 -1.1858 0.2637
-5 -6 7 -1.0608 0.2500
-5 -5 1 1.4786 0.5075
-5 -5 2 2.1602 0.4342
-5 -5 3 2.6879 0.3455
-5 -5 4 3.0356 0.2615
-5 -5 5 3.1812 0.1907
-5 -5 6 3.0914 0.1282
-5 -5 7 2.7290 0.0654
-5 -5 8 2.0962 0.0009
-5 -4 1 0.5518 0.2710
-5 -4 2 0.2849 0.2071
-5 -4 3 -0.1557 0.1342
-5 -4 4 -0.5783 0.0446
-5 -4 5 -0.8219 -0.0631
-5 -4 6 -0.8223 -0.1756
-5 -4 7 -0.6067 -0.2670
-5 -4 8 -0.2474 -0.3101
-5 -4 9 0.1747 -0.2915
-5 -3 1 -1.8888 -0.2501
-5 -3 2 -0.8379 -0.2643
-5 -3 3 0.2609 -0.2616
-5 -3 4 0.9298 -0.2447
-5 -3 5 0.9781 -0.2141
-5 -3 6 0.5723 -0.1684
-5 -3 7 0.0846 -0.1089
-5 -3 8 -0.1696 -0.0437
-5 -3 9 -0.1252 0.0126
-5 -2 1 -0.6354 -0.3564
-5 -2 2 -0.9733 -0.3042
-5 -2 3 -1.1333 -0.2452
-5 -2 4 -0.8809 -0.1805
-5 -2 5 -0.1830 -0.1104
-5 -2 6 0.7419 -0.0390
-5 -2 7 1.5217 0.0238
-5 -2 8 1.8354 0.0663
-5 -2 9 1.6027 0.0812
-5 -1 1 2.7104 -0.1925
-5 -1 2 1.3285 -0.1099
-5 -1 3 -0.0221 -0.0360
-5 -1 4 -0.8547 0.0252
-5 -1 5 -0.9645 0.0731
-5 -1 6 -0.5131 0.1060
-5 -1 7 0.1067 0.1207
-5 -1 8 0.5189 0.1148
-5 -1 9 0.5574 0.0909
-5 0 1 -0.4486 0.1340
-5 0 2 -0.3290 0.1436
-5 0 3 -0.4181 0.1464
-5 0 4 -1.1990 0.1411
-5 0 5 -2.8170 0.1252
-5 0 6 -4.8902 0.0992
-5 0 7 -6.6537 0.0687
-5 0 8 -7.3590 0.0426
-5 0 9 -6.6833 0.0285
-5 1 1 -1.6853 0.3683
-5 1 2 -1.3787 0.2830
-5 1 3 -1.1986 0.1959
-5 1 4 -1.0193 0.1236
-5 1 5 -0.6947 0.0741
-5 1 6 -0.1835 0.0475
-5 1 7 0.3933 0.0377
-5 1 8 0.8099 0.0364
-5 1 9 0.8719 0.0356
-5 2 1 -0.5764 0.1867
-5 2 2 0.0393 0.1094
-5 2 3 1.1637 0.0427
-5 2 4 2.7344 -0.0104
-5 2 5 4.5070 -0.0510
-5 2 6 6.0752 -0.0817
-5 2 7 6.9964 -0.1041
-5 2 8 6.9722 -0.1170
-5 2 9 5.9896 -0.1179
-5 3 1 1.8016 -0.2255
-5 3 2 3.0639 -0.1939
-5 3 3 4.0103 -0.1516
-5 3 4 4.3098 -0.1187
-5 3 5 3.8662 -0.1064
-5 3 6 2.8546 -0.1128
-5 3 7 1.6380 -0.1262
-5 3 8 0.6097 -0.1325
-5 3 9 0.0363 -0.1234
-5 4 1 0.7807 -0.2843
-5 4 2 -1.1582 -0.2130
-5 4 3 -3.2015 -0.1502
-5 4 4 -4.6058 -0.0939
-5 4 5 -5.0127 -0.0371
-5 4 6 -4.5132 0.0225
-5 4 7 -3.4810 0.0772
-5 4 8 -2.3255 0.1133
-5 5 1 -0.1428 -0.1284
-5 5 2 -0.7631 -0.0879
-5 5 3 -1.1895 -0.0539
-5 5 4 -1.7488 -0.0264
-5 5 5 -2.5837 -0.0063
-5 5 6 -3.4868 0.0052
-5 5 7 -4.0287 0.0089
-5 5 8 -3.8643 0.0083
-5 6 1 -4.1462 0.1714
-5 6 2 -1.5421 0.1638
-5 6 3 0.7845 0.1608
-5 6 4 2.1807 0.1617
-5 6 5 2.6308 0.1589
-5 6 6 2.4537 0.1463
-5 6 7 1.9529 0.1236
-5 7 1 6.6946 0.3201
-5 7 2 3.4206 0.2636
-5 7 3 0.2032 0.1768
-5 7 4 -1.4520 0.0790
-5 7 5 -1.1993 -0.0075
-5 7 6 0.2172 -0.0655
-5 8 1 -4.4308 0.0069
-5 8 2 -2.9234 -0.0312
-5 8 3 -0.5183 -0.0482
-5 8 4 1.4373 -0.0478
-5 9 1 -1.0747 -0.2181
-5 9 2 0.6472 -0.2201
-4 -11 1 2.1258 -0.3695
-4 -11 2 0.7948 -0.3143
-4 -10 1 2.5340 0.2081
-4 -10 2 4.2432 0.2062
-4 -10 3 4.4055 0.1924
-4 -10 4 3.3537 0.1843
-4 -9 1 -3.0652 0.5420
-4 -9 2 -3.8523 0.5656
-4 -9 3 -3.6703 0.5489
-4 -9 4 -2.5068 0.4713
-4 -9 5 -0.8657 0.3268
-4 -9 6 0.5607 0.1344
-4 -8 1 -4.2524 0.3598
-4 -8 2 -3.7795 0.2923
-4 -8 3 -2.4192 0.1835
-4 -8 4 -0.9887 0.0453
-4 -8 5 -0.0615 -0.0960
-4 -8 6 0.2597 -0.2065
-4 -8 7 0.2399 -0.2584
-4 -7 1 3.3982 -0.1825
-4 -7 2 3.6966 -0.2648
-4 -7 3 2.8217 -0.3350
-4 -7 4 1.2430 -0.3628
-4 -7 5 -0.2418 -0.3299
-4 -7 6 -0.9737 -0.2401
-4 -7 7 -0.7687 -0.1189
-4 -7 8 0.0584 -0.0030
-4 -6 1 1.0639 -0.6591
-4 -6 2 -0.5564 -0.6060
-4 -6 3 -1.9015 -0.4947
-4 -6 4 -2.5128 -0.3481
-4 -6 5 -2.3929 -0.1950
-4 -6 6 -1.9384 -0.0609
-4 -6 7 -1.6334 0.0388
-4 -6 8 -1.7318 0.0992
-4 -6 9 -2.1308 0.1234
-4 -5 1 -1.2678 -0.3912
-4 -5 2 -0.6307 -0.3113
-4 -5 3 0.0510 -0.2136
-4 -5 4 0.4405 -0.1032
-4 -5 5 0.3338 0.0125
-4 -5 6 -0.1777 0.1212
-4 -5 7 -0.7611 0.2060
-4 -5 8 -1.0638 0.2504
-4 -5 9 -0.9339 0.2465
-4 -4 1 1.4954 0.2311
-4 -4 2 1.8672 0.2722
-4 -4 3 2.3097 0.2899
-4 -4 4 2.7328 0.2827
-4 -4 5 2.9992 0.2496
-4 -4 6 2.9352 0.1897
-4 -4 7 2.4015 0.1063
-4 -4 8 1.4051 0.0111
-4 -4 9 0.1724 -0.0757
-4 -4 10 -0.9024 -0.1320
-4 -3 1 0.8092 0.6325
-4 -3 2 0.9134 0.5860
-4 -3 3 0.8277 0.5066
-4 -3 4 0.6040 0.3937
-4 -3 5 0.4076 0.2526
-4 -3 6 0.4175 0.0990
-4 -3 7 0.7421 -0.0414
-4 -3 8 1.3605 -0.1409
-4 -3 9 2.1002 -0.1815
-4 -3 10 2.6715 -0.1638
-4 -2 1 -3.4374 0.3827
-4 -2 2 -2.6069 0.2849
-4 -2 3 -1.5595 0.1858
-4 -2 4 -0.6137 0.0923
-4 -2 5 0.0330 0.0095
-4 -2 6 0.4228 -0.0548
-4 -2 7 0.7619 -0.0916
-4 -2 8 1.2157 -0.0962
-4 -2 9 1.7428 -0.0734
-4 -2 10 2.1042 -0.0371
-4 -1 1 0.3112 -0.2532
-4 -1 2 -0.1387 -0.2501
-4 -1 3 -0.8529 -0.2351
-4 -1 4 -1.4322 -0.2123
-4 -1 5 -1.6038 -0.1792
-4 -1 6 -1.3994 -0.1324
-4 -1 7 -1.1259 -0.0746
-4 -1 8 -1.1320 -0.0170
-4 -1 9 -1.5262 0.0252
-4 -1 10 -2.0560 0.0415
-4 0 1 3.6880 -0.5672
-4 0 2 1.8238 -0.5009
-4 0 3 0.3995 -0.4292
-4 0 4 -0.3035 -0.3439
-4 0 5 -0.2767 -0.2376
-4 0 6 0.2164 -0.1155
-4 0 7 0.7887 0.0024
-4 0 8 1.1249 0.0900
-4 0 9 1.1033 0.1298
-4 0 10 0.7872 0.1214
-4 1 1 -2.3765 -0.2914
-4 1 2 -1.3306 -0.2386
-4 1 3 -0.6070 -0.1756
-4 1 4 -0.7382 -0.1071
-4 1 5 -1.9623 -0.0464
-4 1 6 -3.9914 -0.0066
-4 1 7 -6.0690 0.0082
-4 1 8 -7.3192 0.0066
-4 1 9 -7.1917 0.0035
-4 1 10 -5.7399 0.0094
-4 2 1 -1.7728 0.2868
-4 2 2 -1.7533 0.2676
-4 2 3 -1.6909 0.2411
-4 2 4 -1.3803 0.2068
-4 2 5 -0.6585 0.1630
-4 2 6 0.4624 0.1122
-4 2 7 1.7348 0.0613
-4 2 8 2.7488 0.0187
-4 2 9 3.1211 -0.0108
-4 2 10 2.7003 -0.0261
-4 3 1 2.0047 0.4574
-4 3 2 2.7306 0.3951
-4 3 3 3.3908 0.3291
-4 3 4 3.8561 0.2609
-4 3 5 4.1177 0.1916
-4 3 6 4.2271 0.1232
-4 3 7 4.2119 0.0583
-4 3 8 4.0410 0.0007
-4 3 9 3.6627 -0.0446
-4 3 10 3.0739 -0.0711
-4 4 1 0.1034 0.1178
-4 4 2 0.9261 0.0901
-4 4 3 1.8607 0.0688
-4 4 4 2.7775 0.0484
-4 4 5 3.4944 0.0255
-4 4 6 3.7937 0.0007
-4 4 7 3.5189 -0.0209
-4 4 8 2.6886 -0.0327
-4 4 9 1.5332 -0.0309
-4 5 1 0.4074 -0.2385
-4 5 2 -1.4785 -0.2123
-4 5 3 -3.3155 -0.1990
-4 5 4 -4.3535 -0.1939
-4 5 5 -4.3570 -0.1830
-4 5 6 -3.5650 -0.1535
-4 5 7 -2.4250 -0.1025
-4 5 8 -1.3186 -0.0406
-4 5 9 -0.4363 0.0136
-4 6 1 -0.6698 -0.3479
-4 6 2 -0.2906 -0.2921
-4 6 3 0.1021 -0.2279
-4 6 4 -0.4294 -0.1592
-4 6 5 -2.1739 -0.0908
-4 6 6 -4.5622 -0.0292
-4 6 7 -6.5214 0.0185
-4 6 8 -7.1281 0.0475
-4 7 1 -2.8183 -0.0426
-4 7 2 -1.6809 -0.0445
-4 7 3 -0.9220 -0.0352
-4 7 4 -0.4728 -0.0100
-4 7 5 0.0565 0.0212
-4 7 6 0.8904 0.0411
-4 7 7 1.8189 0.0381
-4 8 1 10.3021 0.2609
-4 8 2 7.0711 0.2532
-4 8 3 3.7065 0.2195
-4 8 4 1.7942 0.1608
-4 8 5 1.6604 0.0864
-4 8 6 2.5223 0.0127
-4 9 1 -12.6012 0.1701
-4 9 2 -9.4968 0.1611
-4 9 3 -4.8961 0.1572
-4 9 4 -0.9214 0.1499
-4 9 5 1.0585 0.1379
-4 10 1 2.5145 0.0364
-4 10 2 3.0888 -0.0285
-3 -11 1 0.7194 -0.3901
-3 -11 2 -1.9572 -0.4152
-3 -11 3 -3.5856 -0.3873
-3 -10 1 0.1275 -0.4590
-3 -10 2 -0.0242 -0.4548
-3 -10 3 -0.0037 -0.4098
-3 -10 4 0.1710 -0.3214
-3 -10 5 0.4748 -0.1941
-3 -9 1 4.1661 -0.2434
-3 -9 2 7.1729 -0.1756
-3 -9 3 8.2142 -0.0833
-3 -9 4 7.3314 0.0307
-3 -9 5 5.0984 0.1505
-3 -9 6 2.3438 0.2466
-3 -9 7 -0.1284 0.2869
-3 -8 1 -3.1438 0.2255
-3 -8 2 -5.0598 0.3019
-3 -8 3 -5.7018 0.3649
-3 -8 4 -4.9120 0.3822
-3 -8 5 -3.1252 0.3283
-3 -8 6 -1.0906 0.2009
-3 -8 7 0.5033 0.0291
-3 -8 8 1.2904 -0.1345
-3 -7 1 -2.1884 0.6031
-3 -7 2 -1.5236 0.5935
-3 -7 3 -0.2828 0.5245
-3 -7 4 0.8650 0.3937
-3 -7 5 1.4742 0.2189
-3 -7 6 1.5023 0.0368
-3 -7 7 1.2134 -0.1091
-3 -7 8 0.9313 -0.1857
-3 -7 9 0.8316 -0.1854
-3 -6 1 1.1049 0.4088
-3 -6 2 0.7964 0.3232
-3 -6 3 -0.0262 0.1967
-3 -6 4 -1.0165 0.0515
-3 -6 5 -1.6699 -0.0784
-3 -6 6 -1.6351 -0.1602
-3 -6 7 -0.9028 -0.1777
-3 -6 8 0.2261 -0.1394
-3 -6 9 1.3298 -0.0741
-3 -5 1 0.4981 -0.2483
-3 -5 2 -0.3883 -0.3430
-3 -5 3 -1.5634 -0.4080
-3 -5 4 -2.5607 -0.4182
-3 -5 5 -3.0757 -0.3607
-3 -5 6 -3.0613 -0.2428
-3 -5 7 -2.6724 -0.0931
-3 -5 8 -2.1410 0.0486
-3 -5 9 -1.6678 0.1470
-3 -5 10 -1.3631 0.1849
-3 -4 1 -1.8711 -0.6942
-3 -4 2 -1.1355 -0.6968
-3 -4 3 -0.2430 -0.6404
-3 -4 4 0.5933 -0.5130
-3 -4 5 1.0822 -0.3279
-3 -4 6 1.0383 -0.1230
-3 -4 7 0.4806 0.0534
-3 -4 8 -0.3914 0.1634
-3 -4 9 -1.2936 0.1945
-3 -4 10 -1.9561 0.1617
-3 -3 1 3.6093 -0.5088
-3 -3 2 3.7231 -0.3746
-3 -3 3 3.9526 -0.2115
-3 -3 4 4.0038 -0.0532
-3 -3 5 3.5399 0.0632
-3 -3 6 2.3119 0.1132
-3 -3 7 0.3097 0.0946
-3 -3 8 -2.1383 0.0295
-3 -3 9 -4.4086 -0.0466
-3 -3 10 -5.8076 -0.1004
-3 -3 11 -5.8939 -0.1141
-3 -2 1 2.2996 0.3559
-3 -2 2 2.5813 0.4354
-3 -2 3 2.6551 0.4793
-3 -2 4 2.5097 0.4635
-3 -2 5 2.4240 0.3835
-3 -2 6 2.8348 0.2577
-3 -2 7 4.0749 0.1211
-3 -2 8 6.1037 0.0100
-3 -2 9 8.3888 -0.0521
-3 -2 10 10.0488 -0.0626
-3 -2 11 10.2384 -0.0369
-3 -1 1 -7.6786 0.6689
-3 -1 2 -7.0935 0.6215
-3 -1 3 -6.2018 0.5509
-3 -1 4 -5.0550 0.4530
-3 -1 5 -3.7294 0.3306
-3 -1 6 -2.3089 0.1973
-3 -1 7 -0.9079 0.0739
-3 -1 8 0.3061 -0.0190
-3 -1 9 1.1435 -0.0700
-3 -1 10 1.4871 -0.0806
-3 -1 11 1.3878 -0.0640
-3 0 1 2.9055 0.2601
-3 0 2 2.1612 0.1841
-3 0 3 0.9551 0.0890
-3 0 4 -0.2549 -0.0054
-3 0 5 -1.1574 -0.0742
-3 0 6 -1.7753 -0.0989
-3 0 7 -2.4057 -0.0779
-3 0 8 -3.3414 -0.0283
-3 0 9 -4.5702 0.0223
-3 0 10 -5.6812 0.0502
-3 0 11 -6.0726 0.0465
-3 1 1 3.9381 -0.1388
-3 1 2 2.3236 -0.1998
-3 1 3 1.2675 -0.2812
-3 1 4 0.7773 -0.3414
-3 1 5 0.6600 -0.3453
-3 1 6 0.6783 -0.2831
-3 1 7 0.6980 -0.1752
-3 1 8 0.7282 -0.0600
-3 1 9 0.8381 0.0258
-3 1 10 1.0259 0.0634
-3 1 11 1.1578 0.0566
-3 2 1 -3.8716 -0.4731
-3 2 2 -2.6166 -0.4525
-3 2 3 -1.4788 -0.3884
-3 2 4 -0.9491 -0.2900
-3 2 5 -1.3003 -0.1839
-3 2 6 -2.4108 -0.0993
-3 2 7 -3.7880 -0.0514
-3 2 8 -4.7984 -0.0342
-3 2 9 -4.9782 -0.0272
-3 2 10 -4.2507 -0.0111
-3 2 11 -2.9293 0.0188
-3 3 1 -1.4431 -0.3115
-3 3 2 -1.2644 -0.2407
-3 3 3 -1.2276 -0.1382
-3 3 4 -1.0777 -0.0357
-3 3 5 -0.5147 0.0378
-3 3 6 0.6049 0.0686
-3 3 7 2.1244 0.0608
-3 3 8 3.6060 0.0296
-3 3 9 4.5231 -0.0083
-3 3 10 4.5256 -0.0408
-3 3 11 3.6253 -0.0610
-3 4 1 3.3836 0.1199
-3 4 2 4.2647 0.1611
-3 4 3 4.5955 0.1975
-3 4 4 4.2519 0.2160
-3 4 5 3.3255 0.2109
-3 4 6 2.0788 0.1835
-3 4 7 0.8322 0.1392
-3 4 8 -0.1491 0.0841
-3 4 9 -0.7186 0.0259
-3 4 10 -0.8537 -0.0259
-3 5 1 -2.0380 0.3494
-3 5 2 -2.5910 0.3100
-3 5 3 -1.9994 0.2478
-3 5 4 -0.1921 0.1753
-3 5 5 2.4199 0.1058
-3 5 6 5.0437 0.0491
-3 5 7 6.8165 0.0105
-3 5 8 7.1816 -0.0079
-3 5 9 6.1245 -0.0072
-3 5 10 4.1425 0.0081
-3 6 1 2.6472 0.1766
-3 6 2 2.3392 0.1477
-3 6 3 1.2328 0.0920
-3 6 4 -0.2904 0.0236
-3 6 5 -1.8646 -0.0361
-3 6 6 -3.1816 -0.0662
-3 6 7 -3.9800 -0.0564
-3 6 8 -4.0715 -0.0121
-3 6 9 -3.4229 0.0470
-3 7 1 -3.7117 -0.1011
-3 7 2 -3.4553 -0.1043
-3 7 3 -2.8924 -0.1019
-3 7 4 -2.9790 -0.0936
-3 7 5 -4.0862 -0.0797
-3 7 6 -5.7938 -0.0619
-3 7 7 -7.1947 -0.0433
-3 7 8 -7.4749 -0.0279
-3 7 9 -6.3825 -0.0182
-3 8 1 3.8525 -0.1953
-3 8 2 2.9691 -0.2235
-3 8 3 1.6032 -0.2305
-3 8 4 0.5631 -0.2037
-3 8 5 0.4984 -0.1496
-3 8 6 1.4484 -0.0900
-3 8 7 2.7874 -0.0490
-3 8 8 3.6148 -0.0389
-3 9 1 2.3440 -0.1114
-3 9 2 1.3144 -0.0560
-3 9 3 0.5432 0.0150
-3 9 4 0.6814 0.0759
-3 9 5 1.5898 0.1066
-3 9 6 2.5830 0.1017
-3 10 1 -11.8365 0.0848
-3 10 2 -8.6174 0.1465
-3 10 3 -4.3874 0.1914
-3 10 4 -0.9568 0.2020
-3 11 1 8.4284 0.2521
-2 -12 1 -0.5037 0.3643
-2 -11 1 0.4552 0.4456
-2 -11 2 0.8665 0.3822
-2 -11 3 1.2241 0.2722
-2 -11 4 1.2609 0.1402
-2 -10 1 -1.9050 0.1165
-2 -10 2 -6.7316 0.0275
-2 -10 3 -9.9318 -0.0524
-2 -10 4 -10.9836 -0.1173
-2 -10 5 -9.9789 -0.1631
-2 -10 6 -7.4963 -0.1816
-2 -9 1 0.7211 -0.1896
-2 -9 2 3.1535 -0.2577
-2 -9 3 4.9072 -0.3117
-2 -9 4 5.8139 -0.3261
-2 -9 5 5.9337 -0.2810
-2 -9 6 5.3991 -0.1744
-2 -9 7 4.3261 -0.0308
-2 -9 8 2.8468 0.1043
-2 -8 1 3.7198 -0.5665
-2 -8 2 5.6791 -0.5406
-2 -8 3 6.5538 -0.4677
-2 -8 4 6.1320 -0.3411
-2 -8 5 4.5316 -0.1725
-2 -8 6 2.1812 0.0042
-2 -8 7 -0.2598 0.1431
-2 -8 8 -2.0851 0.2072
-2 -8 9 -2.8032 0.1876
-2 -7 1 -2.6853 -0.4416
-2 -7 2 -4.1589 -0.3329
-2 -7 3 -4.9227 -0.1749
-2 -7 4 -4.8467 0.0019
-2 -7 5 -4.0616 0.1497
-2 -7 6 -2.8363 0.2227
-2 -7 7 -1.4773 0.2013
-2 -7 8 -0.2875 0.1047
-2 -7 9 0.4626 -0.0159
-2 -6 1 -0.9206 0.1479
-2 -6 2 -0.3484 0.2902
-2 -6 3 0.5887 0.4195
-2 -6 4 1.5730 0.4784
-2 -6 5 2.3602 0.4290
-2 -6 6 2.8255 0.2762
-2 -6 7 2.9323 0.0698
-2 -6 8 2.6978 -0.1171
-2 -6 9 2.1990 -0.2234
-2 -6 10 1.5882 -0.2286
-2 -5 1 1.9256 0.7623
-2 -5 2 0.4996 0.7687
-2 -5 3 -0.9688 0.6785
-2 -5 4 -2.1127 0.4851
-2 -5 5 -2.6508 0.2291
-2 -5 6 -2.5099 -0.0147
-2 -5 7 -1.8235 -0.1728
-2 -5 8 -0.8272 -0.2103
-2 -5 9 0.2544 -0.1463
-2 -5 10 1.2498 -0.0407
-2 -5 11 2.0115 0.0420
-2 -4 1 -2.2899 0.6969
-2 -4 2 -2.1197 0.4979
-2 -4 3 -2.2621 0.2279
-2 -4 4 -2.5414 -0.0349
-2 -4 5 -2.6617 -0.2086
-2 -4 6 -2.3286 -0.2473
-2 -4 7 -1.3959 -0.1646
-2 -4 8 0.0170 -0.0242
-2 -4 9 1.5165 0.0961
-2 -4 10 2.5783 0.1446
-2 -4 11 2.8025 0.1168
-2 -3 1 -3.8821 -0.1012
-2 -3 2 -2.6061 -0.3230
-2 -3 3 -1.2279 -0.4936
-2 -3 4 0.0390 -0.5384
-2 -3 5 0.8284 -0.4422
-2 -3 6 0.7602 -0.2540
-2 -3 7 -0.3650 -0.0577
-2 -3 8 -2.4087 0.0742
-2 -3 9 -4.8568 0.1143
-2 -3 10 -6.9485 0.0839
-2 -3 11 -7.9469 0.0298
-2 -3 12 -7.4516 -0.0074
-2 -2 1 9.3733 -0.9259
-2 -2 2 8.9919 -0.8685
-2 -2 3 8.3059 -0.6931
-2 -2 4 7.1738 -0.4439
-2 -2 5 5.4399 -0.1961
-2 -2 6 3.0563 -0.0182
-2 -2 7 0.2030 0.0611
-2 -2 8 -2.6721 0.0593
-2 -2 9 -4.9558 0.0221
-2 -2 10 -6.1055 -0.0069
-2 -2 11 -5.9112 -0.0076
-2 -2 12 -4.6323 0.0143
-2 -1 1 0.5628 -0.8869
-2 -1 2 0.3853 -0.5655
-2 -1 3 0.4523 -0.2115
-2 -1 4 0.7355 0.0683
-2 -1 5 1.4330 0.2118
-2 -1 6 2.9159 0.2201
-2 -1 7 5.4661 0.1439
-2 -1 8 8.9460 0.0491
-2 -1 9 12.6277 -0.0165
-2 -1 10 15.3544 -0.0379
-2 -1 11 16.0196 -0.0269
-2 -1 12 14.1339 -0.0050
-2 0 1 -11.1663 0.1009
-2 0 2 -10.5811 0.2320
-2 0 3 -9.5700 0.3187
-2 0 4 -8.2274 0.3389
-2 0 5 -6.6737 0.2988
-2 0 6 -5.1157 0.2228
-2 0 7 -3.8454 0.1384
-2 0 8 -3.1362 0.0654
-2 0 9 -3.0792 0.0131
-2 0 10 -3.4664 -0.0167
-2 0 11 -3.8313 -0.0270
-2 0 12 -3.6659 -0.0232
-2 1 1 6.0803 1.0293
-2 1 2 5.6832 0.8654
-2 1 3 4.4480 0.6108
-2 1 4 2.9138 0.3384
-2 1 5 1.5481 0.1171
-2 1 6 0.5181 -0.0136
-2 1 7 -0.3091 -0.0537
-2 1 8 -1.1622 -0.0338
-2 1 9 -2.1186 0.0035
-2 1 10 -2.9957 0.0248
-2 1 11 -3.4574 0.0167
-2 1 12 -3.2530 -0.0131
-2 2 1 4.2612 0.8770
-2 2 2 2.6854 0.6689
-2 2 3 1.6275 0.4069
-2 2 4 1.0113 0.1555
-2 2 5 0.5172 -0.0343
-2 2 6 -0.1424 -0.1389
-2 2 7 -1.0055 -0.1630
-2 2 8 -1.8414 -0.1315
-2 2 9 -2.3297 -0.0759
-2 2 10 -2.2961 -0.0227
-2 2 11 -1.8371 0.0126
-2 2 12 -1.2495 0.0258
-2 3 1 -5.3150 -0.1760
-2 3 2 -4.4988 -0.2368
-2 3 3 -3.2502 -0.2384
-2 3 4 -2.0309 -0.1906
-2 3 5 -1.2116 -0.1223
-2 3 6 -0.9096 -0.0645
-2 3 7 -0.9752 -0.0341
-2 3 8 -1.1152 -0.0276
-2 3 9 -1.0705 -0.0271
-2 3 10 -0.7465 -0.0149
-2 3 11 -0.2378 0.0149
-2 3 12 0.2480 0.0526
-2 4 1 -1.1548 -0.9035
-2 4 2 0.0470 -0.7914
-2 4 3 0.3957 -0.6011
-2 4 4 -0.0056 -0.3828
-2 4 5 -0.6275 -0.1855
-2 4 6 -0.8349 -0.0418
-2 4 7 -0.2521 0.0376
-2 4 8 1.0330 0.0594
-2 4 9 2.5272 0.0398
-2 4 10 3.6039 -0.0022
-2 4 11 3.8297 -0.0480
-2 5 1 3.4527 -0.6433
-2 5 2 3.5624 -0.4981
-2 5 3 3.5330 -0.3288
-2 5 4 3.5552 -0.1716
-2 5 5 3.6316 -0.0520
-2 5 6 3.5894 0.0186
-2 5 7 3.2034 0.0417
-2 5 8 2.3565 0.0269
-2 5 9 1.1456 -0.0111
-2 5 10 -0.1271 -0.0552
-2 5 11 -1.0781 -0.0897
-2 6 1 -2.7153 0.1418
-2 6 2 -3.9337 0.1657
-2 6 3 -3.4957 0.1478
-2 6 4 -1.4291 0.1053
-2 6 5 1.6220 0.0612
-2 6 6 4.6537 0.0326
-2 6 7 6.7084 0.0258
-2 6 8 7.2489 0.0370
-2 6 9 6.3319 0.0577
-2 6 10 4.5064 0.0781
-2 7 1 3.1914 0.6178
-2 7 2 4.7652 0.5546
-2 7 3 4.3923 0.4368
-2 7 4 1.9477 0.2913
-2 7 5 -1.9234 0.1505
-2 7 6 -6.0417 0.0435
-2 7 7 -9.1300 -0.0111
-2 7 8 -10.2905 -0.0113
-2 7 9 -9.3337 0.0277
-2 8 1 -0.9493 0.4095
-2 8 2 -2.0827 0.3284
-2 8 3 -2.7102 0.2339
-2 8 4 -2.9887 0.1369
-2 8 5 -3.0514 0.0470
-2 8 6 -2.9168 -0.0275
-2 8 7 -2.5403 -0.0804
-2 8 8 -1.9303 -0.1093
-2 8 9 -1.2130 -0.1149
-2 9 1 2.5151 -0.0654
-2 9 2 0.4310 -0.1269
-2 9 3 -1.2712 -0.1583
-2 9 4 -1.8035 -0.1443
-2 9 5 -0.9560 -0.0879
-2 9 6 0.7870 -0.0115
-2 9 7 2.5061 0.0541
-2 10 1 -5.9761 -0.4149
-2 10 2 -4.1666 -0.3292
-2 10 3 -1.9596 -0.1948
-2 10 4 0.1528 -0.0539
-2 10 5 1.6745 0.0520
-2 10 6 2.3360 0.0991
-2 11 1 -0.1479 -0.2054
-2 11 2 1.9462 -0.1111
-2 11 3 3.4320 -0.0320
-2 11 4 3.6637 0.0120
-1 -12 1 2.3590 -0.4350
-1 -12 2 2.8259 -0.3596
-1 -11 1 -0.0495 -0.0720
-1 -11 2 3.7211 0.0461
-1 -11 3 5.5826 0.1356
-1 -11 4 5.7678 0.1774
-1 -11 5 4.9276 0.1694
-1 -10 1 0.0202 0.3238
-1 -10 2 -2.6926 0.3525
-1 -10 3 -4.0602 0.3586
-1 -10 4 -4.2553 0.3292
-1 -10 5 -3.8121 0.2572
-1 -10 6 -3.2410 0.1481
-1 -10 7 -2.7578 0.0235
-1 -9 1 -1.9877 0.7016
-1 -9 2 -4.6818 0.6147
-1 -9 3 -6.5128 0.4719
-1 -9 4 -7.1781 0.2876
-1 -9 5 -6.6289 0.0933
-1 -9 6 -5.0584 -0.0687
-1 -9 7 -2.9031 -0.1587
-1 -9 8 -0.7750 -0.1589
-1 -8 1 1.9903 0.3981
-1 -8 2 4.4591 0.2356
-1 -8 3 5.7720 0.0449
-1 -8 4 6.0834 -0.1268
-1 -8 5 5.7928 -0.2332
-1 -8 6 5.1868 -0.2474
-1 -8 7 4.2963 -0.1759
-1 -8 8 3.0304 -0.0586
-1 -8 9 1.4316 0.0480
-1 -7 1 0.9680 -0.3843
-1 -7 2 1.3132 -0.4749
-1 -7 3 1.9846 -0.5271
-1 -7 4 2.5496 -0.5025
-1 -7 5 2.4562 -0.3868
-1 -7 6 1.3976 -0.2020
-1 -7 7 -0.4088 -0.0010
-1 -7 8 -2.2532 0.1547
-1 -7 9 -3.3012 0.2239
-1 -7 10 -3.0844 0.2042
-1 -6 1 -2.8892 -1.0494
-1 -6 2 -2.5726 -0.9484
-1 -6 3 -2.3654 -0.7384
-1 -6 4 -2.5036 -0.4439
-1 -6 5 -2.9165 -0.1285
-1 -6 6 -3.2157 0.1243
-1 -6 7 -2.9477 0.2472
-1 -6 8 -1.9443 0.2224
-1 -6 9 -0.5085 0.0916
-1 -6 10 0.7242 -0.0651
-1 -6 11 1.1780 -0.1699
-1 -5 1 0.9781 -0.8262
-1 -5 2 0.9073 -0.5661
-1 -5 3 0.7800 -0.2313
-1 -5 4 0.8613 0.0740
-1 -5 5 1.3666 0.2526
-1 -5 6 2.2441 0.2608
-1 -5 7 3.1250 0.1312
-1 -5 8 3.5111 -0.0452
-1 -5 9 3.0954 -0.1682
-1 -5 10 1.9948 -0.1804
-1 -5 11 0.7162 -0.0926
-1 -4 1 4.8496 0.4173
-1 -4 2 2.3490 0.6023
-1 -4 3 0.1304 0.6871
-1 -4 4 -1.2656 0.6123
-1 -4 5 -1.6733 0.3941
-1 -4 6 -1.2966 0.1198
-1 -4 7 -0.5290 -0.0984
-1 -4 8 0.2812 -0.1847
-1 -4 9 0.9707 -0.1377
-1 -4 10 1.5373 -0.0227
-1 -4 11 2.0044 0.0727
-1 -4 12 2.3075 0.0919
-1 -3 1 -7.8437 1.4924
-1 -3 2 -6.5063 1.3325
-1 -3 3 -4.8281 0.9822
-1 -3 4 -3.2803 0.5386
-1 -3 5 -2.1375 0.1379
-1 -3 6 -1.3654 -0.1123
-1 -3 7 -0.6966 -0.1837
-1 -3 8 0.1423 -0.1314
-1 -3 9 1.1963 -0.0503
-1 -3 10 2.2037 -0.0163
-1 -3 11 2.7423 -0.0474
-1 -3 12 2.5149 -0.1080
-1 -2 1 -2.6656 1.4319
-1 -2 2 -0.7260 0.9139
-1 -2 3 0.6356 0.3614
-1 -2 4 1.2177 -0.0481
-1 -2 5 0.9135 -0.2246
-1 -2 6 -0.3017 -0.1930
-1 -2 7 -2.3315 -0.0584
-1 -2 8 -4.8891 0.0650
-1 -2 9 -7.4633 0.1144
-1 -2 10 -9.3917 0.0949
-1 -2 11 -10.0601 0.0528
-1 -2 12 -9.1641 0.0311
-1 -1 1 13.2140 -0.7707
-1 -1 2 12.1188 -0.8919
-1 -1 3 10.4411 -0.8069
-1 -1 4 8.5208 -0.5572
-1 -1 5 6.6573 -0.2536
-1 -1 6 5.0565 -0.0117
-1 -1 7 3.8183 0.1071
-1 -1 8 2.9515 0.1144
-1 -1 9 2.3979 0.0690
-1 -1 10 2.0519 0.0305
-1 -1 11 1.7788 0.0252
-1 -1 12 1.4439 0.0427
-1 0 1 -2.9072 -2.4820
-1 0 2 -4.0408 -1.9255
-1 0 3 -4.2943 -1.2208
-1 0 4 -3.7696 -0.5763
-1 0 5 -2.6434 -0.1341
-1 0 6 -1.0356 0.0733
-1 0 7 0.9892 0.1060
-1 0 8 3.3018 0.0613
-1 0 9 5.5852 0.0165
-1 0 10 7.3346 0.0025
-1 0 11 8.0297 0.0113
-1 0 12 7.3970 0.0227
-1 1 1 -12.2574 -0.7316
-1 1 2 -10.9624 -0.4428
-1 1 3 -9.1275 -0.2286
-1 1 4 -7.1476 -0.1111
-1 1 5 -5.3225 -0.0620
-1 1 6 -3.8867 -0.0371
-1 1 7 -3.0243 -0.0088
-1 1 8 -2.8157 0.0226
-1 1 9 -3.1482 0.0412
-1 1 10 -3.6834 0.0356
-1 1 11 -3.9560 0.0111
-1 1 12 -3.5876 -0.0150
-1 2 1 8.8498 1.3841
-1 2 2 8.8587 1.1926
-1 2 3 7.4722 0.8568
-1 2 4 5.3320 0.4897
-1 2 5 3.2228 0.1893
-1 2 6 1.7453 0.0039
-1 2 7 1.1306 -0.0720
-1 2 8 1.2431 -0.0769
-1 2 9 1.7239 -0.0553
-1 2 10 2.1820 -0.0375
-1 2 11 2.3452 -0.0348
-1 2 12 2.1290 -0.0443
-1 3 1 3.9377 1.6277
-1 3 2 2.0142 1.3456
-1 3 3 0.6631 0.9963
-1 3 4 -0.0272 0.6454
-1 3 5 -0.4196 0.3392
-1 3 6 -1.0440 0.1043
-1 3 7 -2.2457 -0.0471
-1 3 8 -3.9756 -0.1147
-1 3 9 -5.8185 -0.1104
-1 3 10 -7.2134 -0.0581
-1 3 11 -7.7233 0.0106
-1 3 12 -7.2118 0.0658
-1 4 1 -6.4071 0.4674
-1 4 2 -5.5619 0.3339
-1 4 3 -3.9652 0.2362
-1 4 4 -2.2091 0.1735
-1 4 5 -0.8001 0.1321
-1 4 6 0.0681 0.0980
-1 4 7 0.5360 0.0634
-1 4 8 0.9208 0.0290
-1 4 9 1.4923 0.0004
-1 4 10 2.3062 -0.0162
-1 4 11 3.1695 -0.0180
-1 4 12 3.7408 -0.0074
-1 5 1 -0.1079 -0.9430
-1 5 2 1.4664 -0.8528
-1 5 3 1.6333 -0.6658
-1 5 4 0.3872 -0.4327
-1 5 5 -1.5312 -0.2068
-1 5 6 -3.0631 -0.0297
-1 5 7 -3.3904 0.0767
-1 5 8 -2.3292 0.1113
-1 5 9 -0.3769 0.0894
-1 5 10 1.5815 0.0358
-1 5 11 2.7332 -0.0231
-1 6 1 2.4564 -1.2164
-1 6 2 1.7574 -1.0323
-1 6 3 2.0050 -0.7837
-1 6 4 3.7537 -0.5232
-1 6 5 6.7346 -0.2963
-1 6 6 9.9424 -0.1321
-1 6 7 12.1068 -0.0393
-1 6 8 12.2952 -0.0095
-1 6 9 10.3449 -0.0224
-1 6 10 6.9219 -0.0548
-1 6 11 3.1990 -0.0860
-1 7 1 -3.9737 -0.3532
-1 7 2 -4.9140 -0.2641
-1 7 3 -4.6610 -0.2106
-1 7 4 -3.6503 -0.1811
-1 7 5 -2.5923 -0.1532
-1 7 6 -2.0863 -0.1085
-1 7 7 -2.3307 -0.0423
-1 7 8 -3.0633 0.0352
-1 7 9 -3.7415 0.1048
-1 7 10 -3.8529 0.1484
-1 8 1 6.9254 0.6125
-1 8 2 9.4929 0.5521
-1 8 3 9.0351 0.4218
-1 8 4 5.3565 0.2540
-1 8 5 -0.4456 0.0845
-1 8 6 -6.4627 -0.0541
-1 8 7 -10.7852 -0.1393
-1 8 8 -12.2622 -0.1628
-1 8 9 -10.8840 -0.1322
-1 9 1 -0.3360 0.7511
-1 9 2 -2.7525 0.6480
-1 9 3 -4.0972 0.5137
-1 9 4 -3.7627 0.3674
-1 9 5 -1.8173 0.2266
-1 9 6 1.0250 0.1060
-1 9 7 3.7088 0.0152
-1 9 8 5.2830 -0.0415
-1 10 1 -5.3175 0.2804
-1 10 2 -7.7450 0.2062
-1 10 3 -8.4054 0.1513
-1 10 4 -7.1142 0.1290
-1 10 5 -4.4476 0.1386
-1 10 6 -1.4428 0.1641
-1 10 7 0.8958 0.1824
-1 11 1 -0.8697 -0.3910
-1 11 2 2.8612 -0.3218
-1 11 3 5.8133 -0.1978
-1 11 4 7.0434 -0.0611
-1 11 5 6.3832 0.0448
0 -12 1 -2.8307 -0.0087
0 -12 2 -3.9305 -0.0974
0 -11 1 1.9854 -0.5423
0 -11 2 4.4420 -0.5141
0 -11 3 5.4714 -0.4427
0 -11 4 5.0579 -0.3411
0 -11 5 3.7183 -0.2266
0 -10 1 0.6914 -0.6138
0 -10 2 2.5045 -0.4879
0 -10 3 2.4414 -0.3228
0 -10 4 1.1343 -0.1443
0 -10 5 -0.4630 0.0170
0 -10 6 -1.5574 0.1313
0 -10 7 -1.8063 0.1781
0 -9 1 0.2767 -0.0293
0 -9 2 -3.2579 0.1134
0 -9 3 -4.3225 0.2582
0 -9 4 -3.2477 0.3585
0 -9 5 -1.1545 0.3768
0 -9 6 0.7225 0.3026
0 -9 7 1.6418 0.1598
0 -9 8 1.5816 -0.0007
0 -8 1 -0.8548 0.8805
0 -8 2 -0.1007 0.8546
0 -8 3 0.2234 0.7329
0 -8 4 -0.0282 0.5250
0 -8 5 -0.6373 0.2732
0 -8 6 -1.1523 0.0405
0 -8 7 -1.2019 -0.1142
0 -8 8 -0.7602 -0.1611
0 -8 9 -0.1664 -0.1119
0 -7 1 2.3214 1.0439
0 -7 2 2.3142 0.8256
0 -7 3 1.2434 0.5380
0 -7 4 -0.0702 0.2434
0 -7 5 -0.7756 0.0051
0 -7 6 -0.5402 -0.1330
0 -7 7 0.2977 -0.1612
0 -7 8 1.0322 -0.1062
0 -7 9 1.1081 -0.0178
0 -7 10 0.4857 0.0533
0 -6 1 -1.6407 0.2071
0 -6 2 -1.6006 0.0031
0 -6 3 -0.1915 -0.1926
0 -6 4 1.8507 -0.3160
0 -6 5 3.3376 -0.3276
0 -6 6 3.3133 -0.2300
0 -6 7 1.6311 -0.0684
0 -6 8 -0.9387 0.0893
0 -6 9 -3.1488 0.1841
0 -6 10 -3.9932 0.1914
0 -6 11 -3.2581 0.1292
0 -5 1 -4.2625 -1.1881
0 -5 2 -2.8714 -1.1514
0 -5 3 -2.0140 -0.9826
0 -5 4 -2.2147 -0.6944
0 -5 5 -3.3224 -0.3481
0 -5 6 -4.5352 -0.0370
0 -5 7 -4.8503 0.1521
0 -5 8 -3.6804 0.1789
0 -5 9 -1.2478 0.0699
0 -5 10 1.5027 -0.0957
0 -5 11 3.4326 -0.2265
0 -4 1 4.3476 -1.6460
0 -4 2 3.9808 -1.3576
0 -4 3 2.8836 -0.9240
0 -4 4 1.7700 -0.4605
0 -4 5 1.3613 -0.0923
0 -4 6 1.9158 0.1022
0 -4 7 3.0339 0.1261
0 -4 8 3.8845 0.0553
0 -4 9 3.7245 -0.0086
0 -4 10 2.3826 0.0034
0 -4 11 0.3914 0.0939
0 -4 12 -1.3252 0.2073
0 -3 1 5.7110 -0.4701
0 -3 2 2.6380 -0.1095
0 -3 3 0.2635 0.1983
0 -3 4 -0.7604 0.3403
0 -3 5 -0.3953 0.2878
0 -3 6 0.8326 0.1069
0 -3 7 2.1422 -0.0855
0 -3 8 2.8929 -0.1901
0 -3 9 2.8516 -0.1771
0 -3 10 2.2058 -0.0908
0 -3 11 1.3573 -0.0090
0 -3 12 0.6545 0.0110
0 -2 1 -11.3799 1.6964
0 -2 2 -9.2080 1.6269
0 -2 3 -6.2757 1.3048
0 -2 4 -3.5777 0.8230
0 -2 5 -2.0074 0.3369
0 -2 6 -1.9467 -0.0137
0 -2 7 -3.0837 -0.1701
0 -2 8 -4.5737 -0.1698
0 -2 9 -5.4733 -0.1066
0 -2 10 -5.2131 -0.0657
0 -2 11 -3.8527 -0.0779
0 -2 12 -1.9888 -0.1168
0 -2 13 -0.3897 -0.1349
0 -1 2 2.1007 2.0681
0 -1 3 3.1997 1.2527
0 -1 4 3.0701 0.5492
0 -1 5 2.0220 0.1111
0 -1 6 0.6290 -0.0490
0 -1 7 -0.5347 -0.0293
0 -1 8 -1.1205 0.0399
0 -1 9 -1.0943 0.0715
0 -1 10 -0.6655 0.0507
0 -1 11 -0.1200 0.0129
0 -1 12 0.3340 -0.0033
0 -1 13 0.6286 0.0110
0 0 2 11.8938 -0.5891
0 0 3 9.5375 -0.5631
0 0 4 7.2453 -0.3422
0 0 5 5.6266 -0.0556
0 0 6 5.0124 0.1617
0 0 7 5.3206 0.2400
0 0 8 6.0788 0.1975
0 0 9 6.6174 0.1074
0 0 10 6.3633 0.0412
0 0 11 5.1013 0.0267
0 0 12 3.0758 0.0454
0 0 13 0.8746 0.0616
0 1 2 -7.1733 -2.3432
0 1 3 -7.6679 -1.5697
0 1 4 -7.0600 -0.8254
0 1 5 -5.8433 -0.2806
0 1 6 -4.6584 0.0143
0 1 7 -4.0097 0.1137
0 1 8 -4.0560 0.1150
0 1 9 -4.5704 0.0963
0 1 10 -5.0808 0.0877
0 1 11 -5.1218 0.0827
0 1 12 -4.4702 0.0669
0 1 13 -3.2467 0.0402
0 2 0 -12.1086 -1.5259
0 2 1 -11.2457 -1.2167
0 2 2 -9.1410 -0.8964
0 2 3 -6.4202 -0.6516
0 2 4 -3.7187 -0.4965
0 2 5 -1.4883 -0.3905
0 2 6 0.0765 -0.2848
0 2 7 1.0132 -0.1628
0 2 8 1.5111 -0.0470
0 2 9 1.8122 0.0250
0 2 10 2.1125 0.0335
0 2 11 2.4850 -0.0065
0 2 12 2.8535 -0.0567
0 2 13 3.0374 -0.0819
0 3 0 8.4614 0.7427
0 3 1 9.9169 0.8297
0 3 2 9.5453 0.7188
0 3 3 7.4494 0.4772
0 3 4 4.3034 0.2072
0 3 5 1.0815 -0.0068
0 3 6 -1.2991 -0.1285
0 3 7 -2.2887 -0.1670
0 3 8 -1.8660 -0.1534
0 3 9 -0.5030 -0.1164
0 3 10 1.0535 -0.0719
0 3 11 2.1002 -0.0271
0 3 12 2.2667 0.0111
0 3 13 1.6446 0.0336
0 4 0 3.7160 1.7288
0 4 1 2.4029 1.6138
0 4 2 1.0860 1.3575
0 4 3 0.3759 1.0306
0 4 4 0.4497 0.6926
0 4 5 0.9522 0.3834
0 4 6 1.2017 0.1300
0 4 7 0.5715 -0.0472
0 4 8 -1.1629 -0.1356
0 4 9 -3.6804 -0.1381
0 4 10 -6.2354 -0.0781
0 4 11 -7.9772 0.0052
0 4 12 -8.3170 0.0721
0 5 0 -5.3642 1.1195
0 5 1 -5.5684 0.9883
0 5 2 -4.8092 0.8309
0 5 3 -3.5326 0.6687
0 5 4 -2.3702 0.5112
0 5 5 -1.7451 0.3641
0 5 6 -1.6457 0.2341
0 5 7 -1.6764 0.1273
0 5 8 -1.3229 0.0459
0 5 9 -0.2680 -0.0125
0 5 10 1.4119 -0.0526
0 5 11 3.2582 -0.0766
0 5 12 4.6327 -0.0839
0 6 0 -0.4112 -0.3571
0 6 1 1.2762 -0.4138
0 6 2 2.4174 -0.3702
0 6 3 2.4024 -0.2480
0 6 4 1.3309 -0.0873
0 6 5 -0.0935 0.0669
0 6 6 -0.9919 0.1773
0 6 7 -0.8011 0.2229
0 6 8 0.4392 0.2037
0 6 9 2.1318 0.1383
0 6 10 3.4495 0.0562
0 6 11 3.7596 -0.0134
0 7 0 1.0801 -1.1493
0 7 1 -0.6964 -1.1263
0 7 2 -1.6813 -0.9883
0 7 3 -0.6337 -0.7707
0 7 4 2.8753 -0.5202
0 7 5 8.1227 -0.2835
0 7 6 13.4784 -0.0961
0 7 7 17.1101 0.0235
0 7 8 17.7874 0.0753
0 7 9 15.3911 0.0733
0 7 10 10.9026 0.0386
0 7 11 5.9162 -0.0081
0 8 0 -1.6784 -0.8305
0 8 1 -2.3162 -0.7391
0 8 2 -2.8754 -0.6379
0 8 3 -3.8189 -0.5435
0 8 4 -5.6731 -0.4560
0 8 5 -8.6214 -0.3654
0 8 6 -12.2419 -0.2620
0 8 7 -15.5689 -0.1455
0 8 8 -17.4714 -0.0271
0 8 9 -17.1588 0.0734
0 8 10 -14.5548 0.1370
0 9 0 5.4711 0.1307
0 9 1 10.5968 0.1691
0 9 2 13.7358 0.1423
0 9 3 13.6551 0.0636
0 9 4 10.3776 -0.0440
0 9 5 5.1553 -0.1537
0 9 6 -0.1289 -0.2398
0 9 7 -3.8085 -0.2836
0 9 8 -5.1023 -0.2773
0 9 9 -4.3028 -0.2261
0 10 0 -2.8690 0.6823
0 10 1 -7.1566 0.6849
0 10 2 -10.5793 0.6242
0 10 3 -11.6422 0.5146
0 10 4 -9.6567 0.3796
0 10 5 -5.1202 0.2446
0 10 6 0.4505 0.1305
0 10 7 5.1698 0.0480
0 10 8 7.5964 -0.0015
0 11 0 -1.2546 0.5248
0 11 1 -4.2431 0.4717
0 11 2 -6.0165 0.4029
0 11 3 -6.1226 0.3385
0 11 4 -4.7917 0.2900
0 11 5 -2.7536 0.2550
0 11 6 -0.8229 0.2211
0 12 0 0.2742 -0.0629
0 12 1 4.5569 -0.0860
0 12 2 8.5190 -0.0510
0 12 3 10.6767 0.0256
1 -12 0 2.0380 0.4109
1 -11 0 -4.0661 0.3829
1 -11 1 -5.6324 0.3032
1 -11 2 -5.1617 0.1811
1 -11 3 -3.0656 0.0553
1 -11 4 -0.3262 -0.0420
1 -11 5 1.9789 -0.0949
1 -10 0 -2.0108 -0.3545
1 -10 1 0.9751 -0.4123
1 -10 2 2.6545 -0.4450
1 -10 3 2.6589 -0.4506
1 -10 4 1.3315 -0.4295
1 -10 5 -0.5058 -0.3820
1 -10 6 -1.9712 -0.3089
1 -10 7 -2.5122 -0.2160
1 -9 0 2.1262 -0.8033
1 -9 1 3.6193 -0.7873
1 -9 2 3.5543 -0.6928
1 -9 3 1.9889 -0.5242
1 -9 4 -0.4337 -0.3053
1 -9 5 -2.7875 -0.0780
1 -9 6 -4.2612 0.1087
1 -9 7 -4.4687 0.2155
1 -9 8 -3.5447 0.2289
1 -8 0 2.7406 -0.5829
1 -8 1 -1.0623 -0.4635
1 -8 2 -2.7735 -0.2796
1 -8 3 -1.7043 -0.0775
1 -8 4 1.5690 0.0890
1 -8 5 5.5464 0.1777
1 -8 6 8.5432 0.1753
1 -8 7 9.4497 0.1021
1 -8 8 8.1481 0.0020
1 -8 9 5.4214 -0.0785
1 -7 0 -1.9600 0.4672
1 -7 1 0.4381 0.5723
1 -7 2 2.2526 0.6251
1 -7 3 2.7009 0.5931
1 -7 4 1.5846 0.4739
1 -7 5 -0.5951 0.2993
1 -7 6 -2.8831 0.1226
1 -7 7 -4.3473 -0.0052
1 -7 8 -4.5274 -0.0587
1 -7 9 -3.6088 -0.0461
1 -7 10 -2.2377 -0.0007
1 -6 0 3.0748 1.2907
1 -6 1 2.7182 1.2321
1 -6 2 1.1445 1.0485
1 -6 3 -1.0979 0.7789
1 -6 4 -2.9967 0.4816
1 -6 5 -3.6741 0.2167
1 -6 6 -2.8964 0.0275
1 -6 7 -1.1934 -0.0698
1 -6 8 0.4756 -0.0859
1 -6 9 1.2898 -0.0497
1 -6 10 1.0123 0.0053
1 -6 11 0.0503 0.0522
1 -5 0 -2.2915 0.9058
1 -5 1 -3.8892 0.7437
1 -5 2 -3.9564 0.4960
1 -5 3 -2.3436 0.2278
1 -5 4 0.1848 0.0084
1 -5 5 2.3498 -0.1139
1 -5 6 3.0623 -0.1285
1 -5 7 2.0289 -0.0642
1 -5 8 -0.1001 0.0264
1 -5 9 -2.1265 0.0912
1 -5 10 -3.0020 0.1008
1 -5 11 -2.4030 0.0578
1 -5 12 -0.8461 -0.0101
1 -4 0 -6.1558 -0.6162
1 -4 1 -4.9582 -0.7380
1 -4 2 -3.4456 -0.7824
1 -4 3 -2.4186 -0.7139
1 -4 4 -2.3894 -0.5336
1 -4 5 -3.2463 -0.2864
1 -4 6 -4.2663 -0.0475
1 -4 7 -4.5020 0.1095
1 -4 8 -3.3342 0.1444
1 -4 9 -0.8636 0.0688
1 -4 10 2.1020 -0.0620
1 -4 11 4.4628 -0.1774
1 -4 12 5.4015 -0.2257
1 -3 0 5.8724 -1.7704
1 -3 1 7.0711 -1.7205
1 -3 2 7.0447 -1.4712
1 -3 3 5.8892 -1.0768
1 -3 4 4.2719 -0.6384
1 -3 5 3.0576 -0.2660
1 -3 6 2.7896 -0.0322
1 -3 7 3.3520 0.0561
1 -3 8 4.0345 0.0519
1 -3 9 3.9759 0.0323
1 -3 10 2.7146 0.0536
1 -3 11 0.5019 0.1227
1 -3 12 -1.8158 0.2029
1 -2 0 7.2704 -1.3546
1 -2 1 4.5584 -1.1058
1 -2 2 1.6259 -0.7240
1 -2 3 -0.5284 -0.3425
1 -2 4 -1.2744 -0.0793
1 -2 5 -0.6391 0.0163
1 -2 6 0.7274 -0.0223
1 -2 7 1.8953 -0.1096
1 -2 8 2.1225 -0.1623
1 -2 9 1.2002 -0.1443
1 -2 10 -0.4951 -0.0759
1 -2 11 -2.2465 -0.0072
1 -2 12 -3.3799 0.0213
1 -2 13 -3.5730 0.0047
1 -1 0 -12.5729 1.0144
1 -1 1 -11.5978 1.1811
1 -1 2 -9.3815 1.1480
1 -1 3 -6.4731 0.9076
1 -1 4 -3.8236 0.5388
1 -1 5 -2.4264 0.1700
1 -1 6 -2.8414 -0.0851
1 -1 7 -4.8546 -0.1804
1 -1 8 -7.4886 -0.1495
1 -1 9 -9.4081 -0.0717
1 -1 10 -9.5416 -0.0190
1 -1 11 -7.6030 -0.0181
1 -1 12 -4.2340 -0.0483
1 -1 13 -0.6853 -0.0699
1 0 2 2.9185 1.9877
1 0 3 3.8525 1.3038
1 0 4 3.8114 0.6717
1 0 5 3.2198 0.2325
1 0 6 2.8643 0.0155
1 0 7 3.4920 -0.0433
1 0 8 5.3777 -0.0403
1 0 9 8.1016 -0.0437
1 0 10 10.6840 -0.0682
1 0 11 12.0316 -0.0912
1 0 12 11.4732 -0.0882
1 0 13 9.0999 -0.0580
1 1 0 13.4345 0.5009
1 1 1 12.6393 0.2105
1 1 2 10.9199 0.0280
1 1 3 8.6181 0.0127
1 1 4 6.2491 0.1286
1 1 5 4.3337 0.2759
1 1 6 3.1906 0.3558
1 1 7 2.7851 0.3271
1 1 8 2.7277 0.2197
1 1 9 2.4558 0.1024
1 1 10 1.5332 0.0330
1 1 11 -0.0861 0.0251
1 1 12 -1.9872 0.0504
1 1 13 -3.4825 0.0686
1 2 0 -4.8534 -1.7310
1 2 1 -6.8366 -1.7088
1 2 2 -8.1276 -1.3903
1 2 3 -8.3728 -0.9077
1 2 4 -7.5324 -0.4275
1 2 5 -5.9697 -0.0730
1 2 6 -4.3617 0.1176
1 2 7 -3.4292 0.1790
1 2 8 -3.5904 0.1745
1 2 9 -4.7195 0.1511
1 2 10 -6.1632 0.1231
1 2 11 -7.0459 0.0845
1 2 12 -6.7213 0.0327
1 2 13 -5.1243 -0.0199
1 3 0 -8.3927 -1.4470
1 3 1 -7.9326 -1.2582
1 3 2 -6.5550 -1.0186
1 3 3 -4.6132 -0.7977
1 3 4 -2.5744 -0.6151
1 3 5 -0.8484 -0.4517
1 3 6 0.3460 -0.2850
1 3 7 1.0311 -0.1178
1 3 8 1.4204 0.0198
1 3 9 1.7843 0.0937
1 3 10 2.2850 0.0934
1 3 11 2.8686 0.0425
1 3 12 3.2817 -0.0157
1 3 13 3.2240 -0.0447
1 4 0 6.8997 -0.2290
1 4 1 7.8487 -0.1169
1 4 2 7.3583 -0.1061
1 4 3 5.5007 -0.1659
1 4 4 2.7137 -0.2400
1 4 5 -0.3375 -0.2828
1 4 6 -2.9415 -0.2794
1 4 7 -4.5260 -0.2409
1 4 8 -4.8194 -0.1862
1 4 9 -3.9420 -0.1270
1 4 10 -2.3704 -0.0652
1 4 11 -0.7547 -0.0021
1 4 12 0.3535 0.0540
1 5 0 0.8901 0.9452
1 5 1 0.7631 0.9119
1 5 2 0.8241 0.7600
1 5 3 1.2165 0.5422
1 5 4 1.8693 0.3072
1 5 5 2.5034 0.0912
1 5 6 2.7597 -0.0797
1 5 7 2.3683 -0.1862
1 5 8 1.2762 -0.2182
1 5 9 -0.3118 -0.1812
1 5 10 -1.9876 -0.0999
1 5 11 -3.2698 -0.0107
1 5 12 -3.7761 0.0528
1 6 0 -3.0090 1.0520
1 6 1 -2.8192 0.9832
1 6 2 -2.4887 0.8679
1 6 3 -2.3266 0.7211
1 6 4 -2.5271 0.5525
1 6 5 -2.9930 0.3739
1 6 6 -3.3640 0.2028
1 6 7 -3.2251 0.0576
1 6 8 -2.3555 -0.0490
1 6 9 -0.8652 -0.1142
1 6 10 0.8478 -0.1428
1 6 11 2.2756 -0.1428
1 6 12 3.0121 -0.1217
1 7 0 1.0614 0.2975
1 7 1 1.4472 0.2437
1 7 2 1.9475 0.2322
1 7 3 2.5415 0.2550
1 7 4 3.3720 0.2935
1 7 5 4.5793 0.3262
1 7 6 6.1040 0.3341
1 7 7 7.6154 0.3060
1 7 8 8.6255 0.2417
1 7 9 8.7173 0.1536
1 7 10 7.7496 0.0622
1 7 11 5.9285 -0.0110
1 8 0 -1.2228 -0.4982
1 8 1 -4.1892 -0.5206
1 8 2 -5.7157 -0.4671
1 8 3 -4.9986 -0.3534
1 8 4 -2.0904 -0.2049
1 8 5 2.0458 -0.0518
1 8 6 5.9422 0.0769
1 8 7 8.2806 0.1601
1 8 8 8.4474 0.1894
1 8 9 6.7209 0.1701
1 8 10 4.0352 0.1172
1 9 0 0.9698 -0.7312
1 9 1 3.3027 -0.7096
1 9 2 4.0029 -0.6455
1 9 3 2.2975 -0.5491
1 9 4 -1.9381 -0.4316
1 9 5 -7.9421 -0.3048
1 9 6 -14.1940 -0.1796
1 9 7 -18.9193 -0.0654
1 9 8 -20.7652 0.0293
1 9 9 -19.3241 0.0969
1 10 0 3.6471 -0.2872
1 10 1 7.2471 -0.2566
1 10 2 9.7818 -0.2435
1 10 3 10.6169 -0.2533
1 10 4 9.8155 -0.2817
1 10 5 8.0496 -0.3142
1 10 6 6.1922 -0.3306
1 10 7 4.8469 -0.3143
1 10 8 4.0939 -0.2603
1 11 0 -5.2170 0.1858
1 11 1 -10.5007 0.2605
1 11 2 -14.2416 0.2742
1 11 3 -15.0876 0.2273
1 11 4 -12.6453 0.1416
1 11 5 -7.7361 0.0484
1 11 6 -2.0818 -0.0265
1 12 0 1.7531 0.4370
1 12 1 1.3186 0.3810
1 12 2 1.2259 0.3001
1 12 3 1.3914 0.2267
2 -11 0 -1.8169 0.2854
2 -11 1 -2.1952 0.3254
2 -11 2 -1.0560 0.3160
2 -11 3 1.0770 0.2675
2 -11 4 3.2263 0.2035
2 -10 0 -7.0772 0.4262
2 -10 1 -7.3738 0.3641
2 -10 2 -6.9059 0.2533
2 -10 3 -5.7671 0.1293
2 -10 4 -4.0985 0.0234
2 -10 5 -2.1427 -0.0481
2 -10 6 -0.2679 -0.0852
2 -9 0 4.0169 -0.0020
2 -9 1 4.2437 -0.0551
2 -9 2 3.0388 -0.0866
2 -9 3 0.7721 -0.1011
2 -9 4 -1.8721 -0.1087
2 -9 5 -4.1632 -0.1164
2 -9 6 -5.5347 -0.1233
2 -9 7 -5.7024 -0.1225
2 -9 8 -4.7124 -0.1065
2 -8 0 0.6824 -0.4651
2 -8 1 2.5030 -0.4819
2 -8 2 3.9560 -0.4496
2 -8 3 4.4970 -0.3671
2 -8 4 3.9142 -0.2473
2 -8 5 2.4924 -0.1166
2 -8 6 0.8925 -0.0062
2 -8 7 -0.1995 0.0601
2 -8 8 -0.4379 0.0762
2 -8 9 0.0296 0.0550
2 -7 0 0.5240 -0.6123
2 -7 1 -1.9637 -0.5406
2 -7 2 -3.0570 -0.4225
2 -7 3 -2.0836 -0.2889
2 -7 4 0.7848 -0.1702
2 -7 5 4.5613 -0.0853
2 -7 6 7.8283 -0.0352
2 -7 7 9.3347 -0.0065
2 -7 8 8.5398 0.0175
2 -7 9 5.8377 0.0450
2 -7 10 2.3436 0.0712
2 -6 0 -0.4335 -0.0747
2 -6 1 1.9347 0.0166
2 -6 2 3.4010 0.1007
2 -6 3 3.3295 0.1489
2 -6 4 1.6594 0.1504
2 -6 5 -1.0869 0.1162
2 -6 6 -4.0127 0.0707
2 -6 7 -6.1918 0.0357
2 -6 8 -7.0158 0.0187
2 -6 9 -6.4020 0.0114
2 -6 10 -4.7729 0.0001
2 -6 11 -2.8246 -0.0218
2 -5 0 2.9414 0.7274
2 -5 1 1.8812 0.7269
2 -5 2 0.3911 0.6417
2 -5 3 -1.1304 0.4957
2 -5 4 -2.1601 0.3272
2 -5 5 -2.3080 0.1728
2 -5 6 -1.5379 0.0557
2 -5 7 -0.2173 -0.0179
2 -5 8 1.0467 -0.0524
2 -5 9 1.7062 -0.0549
2 -5 10 1.5420 -0.0309
2 -5 11 0.7506 0.0135
2 -4 0 -2.8003 0.9052
2 -4 1 -4.1775 0.7966
2 -4 2 -4.6663 0.6110
2 -4 3 -4.0869 0.4014
2 -4 4 -2.7955 0.2194
2 -4 5 -1.4643 0.0974
2 -4 6 -0.6781 0.0403
2 -4 7 -0.5949 0.0304
2 -4 8 -0.8777 0.0402
2 -4 9 -0.9403 0.0453
2 -4 10 -0.3480 0.0327
2 -4 11 0.8813 0.0023
2 -4 12 2.2660 -0.0364
2 -3 0 -5.3770 0.0731
2 -3 1 -4.6707 -0.0342
2 -3 2 -3.4929 -0.1054
2 -3 3 -2.2809 -0.1163
2 -3 4 -1.3698 -0.0696
2 -3 5 -0.8229 0.0071
2 -3 6 -0.4374 0.0757
2 -3 7 0.0837 0.1052
2 -3 8 0.9076 0.0835
2 -3 9 1.9395 0.0207
2 -3 10 2.8647 -0.0586
2 -3 11 3.3315 -0.1267
2 -3 12 3.1579 -0.1640
2 -2 0 6.0477 -0.9749
2 -2 1 7.4626 -0.9362
2 -2 2 7.9537 -0.7756
2 -2 3 7.3167 -0.5441
2 -2 4 5.8258 -0.3091
2 -2 5 4.0898 -0.1281
2 -2 6 2.7196 -0.0276
2 -2 7 2.0056 0.0024
2 -2 8 1.7972 -0.0031
2 -2 9 1.6459 -0.0059
2 -2 10 1.1158 0.0158
2 -2 11 0.0705 0.0591
2 -2 12 -1.2337 0.1030
2 -2 13 -2.2945 0.1246
2 -1 0 5.3538 -1.0556
2 -1 1 3.6825 -0.9440
2 -1 2 1.6621 -0.7395
2 -1 3 0.0099 -0.5110
2 -1 4 -0.8112 -0.3196
2 -1 5 -0.8328 -0.1949
2 -1 6 -0.5486 -0.1294
2 -1 7 -0.6270 -0.0933
2 -1 8 -1.5319 -0.0571
2 -1 9 -3.2560 -0.0091
2 -1 10 -5.3039 0.0422
2 -1 11 -6.9266 0.0801
2 -1 12 -7.4795 0.0938
2 -1 13 -6.7221 0.0863
2 0 0 -11.2141 0.0278
2 0 1 -10.6232 0.1016
2 0 2 -9.3932 0.0896
2 0 3 -7.7115 -0.0004
2 0 4 -5.9584 -0.1231
2 0 5 -4.5909 -0.2197
2 0 6 -3.9392 -0.2479
2 0 7 -4.0155 -0.2034
2 0 8 -4.4514 -0.1175
2 0 9 -4.6324 -0.0358
2 0 10 -3.9939 0.0086
2 0 11 -2.3405 0.0111
2 0 12 -0.0125 -0.0091
2 0 13 2.2228 -0.0263
2 1 0 1.0992 1.0705
2 1 1 1.9989 1.0603
2 1 2 3.0623 0.8745
2 1 3 3.9669 0.5915
2 1 4 4.4751 0.3087
2 1 5 4.6274 0.0973
2 1 6 4.7747 -0.0214
2 1 7 5.3975 -0.0693
2 1 8 6.7892 -0.0837
2 1 9 8.7848 -0.0904
2 1 10 10.7196 -0.0941
2 1 11 11.6863 -0.0865
2 1 12 10.9894 -0.0627
2 1 13 8.5541 -0.0300
2 2 0 9.5056 0.8736
2 2 1 9.3494 0.7620
2 2 2 8.8126 0.6503
2 2 3 7.8237 0.5711
2 2 4 6.4036 0.5164
2 2 5 4.6974 0.4526
2 2 6 2.9394 0.3504
2 2 7 1.3584 0.2101
2 2 8 0.0755 0.0628
2 2 9 -0.9315 -0.0504
2 2 10 -1.7613 -0.1042
2 2 11 -2.4575 -0.1035
2 2 12 -2.9140 -0.0762
2 2 13 -2.9086 -0.0518
2 3 0 -5.0162 -0.0771
2 3 1 -6.0429 -0.1454
2 3 2 -6.9212 -0.0959
2 3 3 -7.4458 0.0254
2 3 4 -7.3070 0.1511
2 3 5 -6.2906 0.2311
2 3 6 -4.4965 0.2520
2 3 7 -2.4129 0.2322
2 3 8 -0.7472 0.1986
2 3 9 -0.0768 0.1668
2 3 10 -0.5207 0.1360
2 3 11 -1.6484 0.0984
2 3 12 -2.7102 0.0526
2 3 13 -3.0609 0.0085
2 4 0 -2.7607 -0.7838
2 4 1 -3.3334 -0.7627
2 4 2 -3.7020 -0.6666
2 4 3 -3.5992 -0.5316
2 4 4 -2.9546 -0.3799
2 4 5 -1.9741 -0.2207
2 4 6 -1.0697 -0.0631
2 4 7 -0.6511 0.0743
2 4 8 -0.8897 0.1669
2 4 9 -1.6065 0.1971
2 4 10 -2.3708 0.1683
2 4 11 -2.7576 0.1058
2 4 12 -2.5979 0.0444
2 4 13 -2.0556 0.0095
2 5 0 3.0234 -0.6993
2 5 1 3.6767 -0.6235
2 5 2 3.8888 -0.5589
2 5 3 3.6543 -0.5029
2 5 4 2.8834 -0.4395
2 5 5 1.4763 -0.3571
2 5 6 -0.4910 -0.2598
2 5 7 -2.6243 -0.1638
2 5 8 -4.2689 -0.0861
2 5 9 -4.7900 -0.0344
2 5 10 -3.9262 -0.0055
2 5 11 -1.9829 0.0092
2 5 12 0.2820 0.0164
2 6 0 -0.8860 -0.0421
2 6 1 -0.2584 0.0031
2 6 2 0.6220 -0.0099
2 6 3 1.2202 -0.0629
2 6 4 1.0999 -0.1339
2 6 5 0.2005 -0.2034
2 6 6 -1.0938 -0.2545
2 6 7 -2.1630 -0.2725
2 6 8 -2.5157 -0.2478
2 6 9 -2.0735 -0.1816
2 6 10 -1.1888 -0.0887
2 6 12 -0.0553 0.0769
2 7 0 -0.9294 0.4927
2 7 1 0.5272 0.4928
2 7 2 1.2437 0.4516
2 7 3 1.2010 0.3751
2 7 4 0.8644 0.2679
2 7 5 0.9414 0.1389
2 7 6 1.9480 0.0051
2 7 7 3.8505 -0.1115
2 7 8 6.0202 -0.1912
2 7 9 7.5501 -0.2241
2 7 10 7.7464 -0.2126
2 8 0 1.2066 0.5590
2 8 1 -1.0813 0.5288
2 8 2 -2.3046 0.4808
2 8 3 -1.8695 0.4179
2 8 4 0.2628 0.3454
2 8 5 3.4508 0.2718
2 8 6 6.5658 0.2050
2 8 7 8.4634 0.1487
2 8 8 8.5051 0.1007
2 8 9 6.8431 0.0571
2 8 10 4.3007 0.0158
2 9 0 -1.9196 0.1286
2 9 1 -4.1174 0.0887
2 9 2 -5.3340 0.0779
2 9 3 -5.4382 0.0980
2 9 4 -4.7940 0.1434
2 9 5 -4.0562 0.1995
2 9 6 -3.7846 0.2455
2 9 7 -4.1185 0.2616
2 9 8 -4.7206 0.2372
2 9 9 -5.0225 0.1763
2 10 0 3.4375 -0.2011
2 10 1 7.8312 -0.2603
2 10 2 9.8978 -0.2734
2 10 3 8.8679 -0.2313
2 10 4 4.9597 -0.1432
2 10 5 -0.6071 -0.0329
2 10 6 -6.0364 0.0713
2 10 7 -9.6618 0.1482
2 10 8 -10.6058 0.1885
2 11 0 0.2370 -0.4512
2 11 1 0.3438 -0.4079
2 11 2 0.7999 -0.3418
2 11 3 1.5837 -0.2830
2 11 4 2.6517 -0.2498
2 11 5 3.8887 -0.2390
2 11 6 5.0356 -0.2308
2 12 0 -3.6245 -0.2509
2 12 1 -6.7510 -0.1452
2 12 2 -8.8712 -0.0825
2 12 3 -9.1912 -0.0722
3 -11 0 7.5518 -0.2890
3 -11 1 5.1989 -0.2577
3 -11 2 2.2821 -0.1736
3 -10 0 -12.3189 -0.0334
3 -10 1 -9.3805 -0.0150
3 -10 2 -3.8155 -0.0350
3 -10 3 2.4539 -0.0768
3 -10 4 7.3084 -0.1109
3 -10 5 9.4034 -0.1112
3 -9 0 2.4937 0.1331
3 -9 1 0.8549 0.1195
3 -9 2 -2.5720 0.0856
3 -9 3 -6.7092 0.0534
3 -9 4 -9.9040 0.0393
3 -9 5 -10.8199 0.0453
3 -9 6 -9.1642 0.0591
3 -9 7 -5.8055 0.0627
3 -8 0 3.8111 0.1703
3 -8 1 3.0013 0.1696
3 -8 2 1.9779 0.1974
3 -8 3 1.2446 0.2372
3 -8 4 0.9071 0.2596
3 -8 5 0.6829 0.2378
3 -8 6 0.2301 0.1633
3 -8 7 -0.4928 0.0515
3 -8 8 -1.1382 -0.0631
3 -8 9 -1.2331 -0.1430
3 -7 0 -2.7412 0.0928
3 -7 1 -0.2997 0.0799
3 -7 2 2.9527 0.0633
3 -7 3 5.8028 0.0432
3 -7 4 7.1953 0.0190
3 -7 5 6.8386 -0.0091
3 -7 6 5.3156 -0.0384
3 -7 7 3.6507 -0.0622
3 -7 8 2.6490 -0.0711
3 -7 9 2.4548 -0.0582
3 -6 0 1.9113 -0.1778
3 -6 1 0.2297 -0.1621
3 -6 2 -1.8510 -0.1454
3 -6 3 -3.4819 -0.1398
3 -6 4 -3.9055 -0.1453
3 -6 5 -2.8961 -0.1479
3 -6 6 -0.9618 -0.1268
3 -6 7 0.8705 -0.0678
3 -6 8 1.6035 0.0251
3 -6 9 0.8371 0.1263
3 -6 10 -0.9990 0.1989
3 -6 11 -2.9009 0.2138
3 -5 0 -0.7690 -0.3600
3 -5 1 0.6665 -0.3446
3 -5 2 1.8008 -0.3126
3 -5 3 2.3374 -0.2731
3 -5 4 2.1483 -0.2294
3 -5 5 1.2506 -0.1787
3 -5 6 -0.1891 -0.1186
3 -5 7 -1.8472 -0.0546
3 -5 8 -3.2890 -0.0013
3 -5 9 -4.1016 0.0241
3 -5 10 -4.0650 0.0143
3 -5 11 -3.2620 -0.0211
3 -4 0 2.2349 -0.0896
3 -4 1 1.1258 -0.0788
3 -4 2 0.2537 -0.0831
3 -4 3 -0.3476 -0.0868
3 -4 4 -0.7567 -0.0737
3 -4 5 -1.0526 -0.0389
3 -4 6 -1.2274 0.0058
3 -4 7 -1.1875 0.0390
3 -4 8 -0.8417 0.0447
3 -4 9 -0.2060 0.0250
3 -4 10 0.5545 0.0000
3 -4 11 1.1864 -0.0058
3 -4 12 1.4750 0.0188
3 -3 0 -1.8403 0.3316
3 -3 1 -2.3528 0.3047
3 -3 2 -2.7988 0.2528
3 -3 3 -3.0350 0.2020
3 -3 4 -3.0071 0.1670
3 -3 5 -2.7201 0.1445
3 -3 6 -2.1763 0.1196
3 -3 7 -1.3500 0.0793
3 -3 8 -0.2291 0.0233
3 -3 9 1.1072 -0.0352
3 -3 10 2.4420 -0.0791
3 -3 11 3.4602 -0.0986
3 -3 12 3.8698 -0.0961
3 -2 0 -4.7831 0.4610
3 -2 1 -5.0892 0.4361
3 -2 2 -4.7399 0.4115
3 -2 3 -3.7998 0.3846
3 -2 4 -2.3538 0.3410
3 -2 5 -0.5041 0.2689
3 -2 6 1.5533 0.1713
3 -2 7 3.4690 0.0684
3 -2 8 4.7935 -0.0135
3 -2 9 5.1549 -0.0577
3 -2 10 4.4628 -0.0665
3 -2 11 2.9994 -0.0585
3 -2 12 1.3160 -0.0544
3 -2 13 -0.0192 -0.0641
3 -1 0 5.8402 0.1232
3 -1 1 7.5661 0.1490
3 -1 2 8.6209 0.1879
3 -1 3 8.6489 0.2058
3 -1 4 7.5425 0.1833
3 -1 5 5.4678 0.1260
3 -1 6 2.8184 0.0588
3 -1 7 0.1197 0.0094
3 -1 8 -2.1009 -0.0079
3 -1 9 -3.4562 0.0023
3 -1 10 -3.8148 0.0226
3 -1 11 -3.3346 0.0359
3 -1 12 -2.3846 0.0349
3 -1 13 -1.3786 0.0236
3 0 0 2.8767 -0.3087
3 0 1 2.1047 -0.3314
3 0 2 0.9337 -0.3322
3 0 3 -0.1911 -0.3118
3 0 4 -0.9776 -0.2680
3 0 5 -1.4239 -0.2004
3 0 6 -1.7768 -0.1164
3 0 7 -2.3549 -0.0317
3 0 8 -3.3508 0.0352
3 0 9 -4.7084 0.0723
3 0 10 -6.1242 0.0800
3 0 11 -7.1563 0.0706
3 0 12 -7.3962 0.0601
3 0 13 -6.6409 0.0590
3 1 0 -7.9674 -0.6974
3 1 1 -8.0345 -0.7050
3 1 2 -7.9555 -0.6832
3 1 3 -7.7136 -0.6221
3 1 4 -7.1563 -0.5192
3 1 5 -6.0616 -0.3841
3 1 6 -4.2911 -0.2382
3 1 7 -1.9299 -0.1067
3 1 8 0.6882 -0.0087
3 1 9 3.0980 0.0495
3 1 10 4.8867 0.0744
3 1 11 5.8305 0.0791
3 1 12 5.9110 0.0755
3 1 13 5.2398 0.0694
3 2 0 2.0723 -0.2714
3 2 1 2.2351 -0.2057
3 2 2 2.9735 -0.1675
3 2 3 4.1654 -0.1517
3 2 4 5.3828 -0.1465
3 2 5 6.0749 -0.1418
3 2 6 5.8525 -0.1330
3 2 7 4.7206 -0.1207
3 2 8 3.1088 -0.1068
3 2 9 1.6571 -0.0924
3 2 10 0.8666 -0.0772
3 2 11 0.8262 -0.0618
3 2 12 1.1916 -0.0483
3 2 13 1.4357 -0.0396
3 3 0 3.7731 0.5926
3 3 1 4.1936 0.6197
3 3 2 4.6657 0.5929
3 3 3 4.8750 0.5191
3 3 4 4.5510 0.4060
3 3 5 3.6377 0.2647
3 3 6 2.3767 0.1127
3 3 7 1.2217 -0.0276
3 3 8 0.6075 -0.1343
3 3 9 0.7063 -0.1945
3 3 10 1.3311 -0.2094
3 3 11 2.0576 -0.1925
3 3 12 2.4874 -0.1619
3 3 13 2.4728 -0.1310
3 4 0 -2.4646 0.6582
3 4 1 -3.1446 0.6115
3 4 2 -4.1458 0.5630
3 4 3 -5.4355 0.5082
3 4 4 -6.5845 0.4385
3 4 5 -6.9296 0.3527
3 4 6 -5.9743 0.2609
3 4 7 -3.7829 0.1811
3 4 8 -1.0815 0.1290
3 4 9 1.0526 0.1101
3 4 10 1.7599 0.1173
3 4 11 0.8828 0.1357
3 4 12 -0.9468 0.1495
3 5 0 0.7060 0.1506
3 5 1 0.1846 0.0713
3 5 2 -0.6810 0.0237
3 5 3 -1.2496 0.0141
3 5 4 -1.0143 0.0413
3 5 5 0.0316 0.0958
3 5 6 1.3132 0.1590
3 5 7 1.9746 0.2073
3 5 8 1.4010 0.2191
3 5 9 -0.3660 0.1851
3 5 10 -2.6012 0.1126
3 5 11 -4.2936 0.0244
3 5 12 -4.7238 -0.0515
3 6 0 0.9359 -0.4470
3 6 1 0.6646 -0.4431
3 6 2 0.6911 -0.4059
3 6 3 1.0672 -0.3422
3 6 4 1.3515 -0.2570
3 6 5 0.8469 -0.1572
3 6 6 -0.8961 -0.0555
3 6 7 -3.6442 0.0311
3 6 8 -6.4421 0.0868
3 6 9 -8.0560 0.1032
3 6 10 -7.6552 0.0837
3 6 11 -5.3119 0.0418
3 6 12 -1.9959 -0.0040
3 7 0 -1.7867 -0.5682
3 7 1 -0.3887 -0.5071
3 7 2 1.2955 -0.4348
3 7 3 2.2599 -0.3622
3 7 4 1.8028 -0.2969
3 7 5 0.0139 -0.2437
3 7 6 -2.1946 -0.2031
3 7 7 -3.5778 -0.1696
3 7 8 -3.2916 -0.1335
3 7 9 -1.4103 -0.0853
3 7 10 1.1060 -0.0223
3 7 11 2.9805 0.0476
3 8 0 -0.6788 -0.1603
3 8 1 1.4184 -0.1180
3 8 2 2.5799 -0.1003
3 8 3 2.9579 -0.1046
3 8 4 3.3535 -0.1270
3 8 5 4.6970 -0.1617
3 8 6 7.3769 -0.1987
3 8 7 10.8506 -0.2245
3 8 8 13.8210 -0.2266
3 8 9 14.9127 -0.1993
3 8 10 13.4489 -0.1471
3 9 0 -0.1650 0.2877
3 9 1 -4.6088 0.3054
3 9 2 -7.7965 0.2887
3 9 3 -8.7840 0.2324
3 9 4 -7.5209 0.1426
3 9 5 -4.9201 0.0390
3 9 6 -2.4307 -0.0524
3 9 7 -1.3012 -0.1105
3 9 8 -1.9330 -0.1286
3 9 9 -3.7013 -0.1149
3 10 0 0.4815 0.4287
3 10 1 1.0192 0.3746
3 10 2 1.5753 0.3124
3 10 3 1.8122 0.2595
3 10 4 1.3500 0.2277
3 10 5 0.0151 0.2163
3 10 6 -1.9495 0.2116
3 10 7 -3.8905 0.1941
3 10 8 -5.0235 0.1503
3 11 0 3.8503 0.3179
3 11 1 6.5274 0.2249
3 11 2 7.8448 0.1466
3 11 3 7.2999 0.1098
3 11 4 5.0743 0.1204
3 11 5 2.0117 0.1627
3 11 6 -0.7418 0.2098
4 -10 0 0.6707 -0.0925
4 -10 1 -1.4454 -0.1217
4 -10 2 -2.6924 -0.1193
4 -10 3 -2.4903 -0.0950
4 -9 0 -12.4595 -0.1971
4 -9 1 -8.7114 -0.2498
4 -9 2 -2.6595 -0.3221
4 -9 3 3.3843 -0.3906
4 -9 4 7.2846 -0.4228
4 -9 5 8.0929 -0.3929
4 -9 6 6.3241 -0.2981
4 -8 0 11.2455 -0.2464
4 -8 1 8.3982 -0.2124
4 -8 2 1.9307 -0.1585
4 -8 3 -6.1641 -0.0840
4 -8 4 -12.9644 0.0061
4 -8 5 -16.0718 0.0972
4 -8 6 -14.7792 0.1668
4 -8 7 -10.2885 0.1940
4 -8 8 -4.9074 0.1707
4 -7 0 -3.7824 0.0473
4 -7 1 -3.5916 0.0784
4 -7 2 -1.4667 0.1419
4 -7 3 2.5079 0.2217
4 -7 4 7.1889 0.2824
4 -7 5 10.8557 0.2862
4 -7 6 12.1186 0.2132
4 -7 7 10.6847 0.0750
4 -7 8 7.4868 -0.0868
4 -7 9 4.0953 -0.2187
4 -6 0 -0.1102 0.3908
4 -6 1 1.6243 0.4138
4 -6 2 3.8585 0.4090
4 -6 3 5.4121 0.3706
4 -6 4 5.3720 0.2991
4 -6 5 3.7099 0.2054
4 -6 6 1.3228 0.1092
4 -6 7 -0.5289 0.0342
4 -6 8 -1.0019 -0.0017
4 -6 9 -0.1485 0.0056
4 -6 10 1.2062 0.0433
4 -5 0 1.3732 0.2674
4 -5 1 0.7502 0.2773
4 -5 2 -1.3913 0.2464
4 -5 3 -4.1894 0.1669
4 -5 4 -6.4128 0.0540
4 -5 5 -7.1338 -0.0572
4 -5 6 -6.2438 -0.1253
4 -5 7 -4.4810 -0.1240
4 -5 8 -2.9472 -0.0558
4 -5 9 -2.4239 0.0464
4 -5 10 -2.9270 0.1348
4 -5 11 -3.7731 0.1711
4 -4 0 -0.4858 -0.1560
4 -4 1 -0.6990 -0.2039
4 -4 2 -0.4209 -0.2534
4 -4 3 0.3272 -0.2894
4 -4 4 1.3073 -0.2945
4 -4 5 2.1071 -0.2563
4 -4 6 2.3192 -0.1760
4 -4 7 1.7631 -0.0711
4 -4 8 0.6067 0.0298
4 -4 9 -0.7020 0.0988
4 -4 10 -1.6631 0.1221
4 -4 11 -1.9751 0.1058
4 -3 0 1.4296 -0.5113
4 -3 1 1.1815 -0.5448
4 -3 2 1.2535 -0.5405
4 -3 3 1.4086 -0.4822
4 -3 4 1.2919 -0.3667
4 -3 5 0.6521 -0.2131
4 -3 6 -0.4612 -0.0602
4 -3 7 -1.6651 0.0473
4 -3 8 -2.4195 0.0809
4 -3 9 -2.3230 0.0431
4 -3 10 -1.3538 -0.0328
4 -3 11 0.0946 -0.1005
4 -3 12 1.4084 -0.1248
4 -2 0 -1.8814 -0.2932
4 -2 1 -2.0915 -0.2750
4 -2 2 -2.3132 -0.2220
4 -2 3 -2.3976 -0.1364
4 -2 4 -2.1768 -0.0382
4 -2 5 -1.5048 0.0401
4 -2 6 -0.3154 0.0695
4 -2 7 1.3062 0.0409
4 -2 8 3.0811 -0.0281
4 -2 9 4.5785 -0.1017
4 -2 10 5.3578 -0.1451
4 -2 11 5.1616 -0.1425
4 -2 12 4.0563 -0.1025
4 -1 0 -3.2572 0.3367
4 -1 1 -3.7488 0.3762
4 -1 2 -3.8749 0.4019
4 -1 3 -3.7248 0.3956
4 -1 4 -3.2883 0.3399
4 -1 5 -2.4527 0.2340
4 -1 6 -1.1580 0.1016
4 -1 7 0.4320 -0.0157
4 -1 8 1.9072 -0.0793
4 -1 9 2.7911 -0.0748
4 -1 10 2.8112 -0.0205
4 -1 11 2.0749 0.0430
4 -1 12 1.0166 0.0764
4 0 0 5.5793 0.6236
4 0 1 7.1330 0.6501
4 0 2 8.1229 0.6215
4 0 3 8.4201 0.5257
4 0 4 7.8953 0.3767
4 0 5 6.3941 0.2128
4 0 6 3.8538 0.0785
4 0 7 0.4941 0.0023
4 0 8 -3.0802 -0.0166
4 0 9 -6.0034 -0.0038
4 0 10 -7.4869 0.0081
4 0 11 -7.1955 -0.0004
4 0 12 -5.4296 -0.0269
4 0 13 -2.9878 -0.0537
4 1 0 0.2174 0.2359
4 1 1 -0.4275 0.1932
4 1 2 -1.3786 0.1313
4 1 3 -2.2854 0.0691
4 1 4 -2.8537 0.0287
4 1 5 -2.9387 0.0229
4 1 6 -2.5573 0.0465
4 1 7 -1.8579 0.0790
4 1 8 -1.0819 0.0967
4 1 9 -0.5106 0.0875
4 1 10 -0.3774 0.0575
4 1 11 -0.7550 0.0256
4 1 12 -1.4812 0.0107
4 1 13 -2.1955 0.0186
4 2 0 -3.8311 -0.4660
4 2 1 -3.8105 -0.5146
4 2 2 -3.5874 -0.5083
4 2 3 -3.3519 -0.4384
4 2 4 -3.0717 -0.3164
4 2 5 -2.4728 -0.1720
4 2 6 -1.2339 -0.0416
4 2 7 0.7352 0.0478
4 2 8 3.1361 0.0890
4 2 9 5.3669 0.0944
4 2 10 6.8007 0.0852
4 2 11 7.0816 0.0782
4 2 12 6.2583 0.0778
4 2 13 4.7014 0.0781
4 3 0 0.6427 -0.6471
4 3 1 0.6887 -0.6293
4 3 2 1.2070 -0.5792
4 3 3 2.2123 -0.5009
4 3 4 3.3248 -0.4041
4 3 5 3.8481 -0.3020
4 3 6 3.0993 -0.2076
4 3 7 0.8349 -0.1304
4 3 8 -2.4888 -0.0760
4 3 9 -5.8229 -0.0467
4 3 10 -7.9901 -0.0414
4 3 11 -8.2607 -0.0554
4 3 12 -6.7078 -0.0797
4 4 0 1.2428 -0.1718
4 4 1 1.1052 -0.1066
4 4 2 1.0083 -0.0536
4 4 3 0.8367 -0.0296
4 4 4 0.5319 -0.0413
4 4 5 0.2079 -0.0807
4 4 6 0.1767 -0.1277
4 4 7 0.8099 -0.1595
4 4 8 2.2803 -0.1611
4 4 9 4.3461 -0.1310
4 4 10 6.3527 -0.0806
4 4 11 7.5066 -0.0273
4 4 12 7.2859 0.0135
4 5 0 -1.6522 0.4468
4 5 1 -1.8580 0.4701
4 5 2 -2.1561 0.4541
4 5 3 -2.7436 0.3974
4 5 4 -3.5025 0.3063
4 5 5 -3.9971 0.1957
4 5 6 -3.7520 0.0862
4 5 7 -2.6289 -0.0010
4 5 8 -1.0182 -0.0495
4 5 9 0.3245 -0.0522
4 5 10 0.7239 -0.0141
4 5 11 0.0220 0.0479
4 5 12 -1.2945 0.1101
4 6 0 2.2891 0.6462
4 6 1 2.6631 0.5780
4 6 2 2.2539 0.4795
4 6 3 1.6167 0.3799
4 6 4 1.4093 0.3012
4 6 5 1.9132 0.2502
4 6 6 2.7996 0.2189
4 6 7 3.3231 0.1895
4 6 8 2.8305 0.1446
4 6 9 1.2404 0.0753
4 6 10 -0.8431 -0.0137
4 6 11 -2.4749 -0.1053
4 7 0 2.0823 0.1161
4 7 1 0.4364 0.0809
4 7 2 -0.7725 0.0762
4 7 3 -1.2209 0.0906
4 7 4 -1.2613 0.1107
4 7 5 -1.6794 0.1268
4 7 6 -3.1143 0.1345
4 7 7 -5.5279 0.1322
4 7 8 -8.1000 0.1185
4 7 9 -9.6493 0.0922
4 7 10 -9.3305 0.0548
4 7 11 -7.1589 0.0125
4 8 0 -3.2514 -0.3865
4 8 1 -0.8551 -0.3788
4 8 2 2.1134 -0.3420
4 8 3 4.4740 -0.2800
4 8 4 5.3493 -0.1979
4 8 5 4.6887 -0.1063
4 8 6 3.3036 -0.0199
4 8 7 2.3628 0.0469
4 8 8 2.6538 0.0873
4 8 9 4.0823 0.1046
4 8 10 5.7366 0.1087
4 9 0 -1.8603 -0.4985
4 9 1 -0.9849 -0.4474
4 9 2 -0.8680 -0.3929
4 9 3 -1.2783 -0.3358
4 9 4 -1.4163 -0.2785
4 9 5 -0.4289 -0.2248
4 9 6 1.9660 -0.1766
4 9 7 5.1639 -0.1317
4 9 8 7.9100 -0.0852
4 9 9 8.9766 -0.0339
4 10 0 -0.4768 -0.1835
4 10 1 -3.9606 -0.1344
4 10 2 -6.8252 -0.0815
4 10 3 -8.2329 -0.0524
4 10 4 -8.0348 -0.0647
4 10 5 -6.8469 -0.1148
4 10 6 -5.6842 -0.1788
4 10 7 -5.3498 -0.2256
4 11 0 3.6850 0.3704
4 11 1 5.2366 0.3150
4 11 2 6.4705 0.2191
4 11 3 7.0473 0.1120
4 11 4 6.7249 0.0243
4 11 5 5.5163 -0.0263
5 -9 0 -3.2791 0.1736
5 -9 1 -4.6854 0.1017
5 -9 2 -4.2736 0.0236
5 -9 3 -1.9683 -0.0425
5 -9 4 1.2335 -0.0871
5 -8 0 -4.0900 -0.0677
5 -8 1 -1.9929 -0.1477
5 -8 2 0.7190 -0.2357
5 -8 3 2.5198 -0.3114
5 -8 4 2.4166 -0.3498
5 -8 5 0.5280 -0.3315
5 -8 6 -2.0384 -0.2538
5 -7 0 8.0545 -0.3360
5 -7 1 6.1849 -0.3111
5 -7 2 1.3006 -0.2528
5 -7 3 -4.8067 -0.1731
5 -7 4 -9.6380 -0.0869
5 -7 5 -11.2860 -0.0111
5 -7 6 -9.3993 0.0381
5 -7 7 -5.2546 0.0499
5 -7 8 -0.9429 0.0247
5 -6 0 -5.7922 -0.1740
5 -6 1 -5.1792 -0.1556
5 -6 2 -1.6996 -0.1048
5 -6 3 4.0237 -0.0259
5 -6 4 10.2243 0.0577
5 -6 5 14.7455 0.1123
5 -6 6 16.0737 0.1112
5 -6 7 14.0587 0.0508
5 -6 8 9.9001 -0.0449
5 -6 9 5.4277 -0.1352
5 -5 0 0.8319 0.1738
5 -5 1 1.8936 0.2191
5 -5 2 2.4071 0.2543
5 -5 3 1.7588 0.2682
5 -5 4 -0.1715 0.2541
5 -5 5 -2.7959 0.2150
5 -5 6 -5.0486 0.1646
5 -5 7 -5.9467 0.1206
5 -5 8 -5.1377 0.0958
5 -5 9 -3.0821 0.0915
5 -5 10 -0.7631 0.0969
5 -4 0 1.8053 0.3537
5 -4 1 1.4630 0.3984
5 -4 2 -0.0659 0.3936
5 -4 3 -2.0329 0.3273
5 -4 4 -3.5183 0.2110
5 -4 5 -3.9338 0.0781
5 -4 6 -3.3244 -0.0289
5 -4 7 -2.2833 -0.0781
5 -4 8 -1.5395 -0.0627
5 -4 9 -1.4920 -0.0029
5 -4 10 -1.9891 0.0651
5 -4 11 -2.4817 0.1081
5 -3 0 0.6417 0.2264
5 -3 1 -0.1049 0.1878
5 -3 2 -0.3747 0.1170
5 -3 3 -0.3636 0.0358
5 -3 4 -0.3968 -0.0286
5 -3 5 -0.7298 -0.0561
5 -3 6 -1.3935 -0.0418
5 -3 7 -2.1769 0.0030
5 -3 8 -2.7554 0.0573
5 -3 9 -2.8852 0.1007
5 -3 10 -2.5397 0.1219
5 -3 11 -1.9082 0.1209
5 -2 0 -0.7336 -0.2646
5 -2 1 -0.5028 -0.3265
5 -2 2 0.0694 -0.3532
5 -2 3 0.9358 -0.3310
5 -2 4 1.9877 -0.2597
5 -2 5 3.0252 -0.1575
5 -2 6 3.7991 -0.0565
5 -2 7 4.1142 0.0090
5 -2 8 3.9272 0.0173
5 -2 9 3.3723 -0.0298
5 -2 10 2.6879 -0.1073
5 -2 11 2.0866 -0.1782
5 -2 12 1.6494 -0.2110
5 -1 0 -2.1180 -0.4295
5 -1 1 -2.5349 -0.4461
5 -1 2 -2.7302 -0.4075
5 -1 3 -2.5442 -0.3200
5 -1 4 -1.9350 -0.2067
5 -1 5 -0.9770 -0.0997
5 -1 6 0.1860 -0.0261
5 -1 7 1.3880 0.0030
5 -1 8 2.4541 -0.0035
5 -1 9 3.2001 -0.0233
5 -1 10 3.4541 -0.0338
5 -1 11 3.1229 -0.0239
5 -1 12 2.2700 0.0022
5 0 0 -0.3414 -0.1173
5 0 1 0.0640 -0.0939
5 0 2 0.4339 -0.0686
5 0 3 0.2821 -0.0504
5 0 4 -0.6672 -0.0487
5 0 5 -2.2513 -0.0651
5 0 6 -3.9236 -0.0901
5 0 7 -5.0446 -0.1056
5 0 8 -5.2152 -0.0946
5 0 9 -4.4493 -0.0527
5 0 10 -3.1072 0.0079
5 0 11 -1.6667 0.0638
5 0 12 -0.4953 0.0924
5 1 0 3.6290 0.2720
5 1 1 3.8728 0.3289
5 1 2 3.6236 0.3433
5 1 3 3.3005 0.3057
5 1 4 3.2372 0.2241
5 1 5 3.4149 0.1233
5 1 6 3.4452 0.0337
5 1 7 2.8310 -0.0231
5 1 8 1.3366 -0.0427
5 1 9 -0.7832 -0.0377
5 1 10 -2.8578 -0.0268
5 1 11 -4.1416 -0.0234
5 1 12 -4.2112 -0.0287
5 2 0 -0.4098 0.3960
5 2 1 -0.4911 0.4140
5 2 2 -0.8935 0.4029
5 2 3 -1.4499 0.3622
5 2 4 -1.8731 0.2997
5 2 5 -1.8536 0.2283
5 2 6 -1.1743 0.1602
5 2 7 0.1794 0.1028
5 2 8 1.9555 0.0580
5 2 9 3.6707 0.0254
5 2 10 4.7668 0.0046
5 2 11 4.8451 -0.0042
5 2 12 3.8658 -0.0021
5 3 0 -2.3793 0.2187
5 3 1 -2.0394 0.1761
5 3 2 -0.9769 0.1350
5 3 3 0.4000 0.1089
5 3 4 1.6064 0.1036
5 3 5 2.3078 0.1124
5 3 6 2.4292 0.1194
5 3 7 2.1174 0.1082
5 3 8 1.6157 0.0719
5 3 9 1.1420 0.0174
5 3 10 0.8240 -0.0386
5 3 11 0.6929 -0.0786
5 3 12 0.7062 -0.0928
5 4 0 0.5307 -0.3291
5 4 1 0.2553 -0.3740
5 4 2 -0.1290 -0.3908
5 4 3 -0.4998 -0.3659
5 4 4 -0.8953 -0.2959
5 4 5 -1.5355 -0.1915
5 4 6 -2.6777 -0.0745
5 4 7 -4.3824 0.0299
5 4 8 -6.3531 0.1010
5 4 9 -7.9864 0.1283
5 4 10 -8.6401 0.1132
5 4 11 -7.9741 0.0678
5 4 12 -6.1562 0.0108
5 5 0 0.6871 -0.5429
5 5 1 -0.1517 -0.5293
5 5 2 -0.9535 -0.4737
5 5 3 -1.5882 -0.3971
5 5 4 -1.8485 -0.3223
5 5 5 -1.4624 -0.2618
5 5 6 -0.1937 -0.2126
5 5 7 1.9823 -0.1614
5 5 8 4.7279 -0.0954
5 5 9 7.3427 -0.0124
5 5 10 8.9826 0.0763
5 5 11 9.0264 0.1507
5 6 0 -3.1281 -0.0935
5 6 1 -2.3144 -0.0548
5 6 2 -1.2306 -0.0343
5 6 3 -0.2517 -0.0351
5 6 4 0.3533 -0.0536
5 6 5 0.5209 -0.0816
5 6 6 0.3453 -0.1097
5 6 7 -0.0489 -0.1297
5 6 8 -0.5952 -0.1351
5 6 9 -1.2617 -0.1218
5 6 10 -1.9533 -0.0892
5 6 11 -2.4488 -0.0420
5 7 0 4.7534 0.3672
5 7 1 5.0470 0.3812
5 7 2 4.2449 0.3597
5 7 3 2.7592 0.3122
5 7 4 1.2592 0.2500
5 7 5 0.2796 0.1821
5 7 6 -0.0501 0.1138
5 7 7 0.0083 0.0474
5 7 8 0.0623 -0.0157
5 7 9 -0.1101 -0.0740
5 7 10 -0.4311 -0.1239
5 8 0 1.5431 0.4060
5 8 1 -0.2203 0.3935
5 8 2 -1.3749 0.3763
5 8 3 -1.5457 0.3409
5 8 4 -0.9967 0.2793
5 8 5 -0.4363 0.1949
5 8 6 -0.5408 0.1021
5 8 7 -1.5075 0.0186
5 8 8 -2.9273 -0.0434
5 8 9 -4.0519 -0.0811
5 9 0 -4.2201 0.1855
5 9 1 -1.7681 0.1359
5 9 2 1.2734 0.0695
5 9 3 3.9022 0.0181
5 9 4 5.3596 0.0103
5 9 5 5.5124 0.0545
5 9 6 4.8616 0.1338
5 9 7 4.1725 0.2143
5 9 8 3.9691 0.2625
5 10 0 -1.2802 -0.3920
5 10 1 -1.7986 -0.3680
5 10 2 -2.9843 -0.3024
5 10 3 -4.5354 -0.2060
5 10 4 -5.7790 -0.0999
5 10 5 -6.0359 -0.0079
5 10 6 -5.0393 0.0548
6 -8 0 -0.5243 0.2320
6 -8 1 -1.9927 0.1873
6 -8 2 -2.0045 0.1189
6 -8 3 -0.5817 0.0530
6 -7 0 -0.3285 0.1909
6 -7 1 0.8494 0.1357
6 -7 2 1.3172 0.0646
6 -7 3 0.5045 -0.0102
6 -7 4 -1.5210 -0.0741
6 -7 5 -3.9902 -0.1126
6 -7 6 -5.8028 -0.1170
6 -6 0 4.4968 -0.0814
6 -6 1 3.5105 -0.1007
6 -6 2 1.4194 -0.0975
6 -6 3 -0.7574 -0.0848
6 -6 4 -1.9097 -0.0759
6 -6 5 -1.4724 -0.0794
6 -6 6 0.2526 -0.0975
6 -6 7 2.2874 -0.1259
6 -6 8 3.5529 -0.1559
6 -5 0 -6.3704 -0.2861
6 -5 1 -5.5504 -0.2802
6 -5 2 -2.6654 -0.2524
6 -5 3 1.3671 -0.1984
6 -5 4 5.1092 -0.1240
6 -5 5 7.2763 -0.0469
6 -5 6 7.3351 0.0115
6 -5 7 5.6856 0.0371
6 -5 8 3.3441 0.0314
6 -5 9 1.3409 0.0103
6 -4 0 0.2076 -0.2025
6 -4 1 0.6722 -0.1909
6 -4 2 0.0633 -0.1637
6 -4 3 -1.4156 -0.1242
6 -4 4 -3.0939 -0.0783
6 -4 5 -4.1596 -0.0310
6 -4 6 -4.0898 0.0157
6 -4 7 -2.9284 0.0601
6 -4 8 -1.2378 0.0978
6 -4 9 0.2443 0.1200
6 -4 10 1.0201 0.1168
6 -3 0 5.4061 0.0756
6 -3 1 4.4333 0.1324
6 -3 2 3.1150 0.1733
6 -3 3 2.0125 0.1856
6 -3 4 1.3438 0.1666
6 -3 5 0.9001 0.1262
6 -3 6 0.2611 0.0825
6 -3 7 -0.8412 0.0525
6 -3 8 -2.2626 0.0442
6 -3 9 -3.4805 0.0543
6 -3 10 -3.9046 0.0722
6 -2 0 -2.4597 0.3313
6 -2 1 -1.8226 0.3633
6 -2 2 -0.8806 0.3560
6 -2 3 -0.4433 0.3108
6 -2 4 -1.1010 0.2391
6 -2 5 -2.8072 0.1551
6 -2 6 -4.8381 0.0710
6 -2 7 -6.1798 -0.0045
6 -2 8 -6.1150 -0.0638
6 -2 9 -4.6401 -0.1000
6 -2 10 -2.4540 -0.1085
6 -2 11 -0.5322 -0.0906
6 -1 0 -0.4343 0.2653
6 -1 1 -1.1405 0.2379
6 -1 2 -1.7513 0.2020
6 -1 3 -1.6709 0.1623
6 -1 4 -0.2369 0.1231
6 -1 5 2.7759 0.0875
6 -1 6 6.8231 0.0569
6 -1 7 10.6895 0.0308
6 -1 8 13.0144 0.0076
6 -1 9 12.9604 -0.0152
6 -1 10 10.6331 -0.0388
6 -1 11 7.0043 -0.0614
6 0 0 -1.2649 -0.0944
6 0 1 -1.0342 -0.1783
6 0 2 -0.7011 -0.2382
6 0 3 -0.3260 -0.2580
6 0 4 -0.1721 -0.2333
6 0 5 -0.5938 -0.1715
6 0 6 -1.7851 -0.0892
6 0 7 -3.5624 -0.0064
6 0 8 -5.3564 0.0590
6 0 9 -6.4596 0.0959
6 0 10 -6.3973 0.1025
6 0 11 -5.1893 0.0853
6 1 0 0.8847 -0.3835
6 1 1 1.0408 -0.4124
6 1 2 1.5052 -0.4132
6 1 3 1.7688 -0.3784
6 1 4 1.2445 -0.3093
6 1 5 -0.2932 -0.2177
6 1 6 -2.4832 -0.1225
6 1 7 -4.5226 -0.0422
6 1 8 -5.5912 0.0119
6 1 9 -5.2903 0.0396
6 1 10 -3.8316 0.0496
6 1 11 -1.8840 0.0529
6 2 0 1.3034 -0.2787
6 2 1 0.8135 -0.2284
6 2 2 -0.2306 -0.1637
6 2 3 -1.2530 -0.1046
6 2 4 -1.5384 -0.0679
6 2 5 -0.6376 -0.0610
6 2 6 1.3231 -0.0778
6 2 7 3.6341 -0.1022
6 2 8 5.3295 -0.1160
6 2 9 5.6796 -0.1075
6 2 10 4.5688 -0.0768
6 2 11 2.5409 -0.0346
6 3 0 0.1007 0.1534
6 3 1 1.4747 0.2234
6 3 2 2.3333 0.2752
6 3 3 2.4490 0.2873
6 3 4 1.9520 0.2485
6 3 5 1.2276 0.1657
6 3 6 0.7113 0.0632
6 3 7 0.6876 -0.0280
6 3 8 1.1787 -0.0838
6 3 9 1.9577 -0.0970
6 3 10 2.6626 -0.0778
6 3 11 2.9553 -0.0461
6 4 0 -2.4998 0.4165
6 4 1 -3.0952 0.4351
6 4 2 -2.7254 0.4093
6 4 3 -1.3768 0.3483
6 4 4 0.4575 0.2725
6 4 5 1.9816 0.2007
6 4 6 2.4833 0.1404
6 4 7 1.6974 0.0859
6 4 8 -0.0508 0.0259
6 4 9 -2.0054 -0.0451
6 4 10 -3.3533 -0.1193
6 4 11 -3.6090 -0.1785
6 5 0 2.3688 0.2221
6 5 1 1.6737 0.1751
6 5 2 0.7097 0.1180
6 5 3 -0.4998 0.0751
6 5 4 -1.9183 0.0659
6 5 5 -3.4205 0.0950
6 5 6 -4.7562 0.1495
6 5 7 -5.6056 0.2067
6 5 8 -5.7153 0.2441
6 5 9 -5.0401 0.2491
6 5 10 -3.7960 0.2209
6 6 0 -1.8127 -0.1965
6 6 1 -1.9804 -0.2683
6 6 2 -1.9826 -0.2984
6 6 3 -1.8547 -0.2850
6 6 4 -1.4579 -0.2423
6 6 5 -0.5436 -0.1889
6 6 6 1.0438 -0.1368
6 6 7 3.1533 -0.0872
6 6 8 5.2685 -0.0350
6 6 9 6.6814 0.0225
6 6 10 6.8306 0.0800
6 7 0 -0.8777 -0.3534
6 7 1 0.2106 -0.3581
6 7 2 1.1817 -0.3388
6 7 3 1.8773 -0.2967
6 7 4 2.1924 -0.2368
6 7 5 2.0438 -0.1669
6 7 6 1.3707 -0.0977
6 7 7 0.1982 -0.0397
6 7 8 -1.2798 0.0007
6 7 9 -2.6794 0.0232
6 8 0 4.4254 -0.3059
6 8 1 3.8312 -0.2243
6 8 2 2.5623 -0.1285
6 8 3 0.9630 -0.0502
6 8 4 -0.5349 -0.0134
6 8 5 -1.5808 -0.0257
6 8 6 -2.0066 -0.0758
6 8 7 -1.8310 -0.1396
6 8 8 -1.2023 -0.1909
6 9 0 -1.7993 0.2574
6 9 1 -2.3082 0.2892
6 9 2 -2.0093 0.2795
6 9 3 -0.8728 0.2227
6 9 4 0.7110 0.1285
6 9 5 2.1266 0.0197
6 9 6 2.8495 -0.0772
6 10 1 -0.4355 0.5070
6 10 2 0.8763 0.3851
6 10 3 1.6979 0.2505
7 -6 0 1.9614 0.3288
7 -6 1 2.7536 0.2886
7 -6 2 2.6065 0.2258
7 -6 3 1.5875 0.1482
7 -6 4 0.1465 0.0633
7 -6 5 -1.1024 -0.0188
7 -5 3 0.8827 0.1212
7 -5 4 1.4992 0.0962
7 -5 5 2.3633 0.0493
7 -5 6 2.9372 -0.0115
7 -5 7 2.8524 -0.0712
7 -4 0 -9.3012 -0.1679
7 -4 1 -7.4577 -0.1509
7 -4 2 -4.7799 -0.1428
7 -4 3 -2.3747 -0.1364
7 -4 4 -1.0849 -0.1199
7 -4 5 -1.0631 -0.0876
7 -4 6 -1.7595 -0.0441
7 -4 7 -2.3253 -0.0015
7 -4 8 -2.1641 0.0289
7 -3 0 5.7034 -0.2892
7 -3 1 4.5980 -0.3479
7 -3 2 2.1624 -0.3779
7 -3 3 -0.5359 -0.3640
7 -3 4 -2.1924 -0.3033
7 -3 5 -2.0024 -0.2049
7 -3 6 -0.1522 -0.0861
7 -3 7 2.2700 0.0320
7 -3 8 3.9078 0.1277
7 -3 9 3.9266 0.1828
7 -2 0 2.4934 -0.2508
7 -2 1 1.6642 -0.2235
7 -2 2 1.4539 -0.1734
7 -2 3 2.0040 -0.1095
7 -2 4 2.7283 -0.0462
7 -2 5 2.6558 0.0029
7 -2 6 1.1056 0.0299
7 -2 7 -1.7545 0.0339
7 -2 8 -4.8661 0.0207
7 -2 9 -6.8286 0.0001
7 -1 0 -5.0100 0.0748
7 -1 1 -3.3708 0.1639
7 -1 2 -1.2515 0.2375
7 -1 3 0.2327 0.2693
7 -1 4 0.3185 0.2461
7 -1 5 -0.8877 0.1697
7 -1 6 -2.4364 0.0556
7 -1 7 -3.1235 -0.0710
7 -1 8 -2.2645 -0.1806
7 -1 9 -0.1432 -0.2477
7 -1 10 2.1661 -0.2587
7 0 0 3.0767 0.4471
7 0 1 1.8651 0.4676
7 0 2 -0.1863 0.4493
7 0 3 -2.1891 0.3895
7 0 4 -2.8271 0.2971
7 0 5 -1.1561 0.1918
7 0 6 2.6913 0.0985
7 0 7 7.3878 0.0382
7 0 8 11.0190 0.0194
7 0 9 12.0789 0.0338
7 0 10 10.2563 0.0606
7 1 0 -0.6898 0.3174
7 1 1 0.4187 0.2427
7 1 2 1.5609 0.1403
7 1 3 2.4863 0.0446
7 1 4 2.6787 -0.0148
7 1 5 1.5368 -0.0230
7 1 6 -1.2199 0.0155
7 1 7 -5.1812 0.0792
7 1 8 -9.2179 0.1377
7 1 9 -11.9101 0.1648
7 1 10 -12.2348 0.1488
7 2 0 -0.1108 -0.1572
7 2 1 -1.9895 -0.2181
7 2 2 -2.8405 -0.2479
7 2 3 -2.5264 -0.2315
7 2 4 -1.4945 -0.1659
7 2 5 -0.3901 -0.0650
7 2 6 0.3724 0.0428
7 2 7 0.7913 0.1254
7 2 8 1.1306 0.1613
7 2 9 1.6036 0.1493
7 2 10 2.1529 0.1082
7 3 0 0.1532 -0.3985
7 3 1 1.1272 -0.4266
7 3 2 1.4989 -0.4047
7 3 3 1.1244 -0.3485
7 3 4 0.3500 -0.2835
7 3 5 -0.1721 -0.2339
7 3 6 0.1010 -0.2109
7 3 7 1.2253 -0.2079
7 3 8 2.6919 -0.2057
7 3 9 3.7172 -0.1846
7 3 10 3.7209 -0.1374
7 4 0 -0.4072 -0.3187
7 4 1 1.5636 -0.2380
7 4 2 2.8115 -0.1412
7 4 3 2.9498 -0.0583
7 4 4 2.1103 -0.0160
7 4 5 0.7845 -0.0222
7 4 6 -0.4735 -0.0617
7 4 7 -1.2911 -0.1048
7 4 8 -1.5586 -0.1234
7 4 9 -1.3669 -0.1061
7 5 0 -0.3445 0.0265
7 5 1 -2.4661 0.1160
7 5 2 -4.0147 0.1607
7 5 3 -4.1901 0.1522
7 5 4 -2.8949 0.1058
7 5 5 -0.8017 0.0486
7 5 6 1.0330 0.0027
7 5 7 1.7686 -0.0261
7 5 8 1.2271 -0.0472
7 5 9 -0.0744 -0.0730
7 6 0 1.3765 0.5368
7 6 1 0.8922 0.5204
7 6 2 0.7888 0.4539
7 6 3 0.7374 0.3639
7 6 4 0.3159 0.2807
7 6 5 -0.6457 0.2234
7 6 6 -1.8884 0.1944
7 6 7 -2.8548 0.1824
7 6 8 -3.0460 0.1720
7 7 0 -2.4664 0.3653
7 7 1 -1.5244 0.2497
7 7 2 -0.6097 0.1406
7 7 3 -0.0505 0.0659
7 7 4 0.1887 0.0320
7 7 5 0.4350 0.0276
7 7 6 1.0117 0.0345
7 7 7 1.9399 0.0394
7 8 0 2.7507 -0.2035
7 8 1 3.0899 -0.2332
7 8 2 2.7745 -0.2189
7 8 3 2.0726 -0.1653
7 8 4 1.3377 -0.0864
7 8 5 0.7667 -0.0003
7 8 6 0.3143 0.0762
8 -4 0 -2.0249 0.1351
8 -4 1 -2.5647 0.1735
8 -4 2 -2.1940 0.2140
8 -4 3 -1.0451 0.2341
8 -4 4 0.3024 0.2190
8 -3 0 -5.5685 0.0837
8 -3 1 -3.4521 0.1068
8 -3 2 -1.4548 0.0947
8 -3 3 -0.5314 0.0587
8 -3 4 -1.0075 0.0220
8 -3 5 -2.3941 0.0051
8 -3 6 -3.7022 0.0140
8 -2 0 8.5682 -0.0936
8 -2 1 6.4589 -0.1879
8 -2 2 2.9829 -0.2542
8 -2 3 -0.5126 -0.2681
8 -2 4 -2.5808 -0.2238
8 -2 5 -2.4752 -0.1348
8 -2 6 -0.5858 -0.0264
8 -2 7 1.7910 0.0748
8 -1 0 -4.8156 -0.3118
8 -1 1 -4.9268 -0.3103
8 -1 2 -3.5450 -0.2827
8 -1 3 -0.8764 -0.2347
8 -1 4 2.0088 -0.1805
8 -1 5 3.7021 -0.1360
8 -1 6 3.2900 -0.1116
8 -1 7 0.9602 -0.1085
8 -1 8 -2.0432 -0.1192
8 0 0 -1.7108 -0.2804
8 0 1 -0.8638 -0.2113
8 0 2 0.3181 -0.1198
8 0 3 1.0847 -0.0417
8 0 4 0.9583 -0.0024
8 0 5 0.1140 -0.0089
8 0 6 -0.6978 -0.0507
8 0 7 -0.6651 -0.1061
8 0 8 0.4885 -0.1514
8 1 0 4.0178 0.2094
8 1 1 4.2719 0.2396
8 1 2 3.0673 0.2329
8 1 3 0.7464 0.1885
8 1 4 -1.5926 0.1178
8 1 5 -2.7310 0.0406
8 1 6 -2.0815 -0.0216
8 1 7 -0.0539 -0.0535
8 1 8 2.2089 -0.0511
8 2 0 -0.2001 0.4376
8 2 1 0.2624 0.4450
8 2 2 0.9776 0.4021
8 2 3 1.9566 0.3361
8 2 4 2.8372 0.2742
8 2 5 2.9748 0.2334
8 2 6 1.8315 0.2162
8 2 7 -0.5779 0.2124
8 2 8 -3.5213 0.2060
8 3 0 -0.9744 0.2499
8 3 1 -3.8790 0.1927
8 3 2 -5.7643 0.1415
8 3 3 -5.9671 0.1091
8 3 4 -4.5464 0.1024
8 3 5 -2.1297 0.1186
8 3 6 0.4687 0.1449
8 3 7 2.5936 0.1631
8 3 8 3.8944 0.1577
8 4 0 -0.6818 -0.0995
8 4 1 1.8639 -0.1892
8 4 2 4.1408 -0.2377
8 4 3 5.2260 -0.2428
8 4 4 4.7354 -0.2167
8 4 5 3.0121 -0.1796
8 4 6 0.8980 -0.1490
8 4 7 -0.7521 -0.1311
8 5 0 -0.9705 -0.5750
8 5 1 0.0019 -0.5191
8 5 2 0.2490 -0.4127
8 5 3 -0.4027 -0.2863
8 5 4 -1.6199 -0.1738
8 5 5 -2.7949 -0.0979
8 5 6 -3.4036 -0.0609
8 5 7 -3.2543 -0.0470
8 6 0 2.2084 -0.3783
8 6 1 0.1918 -0.2786
8 6 2 -1.8556 -0.2013
8 6 3 -2.9037 -0.1670
8 6 4 -2.4569 -0.1710
8 6 5 -0.8214 -0.1900
8 6 6 1.1111 -0.1981
9 0 2 -4.4816 -0.1465
9 0 3 -2.2071 -0.1271
9 1 1 1.1893 -0.3711
9 1 2 1.1225 -0.3201
9 1 3 0.6675 -0.2572
9 1 4 -0.2519 -0.2028
9 2 1 3.5526 -0.0308
9 2 2 4.2713 -0.0532
9 2 3 3.7733 -0.0921
9 2 4 2.3664 -0.1315
9 3 2 -0.8582 0.2671
9 3 3 -0.7593 0.2723
0 0 0 0.0 0.0
;
_shelx_fab_checksum              60826
loop_
_space_group_symop_operation_xyz
'x, y, z'
'-x, -y, -z'
loop_
_atom_site_label
_atom_site_type_symbol
_atom_site_fract_x
_atom_site_fract_y
_atom_site_fract_z
_atom_site_U_iso_or_equiv
_atom_site_adp_type
_atom_site_occupancy
_atom_site_site_symmetry_order
_atom_site_calc_flag
_atom_site_refinement_flags_posn
_atom_site_refinement_flags_adp
_atom_site_refinement_flags_occupancy
_atom_site_disorder_assembly
_atom_site_disorder_group
Au1 Au 0.62175(18) 0.14934(14) 0.51212(13) 0.0637(5) Uani 1 1 d . . . . .
N1 N 0.598(4) 0.254(3) 0.779(3) 0.092(11) Uani 1 1 d . . . . .
N2 N 0.666(4) 0.089(3) 0.227(3) 0.085(10) Uani 1 1 d . . . . .
C1 C 0.608(5) 0.202(5) 0.676(3) 0.097(15) Uani 1 1 d . . . . .
C2 C 0.654(4) 0.105(3) 0.337(3) 0.061(9) Uani 1 1 d . . . . .
Ag1 Ag 1.0343(4) 0.0891(2) 0.5865(2) 0.0648(8) Uani 1 1 d . . . . .
N3 N 1.108(3) 0.293(2) 0.656(2) 0.054(7) Uani 1 1 d . . . . .
N4 N 1.152(3) 0.2171(19) 0.4219(16) 0.032(5) Uani 1 1 d . U . . .
N5 N 1.112(3) 0.058(2) 0.279(2) 0.060(7) Uani 1 1 d . . . . .
C3 C 1.098(5) 0.324(4) 0.774(4) 0.099(14) Uani 1 1 d . . . . .
H3 H 1.060633 0.259172 0.836579 0.119 Uiso 1 1 calc R U . . .
C4 C 1.140(4) 0.446(4) 0.807(2) 0.058(9) Uani 1 1 d . . . . .
H4 H 1.122313 0.461736 0.892055 0.070 Uiso 1 1 calc R U . . .
C5 C 1.200(4) 0.540(3) 0.734(3) 0.057(9) Uani 1 1 d . . . . .
H5 H 1.218883 0.624563 0.761141 0.069 Uiso 1 1 calc R U . . .
C6 C 1.238(4) 0.508(3) 0.603(3) 0.066(9) Uani 1 1 d . U . . .
H6 H 1.293293 0.567312 0.541024 0.079 Uiso 1 1 calc R U . . .
C7 C 1.185(4) 0.381(3) 0.573(2) 0.044(7) Uani 1 1 d . U . . .
C8 C 1.208(3) 0.340(3) 0.439(2) 0.039(7) Uani 1 1 d . U . . .
C9 C 1.287(4) 0.422(3) 0.335(3) 0.064(9) Uani 1 1 d . . . . .
H9 H 1.332241 0.502879 0.349696 0.077 Uiso 1 1 calc R U . . .
C10 C 1.299(4) 0.387(3) 0.218(3) 0.056(8) Uani 1 1 d . . . . .
H10 H 1.341301 0.447752 0.153206 0.067 Uiso 1 1 calc R U . . .
C11 C 1.251(4) 0.265(3) 0.190(3) 0.051(8) Uani 1 1 d . . . . .
C12 C 1.276(4) 0.215(3) 0.066(3) 0.064(9) Uani 1 1 d . . . . .
H12 H 1.325423 0.265814 -0.004471 0.077 Uiso 1 1 calc R U . . .
C13 C 1.223(4) 0.088(3) 0.057(3) 0.070(9) Uani 1 1 d . U . . .
H13 H 1.243795 0.050823 -0.021820 0.084 Uiso 1 1 calc R U . . .
C14 C 1.142(5) 0.014(4) 0.154(3) 0.089(12) Uani 1 1 d . . . . .
H14 H 1.104640 -0.069662 0.139901 0.107 Uiso 1 1 calc R U . . .
C15 C 1.175(4) 0.181(3) 0.296(3) 0.047(7) Uani 1 1 d . U . . .
loop_
_atom_site_aniso_label
_atom_site_aniso_U_11
_atom_site_aniso_U_22
_atom_site_aniso_U_33
_atom_site_aniso_U_23
_atom_site_aniso_U_13
_atom_site_aniso_U_12
Au1 0.0473(8) 0.0647(10) 0.0792(10) 0.0051(7) -0.0133(6) -0.0075(6)
N1 0.046(18) 0.042(18) 0.19(4) 0.01(2) -0.04(2) 0.002(14)
N2 0.09(2) 0.11(3) 0.078(19) -0.043(17) -0.070(18) 0.014(17)
C1 0.04(2) 0.17(5) 0.09(3) 0.01(3) -0.02(2) -0.02(3)
C2 0.05(2) 0.035(19) 0.11(3) -0.005(18) -0.04(2) -0.004(15)
Ag1 0.0784(18) 0.0503(17) 0.0699(16) -0.0045(13) -0.0115(14) -0.0277(14)
N3 0.036(14) 0.035(15) 0.093(19) 0.002(14) -0.011(14) -0.014(11)
N4 0.034(8) 0.034(9) 0.028(8) -0.008(7) -0.002(7) -0.002(7)
N5 0.053(16) 0.034(15) 0.10(2) -0.015(14) -0.032(15) -0.001(12)
C3 0.12(3) 0.08(3) 0.13(4) -0.04(3) -0.04(3) -0.05(3)
C4 0.07(2) 0.09(3) 0.030(17) 0.010(17) -0.035(15) -0.009(19)
C5 0.06(2) 0.05(2) 0.07(2) 0.010(18) -0.050(18) -0.004(17)
C6 0.064(12) 0.066(12) 0.075(12) -0.004(9) -0.023(9) -0.019(9)
C7 0.038(10) 0.038(10) 0.058(10) -0.002(8) -0.009(8) -0.009(8)
C8 0.040(10) 0.040(10) 0.036(10) -0.005(8) -0.006(8) 0.000(8)
C9 0.08(2) 0.05(2) 0.06(2) 0.013(17) 0.001(19) -0.028(18)
C10 0.05(2) 0.06(2) 0.07(2) 0.017(17) -0.034(17) -0.024(17)
C11 0.029(16) 0.035(18) 0.09(2) -0.027(17) -0.018(16) 0.017(14)
C12 0.06(2) 0.07(2) 0.06(2) -0.010(18) -0.002(17) -0.019(18)
C13 0.067(12) 0.069(12) 0.074(12) -0.013(9) -0.011(9) -0.011(9)
C14 0.10(3) 0.11(3) 0.05(2) -0.03(2) 0.01(2) -0.01(2)
C15 0.040(10) 0.047(11) 0.058(11) 0.006(9) -0.015(8) -0.010(8)
loop_
_atom_type_symbol
_atom_type_description
_atom_type_scat_dispersion_real
_atom_type_scat_dispersion_imag
_atom_type_scat_source
C C 0.0033 0.0016 'International Tables Vol C Tables 4.2.6.8 and 6.1.1.4'
H H 0.0000 0.0000 'International Tables Vol C Tables 4.2.6.8 and 6.1.1.4'
Ag Ag -0.8971 1.1015 'International Tables Vol C Tables 4.2.6.8 and 6.1.1.4'
Au Au -2.0133 8.8022 'International Tables Vol C Tables 4.2.6.8 and 6.1.1.4'
N N 0.0061 0.0033 'International Tables Vol C Tables 4.2.6.8 and 6.1.1.4'
loop_
_geom_angle_atom_site_label_1
_geom_angle_atom_site_label_2
_geom_angle_atom_site_label_3
_geom_angle
_geom_angle_site_symmetry_1
_geom_angle_site_symmetry_3
_geom_angle_publ_flag
C1 Au1 C2 175.0(15) . . ?
C1 Au1 Ag1 70.8(11) . . ?
C2 Au1 Ag1 106.1(8) . . ?
C1 Au1 Ag1 114.9(13) . 2_756 ?
C2 Au1 Ag1 64.2(8) . 2_756 ?
Ag1 Au1 Ag1 50.39(8) . 2_756 ?
N1 C1 Au1 172(4) . . ?
N2 C2 Au1 174(3) . . ?
N5 Ag1 N4 167.7(8) 2_756 . ?
N5 Ag1 N3 120.2(9) 2_756 . ?
N4 Ag1 N3 70.9(8) . . ?
N5 Ag1 Ag1 82.0(7) 2_756 2_756 ?
N4 Ag1 Ag1 86.4(5) . 2_756 ?
N3 Ag1 Ag1 156.6(6) . 2_756 ?
N5 Ag1 Au1 82.0(6) 2_756 . ?
N4 Ag1 Au1 89.7(5) . . ?
N3 Ag1 Au1 107.2(6) . . ?
Ag1 Ag1 Au1 65.92(10) 2_756 . ?
N5 Ag1 Au1 91.1(6) 2_756 2_756 ?
N4 Ag1 Au1 87.2(5) . 2_756 ?
N3 Ag1 Au1 118.9(5) . 2_756 ?
Ag1 Ag1 Au1 63.69(10) 2_756 2_756 ?
Au1 Ag1 Au1 129.61(8) . 2_756 ?
C7 N3 C3 115(3) . . ?
C7 N3 Ag1 118(2) . . ?
C3 N3 Ag1 126(2) . . ?
C8 N4 C15 115(2) . . ?
C8 N4 Ag1 120.0(15) . . ?
C15 N4 Ag1 124.9(17) . . ?
C15 N5 C14 116(3) . . ?
C15 N5 Ag1 132(2) . 2_756 ?
C14 N5 Ag1 112(2) . 2_756 ?
N3 C3 C4 122(4) . . ?
N3 C3 H3 118.8 . . ?
C4 C3 H3 118.8 . . ?
C5 C4 C3 126(3) . . ?
C5 C4 H4 116.9 . . ?
C3 C4 H4 116.9 . . ?
C4 C5 C6 115(3) . . ?
C4 C5 H5 122.6 . . ?
C6 C5 H5 122.6 . . ?
C7 C6 C5 117(3) . . ?
C7 C6 H6 121.7 . . ?
C5 C6 H6 121.7 . . ?
N3 C7 C6 124(3) . . ?
N3 C7 C8 115(3) . . ?
C6 C7 C8 121(2) . . ?
N4 C8 C9 121(2) . . ?
N4 C8 C7 116(2) . . ?
C9 C8 C7 124(3) . . ?
C10 C9 C8 123(3) . . ?
C10 C9 H9 118.7 . . ?
C8 C9 H9 118.7 . . ?
C9 C10 C11 122(3) . . ?
C9 C10 H10 119.1 . . ?
C11 C10 H10 119.1 . . ?
C10 C11 C12 125(3) . . ?
C10 C11 C15 115(3) . . ?
C12 C11 C15 120(3) . . ?
C13 C12 C11 116(3) . . ?
C13 C12 H12 121.9 . . ?
C11 C12 H12 121.9 . . ?
C14 C13 C12 124(3) . . ?
C14 C13 H13 118.0 . . ?
C12 C13 H13 118.0 . . ?
C13 C14 N5 123(3) . . ?
C13 C14 H14 118.6 . . ?
N5 C14 H14 118.6 . . ?
N5 C15 N4 115(2) . . ?
N5 C15 C11 120(3) . . ?
N4 C15 C11 125(3) . . ?
loop_
_geom_bond_atom_site_label_1
_geom_bond_atom_site_label_2
_geom_bond_distance
_geom_bond_site_symmetry_2
_geom_bond_publ_flag
Au1 C1 1.87(4) . ?
Au1 C2 1.94(3) . ?
Au1 Ag1 3.241(3) . ?
Au1 Ag1 3.301(3) 2_756 ?
N1 C1 1.23(4) . ?
N2 C2 1.20(3) . ?
Ag1 N5 2.21(2) 2_756 ?
Ag1 N4 2.223(17) . ?
Ag1 N3 2.33(2) . ?
Ag1 Ag1 2.786(5) 2_756 ?
N3 C7 1.31(3) . ?
N3 C3 1.31(4) . ?
N4 C8 1.35(3) . ?
N4 C15 1.41(3) . ?
N5 C15 1.37(3) . ?
N5 C14 1.41(3) . ?
C3 C4 1.36(4) . ?
C3 H3 0.9300 . ?
C4 C5 1.25(3) . ?
C4 H4 0.9300 . ?
C5 C6 1.44(4) . ?
C5 H5 0.9300 . ?
C6 C7 1.42(4) . ?
C6 H6 0.9300 . ?
C7 C8 1.50(3) . ?
C8 C9 1.42(3) . ?
C9 C10 1.32(4) . ?
C9 H9 0.9300 . ?
C10 C11 1.35(4) . ?
C10 H10 0.9300 . ?
C11 C12 1.43(4) . ?
C11 C15 1.44(4) . ?
C12 C13 1.36(4) . ?
C12 H12 0.9300 . ?
C13 C14 1.33(4) . ?
C13 H13 0.9300 . ?
C14 H14 0.9300 . ?
