#------------------------------------------------------------------------------
#$Date: 2022-07-23 03:08:42 +0300 (Sat, 23 Jul 2022) $
#$Revision: 276835 $
#$URL: file:///home/coder/svn-repositories/cod/cif/7/71/07/7710723.cif $
#------------------------------------------------------------------------------
#
# This file is available in the Crystallography Open Database (COD),
# http://www.crystallography.net/
#
# All data on this site have been placed in the public domain by the
# contributors.
#
data_7710723
loop_
_publ_author_name
'Bauer, Josh'
'Benz, Maximilian'
'Klap\"otke, Thomas M'
'Stierstorfer, J\"org'
_publ_section_title
;
 Chemistry of 2,5-diaminotetrazole.
;
_journal_name_full
'Dalton transactions (Cambridge, England : 2003)'
_journal_paper_doi               10.1039/d2dt01480g
_journal_year                    2022
_chemical_formula_moiety         '	C2 H7 N6, N3'
_chemical_formula_sum            'C2 H7 N9'
_chemical_formula_weight         157.17
_chemical_name_common            '4-methyl-2,5-diaminotetrazolium azide'
_chemical_name_systematic
;
4-methyl-2,5-diaminotetrazolium azide
;
_space_group_IT_number           19
_space_group_name_Hall           'P 2ac 2ab'
_space_group_name_H-M_alt        'P 21 21 21'
_symmetry_cell_setting           orthorhombic
_symmetry_Int_Tables_number      19
_symmetry_space_group_name_Hall  'P 2ac 2ab'
_symmetry_space_group_name_H-M   'P 21 21 21'
_atom_sites_solution_hydrogens   mixed
_audit_creation_method           SHELXL-2013
_audit_update_record
;
2022-05-11 deposited with the CCDC.	2022-07-21 downloaded from the CCDC.
;
_cell_angle_alpha                90
_cell_angle_beta                 90
_cell_angle_gamma                90
_cell_formula_units_Z            4
_cell_length_a                   6.2958(3)
_cell_length_b                   8.4859(4)
_cell_length_c                   13.1114(6)
_cell_measurement_reflns_used    2911
_cell_measurement_temperature    100(2)
_cell_measurement_theta_max      25.3267
_cell_measurement_theta_min      2.8593
_cell_volume                     700.48(6)
_computing_cell_refinement       'APEX2 v2012.4-3 (Bruker AXS)'
_computing_data_collection       'Bruker Instrument Service v3.0.21'
_computing_data_reduction        'SAINT V8.18C (Bruker AXS Inc., 2011)'
_computing_structure_refinement  'SHELXL-2013 (Sheldrick, 2013)'
_diffrn_ambient_temperature      100(2)
_diffrn_detector_area_resol_mean 7.4074
_diffrn_measured_fraction_theta_full 0.991
_diffrn_measured_fraction_theta_max 0.991
_diffrn_measurement_device_type  'D8 Venture'
_diffrn_measurement_method       'mix of omega and phi scans'
_diffrn_radiation_type           MoK\a
_diffrn_radiation_wavelength     0.71073
_diffrn_reflns_av_R_equivalents  0.0459
_diffrn_reflns_av_unetI/netI     0.0294
_diffrn_reflns_Laue_measured_fraction_full 0.991
_diffrn_reflns_Laue_measured_fraction_max 0.991
_diffrn_reflns_limit_h_max       7
_diffrn_reflns_limit_h_min       -7
_diffrn_reflns_limit_k_max       10
_diffrn_reflns_limit_k_min       -10
_diffrn_reflns_limit_l_max       15
_diffrn_reflns_limit_l_min       -15
_diffrn_reflns_number            7177
_diffrn_reflns_point_group_measured_fraction_full 0.995
_diffrn_reflns_point_group_measured_fraction_max 0.995
_diffrn_reflns_theta_full        25.242
_diffrn_reflns_theta_max         25.327
_diffrn_reflns_theta_min         2.859
_diffrn_source                   'rotating anode generator'
_exptl_absorpt_coefficient_mu    0.116
_exptl_absorpt_correction_T_max  0.9705
_exptl_absorpt_correction_T_min  0.9177
_exptl_absorpt_correction_type   multi-scan
_exptl_absorpt_process_details
;
SADABS-2016/2 - Bruker AXS area detector scaling and absorption correction
;
_exptl_crystal_colour            colourless
_exptl_crystal_density_diffrn    1.490
_exptl_crystal_density_method    'not measured'
_exptl_crystal_description       block
_exptl_crystal_F_000             328
_exptl_crystal_size_max          0.050
_exptl_crystal_size_mid          0.030
_exptl_crystal_size_min          0.020
_refine_diff_density_max         1.189
_refine_diff_density_min         -0.334
_refine_diff_density_rms         0.128
_refine_ls_abs_structure_details
;
 Refined as a perfect inversion twin.
;
_refine_ls_abs_structure_Flack   0.5
_refine_ls_extinction_method     none
_refine_ls_goodness_of_fit_ref   1.100
_refine_ls_hydrogen_treatment    mixed
_refine_ls_matrix_type           full
_refine_ls_number_parameters     109
_refine_ls_number_reflns         1274
_refine_ls_number_restraints     0
_refine_ls_restrained_S_all      1.100
_refine_ls_R_factor_all          0.0885
_refine_ls_R_factor_gt           0.0831
_refine_ls_shift/su_max          0.000
_refine_ls_shift/su_mean         0.000
_refine_ls_structure_factor_coef Fsqd
_refine_ls_weighting_details
'w=1/[\s^2^(Fo^2^)+(0.1637P)^2^+0.2034P] where P=(Fo^2^+2Fc^2^)/3'
_refine_ls_weighting_scheme      calc
_refine_ls_wR_factor_gt          0.2027
_refine_ls_wR_factor_ref         0.2093
_reflns_Friedel_coverage         0.664
_reflns_Friedel_fraction_full    1.000
_reflns_Friedel_fraction_max     1.000
_reflns_number_gt                1164
_reflns_number_total             1274
_reflns_threshold_expression     'I > 2\s(I)'
_cod_data_source_file            d2dt01480g2.cif
_cod_data_source_block           vv368
_cod_depositor_comments
;
The following automatic conversions were performed:

data item '_exptl_absorpt_correction_type' value 'Multi-Scan' was
changed to 'multi-scan' in accordance with the
/home/data/users/saulius/crontab/automatic-downloads/rss-feeds/RSC/lib/dictionaries/cif_core.dic
dictionary named 'cif_core.dic' version 2.4.2 last updated on
2011-04-26.

Automatic conversion script
Id: cif_fix_values 7556 2019-12-06 15:28:31Z antanas 
;
_cod_database_code               7710723
_shelx_space_group_comment
;
The symmetry employed for this shelxl refinement is uniquely defined
by the following loop, which should always be used as a source of
symmetry information in preference to the above space-group names.
They are only intended as comments.
;
_shelx_estimated_absorpt_t_min   0.994
_shelx_estimated_absorpt_t_max   0.998
_shelxl_version_number           2013-4
_shelx_res_file
;
TITL v1 in P2(1)2(1)2(1)
CELL  0.71073   6.2958   8.4859  13.1114   90.000   90.000   90.000
ZERR     4.00   0.0003   0.0004   0.0006    0.000    0.000    0.000
LATT  -1
SYMM  1/2 - X, - Y, 1/2 + Z
SYMM  1/2 + X, 1/2 - Y, - Z
SYMM  - X, 1/2 + Y, 1/2 - Z
SFAC  C    N    H
UNIT  8    36   28
MERG   2
OMIT    -2.00  54.00
OMIT     0   3   6
OMIT     3   0   1
OMIT     6   0   3
OMIT     3   0   3
OMIT     3   0   4
OMIT     5   0   2
TWIN
EQIV $1 -x+1, y+1/2, -z+1/2
HTAB N6 N7_$1
HTAB N5 N9
EQIV $2 -x+1, y-1/2, -z+1/2
HTAB N5 N7_$2
EQIV $3 x-1/2, -y+1/2, -z+1
HTAB N6 N9_$3
HTAB N6 N7_$1
HTAB N5 N9
HTAB N5 N7_$2
HTAB N6 N9_$3
FMAP   2
PLAN   20
SIZE     0.020   0.030   0.050
ACTA
BOND   $H
CONF
L.S.   5
TEMP  -173.00
WGHT    0.163700    0.203400
FVAR       0.20030
N1    2    0.416574    0.175261    0.490761    11.00000    0.02037    0.01697 =
         0.01568   -0.00114    0.00217   -0.00155
N2    2    0.400542    0.222462    0.588492    11.00000    0.01459    0.01853 =
         0.01733    0.00024   -0.00070   -0.00008
N3    2    0.373078    0.117474    0.656662    11.00000    0.01662    0.02191 =
         0.01455    0.00002    0.00113   -0.00354
N4    2    0.365188   -0.014143    0.600805    11.00000    0.01253    0.01740 =
         0.01108   -0.00033    0.00085    0.00490
N5    2    0.391260   -0.084949    0.425068    11.00000    0.03134    0.01996 =
         0.01727   -0.00028    0.00135    0.00143
AFIX  91
H5A   3    0.370753   -0.185916    0.436793    11.00000   -1.20000
H5B   3    0.411038   -0.051307    0.362296    11.00000   -1.20000
AFIX   0
N6    2    0.427583    0.377886    0.612518    11.00000    0.02647    0.01345 =
         0.02135    0.00038   -0.00225   -0.00007
C1    1    0.392346    0.015273    0.501061    11.00000    0.01268    0.02400 =
         0.00854   -0.00047   -0.00113   -0.00315
C2    1    0.349489   -0.168961    0.649983    11.00000    0.02142    0.02462 =
         0.02093    0.00925   -0.00292   -0.00008
AFIX 137
H2A   3    0.292647   -0.156365    0.719087    11.00000   -1.50000
H2B   3    0.490757   -0.217153    0.653508    11.00000   -1.50000
H2C   3    0.254574   -0.236801    0.610213    11.00000   -1.50000
AFIX   0
N7    2    0.637416    0.072925    0.065381    11.00000    0.02821    0.02087 =
         0.01799   -0.00083    0.00136   -0.00338
N8    2    0.632086    0.031445    0.151277    11.00000    0.00999    0.02750 =
         0.01555    0.00069   -0.00233    0.00327
N9    2    0.624138   -0.005608    0.237001    11.00000    0.02518    0.02782 =
         0.01429   -0.00074    0.00082    0.00088
H6A   3    0.415268    0.446928    0.556660    11.00000    0.03349
H6B   3    0.311180    0.404223    0.661750    11.00000    0.06241
HKLF    4

REM  v1 in P2(1)2(1)2(1)
REM R1 =  0.0831 for    1164 Fo > 4sig(Fo)  and  0.0885 for all    1274 data
REM    109 parameters refined using      0 restraints

END

WGHT      0.1637      0.2034

REM Highest difference peak  1.189,  deepest hole -0.334,  1-sigma level  0.128
Q1    1   0.4017 -0.3748  0.6154  11.00000  0.05    1.19
Q2    1   0.3959 -0.2261  0.5909  11.00000  0.05    1.12
Q3    1   0.3947  0.0874  0.4240  11.00000  0.05    1.11
Q4    1   0.3997 -0.1774  0.4953  11.00000  0.05    1.06
Q5    1   0.6193 -0.0788  0.0594  11.00000  0.05    1.05
Q6    1   0.6172 -0.0353  0.1478  11.00000  0.05    0.61
Q7    1   0.3873  0.0230  0.6110  11.00000  0.05    0.57
Q8    1   0.3792 -0.1165  0.6576  11.00000  0.05    0.54
Q9    1   0.3542  0.1750  0.6460  11.00000  0.05    0.46
Q10   1   0.3469 -0.2596  0.4183  11.00000  0.05    0.39
Q11   1   0.3173 -0.0078  0.7458  11.00000  0.05    0.33
Q12   1   0.6557  0.1771 -0.0081  11.00000  0.05    0.32
Q13   1   0.3480  0.4272  0.5719  11.00000  0.05    0.26
Q14   1   0.3879 -0.1713  0.2743  11.00000  0.05    0.24
Q15   1   0.3681 -0.0239  0.2491  11.00000  0.05    0.22
Q16   1   0.6066  0.3468  0.6188  11.00000  0.05    0.22
Q17   1   0.4228  0.2217  0.4374  11.00000  0.05    0.21
Q18   1   0.6083 -0.1721  0.1368  11.00000  0.05    0.21
Q19   1   0.6159  0.1823  0.2433  11.00000  0.05    0.21
Q20   1   0.5872  0.1421  0.7434  11.00000  0.05    0.21
;
_shelx_res_checksum              17781
loop_
_space_group_symop_operation_xyz
'x, y, z'
'-x+1/2, -y, z+1/2'
'x+1/2, -y+1/2, -z'
'-x, y+1/2, -z+1/2'
loop_
_atom_site_label
_atom_site_type_symbol
_atom_site_fract_x
_atom_site_fract_y
_atom_site_fract_z
_atom_site_U_iso_or_equiv
_atom_site_adp_type
_atom_site_occupancy
_atom_site_site_symmetry_order
_atom_site_calc_flag
_atom_site_refinement_flags_posn
_atom_site_refinement_flags_adp
_atom_site_refinement_flags_occupancy
_atom_site_disorder_assembly
_atom_site_disorder_group
N1 N 0.4166(7) 0.1753(5) 0.4908(3) 0.0177(11) Uani 1 1 d . . . . .
N2 N 0.4005(7) 0.2225(5) 0.5885(3) 0.0168(10) Uani 1 1 d . . . . .
N3 N 0.3731(7) 0.1175(5) 0.6567(3) 0.0177(10) Uani 1 1 d . . . . .
N4 N 0.3652(6) -0.0141(5) 0.6008(3) 0.0137(10) Uani 1 1 d . . . . .
N5 N 0.3913(8) -0.0849(5) 0.4251(3) 0.0229(11) Uani 1 1 d . . . . .
H5A H 0.3708 -0.1859 0.4368 0.027 Uiso 1 1 calc . U . . .
H5B H 0.4110 -0.0513 0.3623 0.027 Uiso 1 1 calc . U . . .
N6 N 0.4276(7) 0.3779(5) 0.6125(4) 0.0204(11) Uani 1 1 d . . . . .
C1 C 0.3923(7) 0.0153(6) 0.5011(3) 0.0151(11) Uani 1 1 d . . . . .
C2 C 0.3495(8) -0.1690(7) 0.6500(4) 0.0223(13) Uani 1 1 d . . . . .
H2A H 0.2926 -0.1564 0.7191 0.033 Uiso 1 1 calc R U . . .
H2B H 0.4908 -0.2172 0.6535 0.033 Uiso 1 1 calc R U . . .
H2C H 0.2546 -0.2368 0.6102 0.033 Uiso 1 1 calc R U . . .
N7 N 0.6374(8) 0.0729(5) 0.0654(3) 0.0224(11) Uani 1 1 d . . . . .
N8 N 0.6321(6) 0.0314(5) 0.1513(3) 0.0177(10) Uani 1 1 d . . . . .
N9 N 0.6241(8) -0.0056(5) 0.2370(3) 0.0224(11) Uani 1 1 d . . . . .
H6A H 0.415(12) 0.447(9) 0.557(5) 0.033(18) Uiso 1 1 d . . . . .
H6B H 0.311(14) 0.404(11) 0.662(7) 0.06(2) Uiso 1 1 d . . . . .
loop_
_atom_site_aniso_label
_atom_site_aniso_U_11
_atom_site_aniso_U_22
_atom_site_aniso_U_33
_atom_site_aniso_U_23
_atom_site_aniso_U_13
_atom_site_aniso_U_12
N1 0.020(2) 0.017(2) 0.016(2) -0.0011(17) 0.0022(17) -0.0016(17)
N2 0.015(2) 0.019(2) 0.017(2) 0.0002(17) -0.0007(18) -0.0001(17)
N3 0.017(2) 0.022(2) 0.015(2) 0.0000(17) 0.0011(18) -0.0035(18)
N4 0.0125(18) 0.017(2) 0.011(2) -0.0003(16) 0.0009(16) 0.0049(16)
N5 0.031(2) 0.020(2) 0.017(2) -0.0003(18) 0.001(2) 0.001(2)
N6 0.026(2) 0.013(2) 0.021(2) 0.0004(18) -0.0022(19) -0.0001(18)
C1 0.013(2) 0.024(3) 0.009(2) -0.0005(19) -0.001(2) -0.003(2)
C2 0.021(3) 0.025(3) 0.021(3) 0.009(2) -0.003(2) 0.000(2)
N7 0.028(2) 0.021(2) 0.018(3) -0.0008(19) 0.001(2) -0.0034(19)
N8 0.0100(18) 0.027(2) 0.016(2) 0.0007(18) -0.0023(17) 0.0033(17)
N9 0.025(2) 0.028(2) 0.014(2) -0.0007(18) 0.0008(18) 0.001(2)
loop_
_atom_type_symbol
_atom_type_description
_atom_type_scat_dispersion_real
_atom_type_scat_dispersion_imag
_atom_type_scat_source
C C 0.0033 0.0016 'International Tables Vol C Tables 4.2.6.8 and 6.1.1.4'
N N 0.0061 0.0033 'International Tables Vol C Tables 4.2.6.8 and 6.1.1.4'
H H 0.0000 0.0000 'International Tables Vol C Tables 4.2.6.8 and 6.1.1.4'
loop_
_geom_angle_atom_site_label_1
_geom_angle_atom_site_label_2
_geom_angle_atom_site_label_3
_geom_angle
_geom_angle_site_symmetry_1
_geom_angle_site_symmetry_3
_geom_angle_publ_flag
N2 N1 C1 101.1(4) . . ?
N3 N2 N1 118.0(4) . . ?
N3 N2 N6 122.0(4) . . ?
N1 N2 N6 119.8(4) . . ?
N2 N3 N4 101.8(4) . . ?
N3 N4 C1 111.9(4) . . ?
N3 N4 C2 120.7(4) . . ?
C1 N4 C2 127.1(4) . . ?
C1 N5 H5A 120.0 . . ?
C1 N5 H5B 120.0 . . ?
H5A N5 H5B 120.0 . . ?
N2 N6 H6A 114(4) . . ?
N2 N6 H6B 106(5) . . ?
H6A N6 H6B 108(7) . . ?
N5 C1 N4 128.3(5) . . ?
N5 C1 N1 124.6(4) . . ?
N4 C1 N1 107.1(4) . . ?
N4 C2 H2A 109.5 . . ?
N4 C2 H2B 109.5 . . ?
H2A C2 H2B 109.5 . . ?
N4 C2 H2C 109.5 . . ?
H2A C2 H2C 109.5 . . ?
H2B C2 H2C 109.5 . . ?
N9 N8 N7 178.1(5) . . ?
loop_
_geom_bond_atom_site_label_1
_geom_bond_atom_site_label_2
_geom_bond_distance
_geom_bond_site_symmetry_2
_geom_bond_publ_flag
N1 N2 1.346(6) . ?
N1 C1 1.373(7) . ?
N2 N3 1.274(6) . ?
N2 N6 1.367(6) . ?
N3 N4 1.337(6) . ?
N4 C1 1.342(6) . ?
N4 C2 1.467(6) . ?
N5 C1 1.310(7) . ?
N5 H5A 0.8800 . ?
N5 H5B 0.8800 . ?
N6 H6A 0.94(8) . ?
N6 H6B 1.00(9) . ?
C2 H2A 0.9800 . ?
C2 H2B 0.9800 . ?
C2 H2C 0.9800 . ?
N7 N8 1.180(6) . ?
N8 N9 1.168(7) . ?
loop_
_geom_contact_atom_site_label_1
_geom_contact_atom_site_label_2
_geom_contact_distance
_geom_contact_site_symmetry_1
_geom_contact_site_symmetry_2
_geom_contact_publ_flag
? ? ? ? ? ?
loop_
_geom_hbond_atom_site_label_D
_geom_hbond_atom_site_label_H
_geom_hbond_atom_site_label_A
_geom_hbond_distance_DH
_geom_hbond_distance_HA
_geom_hbond_distance_DA
_geom_hbond_angle_DHA
_geom_hbond_site_symmetry_A
N6 H6A N7 0.94(8) 1.95(8) 2.889(6) 173(7) 4_655
N5 H5B N9 0.88 2.16 2.947(6) 149.2 .
N5 H5A N7 0.88 2.05 2.912(6) 167.0 4_645
N6 H6B N9 1.00(9) 1.97(9) 2.953(7) 165(8) 3_456
N6 H6A N7 0.94(8) 1.95(8) 2.889(6) 173(7) 4_655
N5 H5B N9 0.88 2.16 2.947(6) 149.2 .
N5 H5A N7 0.88 2.05 2.912(6) 167.0 4_645
N6 H6B N9 1.00(9) 1.97(9) 2.953(7) 165(8) 3_456
loop_
_geom_torsion_atom_site_label_1
_geom_torsion_atom_site_label_2
_geom_torsion_atom_site_label_3
_geom_torsion_atom_site_label_4
_geom_torsion
_geom_torsion_site_symmetry_1
_geom_torsion_site_symmetry_2
_geom_torsion_site_symmetry_3
_geom_torsion_site_symmetry_4
_geom_torsion_publ_flag
C1 N1 N2 N3 0.8(5) . . . . ?
C1 N1 N2 N6 176.6(4) . . . . ?
N1 N2 N3 N4 -1.3(5) . . . . ?
N6 N2 N3 N4 -177.0(4) . . . . ?
N2 N3 N4 C1 1.2(5) . . . . ?
N2 N3 N4 C2 175.7(4) . . . . ?
N3 N4 C1 N5 -179.1(5) . . . . ?
C2 N4 C1 N5 6.9(8) . . . . ?
N3 N4 C1 N1 -0.8(5) . . . . ?
C2 N4 C1 N1 -174.9(4) . . . . ?
N2 N1 C1 N5 178.4(5) . . . . ?
N2 N1 C1 N4 0.1(5) . . . . ?
