#------------------------------------------------------------------------------
#$Date: 2022-07-23 03:08:42 +0300 (Sat, 23 Jul 2022) $
#$Revision: 276835 $
#$URL: file:///home/coder/svn-repositories/cod/cif/7/71/07/7710730.cif $
#------------------------------------------------------------------------------
#
# This file is available in the Crystallography Open Database (COD),
# http://www.crystallography.net/
#
# All data on this site have been placed in the public domain by the
# contributors.
#
data_7710730
loop_
_publ_author_name
'Bauer, Josh'
'Benz, Maximilian'
'Klap\"otke, Thomas M'
'Stierstorfer, J\"org'
_publ_section_title
;
 Chemistry of 2,5-diaminotetrazole.
;
_journal_name_full
'Dalton transactions (Cambridge, England : 2003)'
_journal_paper_doi               10.1039/d2dt01480g
_journal_year                    2022
_chemical_formula_moiety         '	C2 H7 N6, Cl O4'
_chemical_formula_sum            'C2 H7 Cl N6 O4'
_chemical_formula_weight         214.59
_chemical_name_common            '2,5-diamino-4-methyltetrazolium perchlorate'
_chemical_name_systematic        '2,5-diamino-4-methyltetrazolium perchlorate'
_space_group_IT_number           14
_space_group_name_Hall           '-P 2yn'
_space_group_name_H-M_alt        'P 1 21/n 1'
_symmetry_cell_setting           monoclinic
_symmetry_Int_Tables_number      14
_symmetry_space_group_name_Hall  '-P 2yn'
_symmetry_space_group_name_H-M   'P 1 21/n 1'
_atom_sites_solution_hydrogens   difmap
_atom_sites_solution_primary     dual
_audit_creation_date             2021-12-15
_audit_creation_method
;
Olex2 1.2
(compiled 2018.05.29 svn.r3508 for OlexSys, GUI svn.r5506)
;
_audit_update_record
;
2022-05-11 deposited with the CCDC.	2022-07-21 downloaded from the CCDC.
;
_cell_angle_alpha                90
_cell_angle_beta                 97.321(7)
_cell_angle_gamma                90
_cell_formula_units_Z            4
_cell_length_a                   5.4120(5)
_cell_length_b                   13.2511(10)
_cell_length_c                   10.9977(8)
_cell_measurement_reflns_used    2400
_cell_measurement_temperature    101
_cell_measurement_theta_max      32.0630
_cell_measurement_theta_min      2.4020
_cell_volume                     782.27(11)
_computing_cell_refinement       'CrysAlisPro 1.171.40.84a (Rigaku OD, 2020)'
_computing_data_collection       'CrysAlisPro 1.171.40.84a (Rigaku OD, 2020)'
_computing_data_reduction        'CrysAlisPro 1.171.40.84a (Rigaku OD, 2020)'
_computing_molecular_graphics    'Diamond 2.1c, Crystal Impact GbR'
_computing_publication_material  'Encifer 1.5.1, CCDC 2014'
_computing_structure_refinement  'ShelXL (Sheldrick, 2015)'
_computing_structure_solution    'ShelXT (Sheldrick, 2015)'
_diffrn_ambient_temperature      101
_diffrn_detector                 'CCD plate'
_diffrn_detector_area_resol_mean 15.9809
_diffrn_detector_type            Sapphire3
_diffrn_measured_fraction_theta_full 1.000
_diffrn_measured_fraction_theta_max 0.926
_diffrn_measurement_details
;
List of Runs (angles in degrees, time in seconds):

  # Type    Start    End  Width  t~exp~   \w     \q     \k     \f   Frames
#--------------------------------------------------------------------------
  1  \w    -96.00 -41.00   1.00    1.00    --  -23.99-178.00 -60.00   55
  2  \w    -77.00 -47.00   1.00    1.00    --  -23.99 124.00  94.34   30
  3  \w    -40.00  44.00   1.00    1.00    --   24.93 -38.00  90.00   84
  4  \w     12.00  89.00   1.00    1.00    --   24.93  57.00   0.00   77
  5  \w    -38.00  41.00   1.00    1.00    --   24.93 -57.00-120.00   79
  6  \w     20.00  93.00   1.00    1.00    --   24.93  38.00-120.00   73
  7  \w    -27.20  -2.20   1.00    1.00    --   24.93 127.00 -91.72   25
;
_diffrn_measurement_device       'four-circle diffractometer'
_diffrn_measurement_device_type  'Xcalibur, Sapphire3'
_diffrn_measurement_method       '\w scans'
_diffrn_orient_matrix_UB_11      0.1222769000
_diffrn_orient_matrix_UB_12      -0.0018241000
_diffrn_orient_matrix_UB_13      0.0320507000
_diffrn_orient_matrix_UB_21      0.0011208000
_diffrn_orient_matrix_UB_22      0.0534119000
_diffrn_orient_matrix_UB_23      0.0046106000
_diffrn_orient_matrix_UB_31      -0.0503074000
_diffrn_orient_matrix_UB_32      -0.0033314000
_diffrn_orient_matrix_UB_33      0.0563100000
_diffrn_radiation_monochromator  graphite
_diffrn_radiation_probe          x-ray
_diffrn_radiation_type           MoK\a
_diffrn_radiation_wavelength     0.71073
_diffrn_reflns_av_R_equivalents  0.0304
_diffrn_reflns_av_sigmaI/netI    0.0424
_diffrn_reflns_av_unetI/netI     0.0347
_diffrn_reflns_Laue_measured_fraction_full 1.000
_diffrn_reflns_Laue_measured_fraction_max 0.926
_diffrn_reflns_limit_h_max       7
_diffrn_reflns_limit_h_min       -7
_diffrn_reflns_limit_k_max       19
_diffrn_reflns_limit_k_min       -20
_diffrn_reflns_limit_l_max       16
_diffrn_reflns_limit_l_min       -16
_diffrn_reflns_number            8678
_diffrn_reflns_point_group_measured_fraction_full 1.000
_diffrn_reflns_point_group_measured_fraction_max 0.926
_diffrn_reflns_theta_full        25.242
_diffrn_reflns_theta_max         32.503
_diffrn_reflns_theta_min         2.418
_diffrn_source                   'fine-focus sealed X-ray tube'
_exptl_absorpt_coefficient_mu    0.487
_exptl_absorpt_correction_T_max  1.00000
_exptl_absorpt_correction_T_min  0.82731
_exptl_absorpt_correction_type   multi-scan
_exptl_absorpt_process_details
;
CrysAlisPro 1.171.40.84a (Rigaku Oxford Diffraction, 2020)
Empirical absorption correction using spherical harmonics,
implemented in SCALE3 ABSPACK scaling algorithm.
;
_exptl_crystal_colour            colourless
_exptl_crystal_density_diffrn    1.822
_exptl_crystal_description       block
_exptl_crystal_F_000             440
_exptl_crystal_size_max          0.5
_exptl_crystal_size_mid          0.5
_exptl_crystal_size_min          0.3
_refine_diff_density_max         0.454
_refine_diff_density_min         -0.494
_refine_diff_density_rms         0.080
_refine_ls_extinction_method     none
_refine_ls_goodness_of_fit_ref   1.050
_refine_ls_hydrogen_treatment    refall
_refine_ls_matrix_type           full
_refine_ls_number_parameters     146
_refine_ls_number_reflns         2622
_refine_ls_number_restraints     0
_refine_ls_restrained_S_all      1.050
_refine_ls_R_factor_all          0.0537
_refine_ls_R_factor_gt           0.0378
_refine_ls_shift/su_max          0.001
_refine_ls_shift/su_mean         0.000
_refine_ls_structure_factor_coef Fsqd
_refine_ls_weighting_details
'w=1/[\s^2^(Fo^2^)+(0.0462P)^2^+0.4153P] where P=(Fo^2^+2Fc^2^)/3'
_refine_ls_weighting_scheme      calc
_refine_ls_wR_factor_gt          0.0910
_refine_ls_wR_factor_ref         0.1011
_reflns_Friedel_coverage         0.000
_reflns_number_gt                2116
_reflns_number_total             2622
_reflns_threshold_expression     'I > 2\s(I)'
_cod_data_source_file            d2dt01480g2.cif
_cod_data_source_block           qx428
_cod_database_code               7710730
_shelx_space_group_comment
;
The symmetry employed for this shelxl refinement is uniquely defined
by the following loop, which should always be used as a source of
symmetry information in preference to the above space-group names.
They are only intended as comments.
;
_shelx_res_file
;
TITL qx428_a.res in P2(1)/n
    qx428.res
    created by SHELXL-2018/3 at 12:42:36 on 15-Dec-2021
REM Old TITL qx428 in P2(1)/n
REM SHELXT solution in P2(1)/n: R1 0.180, Rweak 0.227, Alpha 0.017
REM <I/s> 0.992 for 79 systematic absences, Orientation as input
REM Formula found by SHELXT: C12 Cl
CELL 0.71073 5.412 13.2511 10.9977 90 97.321 90
ZERR 4 0.0005 0.001 0.0008 0 0.007 0
LATT 1
SYMM 0.5-X,0.5+Y,0.5-Z
SFAC C H Cl N O
UNIT 8 28 4 24 16

L.S. 22
PLAN  20
TEMP -172.15
BOND
list 4
fmap 2 53
ACTA
REM <olex2.extras>
REM <HklSrc "%.\\qx428.hkl">
REM </olex2.extras>

WGHT    0.046200    0.415300
FVAR       0.88255
CL1   3    0.605218    0.544926    0.726551    11.00000    0.01830    0.01345 =
         0.01577    0.00161    0.00078    0.00026
O4    5    0.590038    0.526315    0.854918    11.00000    0.02215    0.02252 =
         0.01549    0.00183    0.00502    0.00111
O3    5    0.509653    0.459035    0.655698    11.00000    0.03202    0.02402 =
         0.02084   -0.00460    0.00080   -0.01013
O2    5    0.864114    0.560898    0.710070    11.00000    0.02157    0.03053 =
         0.02329   -0.00099    0.00743   -0.00699
N2    4    0.452551    0.836679    0.489017    11.00000    0.01415    0.01345 =
         0.01350    0.00045    0.00241    0.00034
N1    4    0.352502    0.861003    0.590141    11.00000    0.01710    0.01341 =
         0.01352   -0.00011    0.00377    0.00066
N4    4    0.164867    0.735039    0.486270    11.00000    0.01511    0.01363 =
         0.01373   -0.00068    0.00309   -0.00030
O1    5    0.465285    0.633559    0.688335    11.00000    0.04474    0.02497 =
         0.03507    0.00775   -0.00522    0.01494
N3    4    0.354056    0.761979    0.425161    11.00000    0.01562    0.01432 =
         0.01501   -0.00079    0.00341   -0.00049
N6    4    0.659230    0.884018    0.453929    11.00000    0.01626    0.01892 =
         0.01805    0.00158    0.00504   -0.00456
N5    4    0.005910    0.783902    0.669388    11.00000    0.02223    0.01688 =
         0.01713   -0.00037    0.00875   -0.00062
C1    1    0.167354    0.792846    0.587647    11.00000    0.01561    0.01158 =
         0.01276    0.00180    0.00173    0.00237
C2    1    0.001295    0.651578    0.444700    11.00000    0.02223    0.01956 =
         0.02297   -0.00645    0.00552   -0.00677
H6A   2    0.709335    0.927867    0.510957    11.00000    0.02084
H5A   2    0.025129    0.829157    0.730741    11.00000    0.02700
H6B   2    0.617805    0.917927    0.386871    11.00000    0.03160
H2A   2   -0.152019    0.665506    0.457037    11.00000    0.03841
H5B   2   -0.061991    0.726226    0.678678    11.00000    0.03238
H2B   2    0.048036    0.593710    0.489382    11.00000    0.04316
H2C   2    0.012749    0.640579    0.360561    11.00000    0.03968
HKLF 4




REM  qx428_a.res in P2(1)/n
REM wR2 = 0.1011, GooF = S = 1.050, Restrained GooF = 1.050 for all data
REM R1 = 0.0378 for 2116 Fo > 4sig(Fo) and 0.0537 for all 2622 data
REM 146 parameters refined using 0 restraints

END

WGHT      0.0462      0.4153

REM Highest difference peak  0.454,  deepest hole -0.494,  1-sigma level  0.080
Q1    1   0.5501  0.4990  0.6868  11.00000  0.05    0.45
Q2    1   0.2388  0.8377  0.5858  11.00000  0.05    0.41
Q3    1   0.6183  0.5403  0.7988  11.00000  0.05    0.40
Q4    1   0.1262  0.7834  0.6451  11.00000  0.05    0.37
Q5    1   0.0817  0.6966  0.4616  11.00000  0.05    0.35
Q6    1   0.5205  0.5969  0.7203  11.00000  0.05    0.33
Q7    1   0.7553  0.5488  0.7210  11.00000  0.05    0.33
Q8    1   0.1870  0.7479  0.5564  11.00000  0.05    0.32
Q9    1   0.5017  0.4846  0.8607  11.00000  0.05    0.30
Q10   1   0.6607  0.5160  0.8651  11.00000  0.05    0.29
Q11   1   0.5692  0.6218  0.6616  11.00000  0.05    0.28
Q12   1   0.4106  0.7995  0.4609  11.00000  0.05    0.28
Q13   1   0.2463  0.7518  0.4535  11.00000  0.05    0.27
Q14   1   0.8799  0.5051  0.7062  11.00000  0.05    0.27
Q15   1   0.3670  0.8571  0.5278  11.00000  0.05    0.27
Q16   1   0.6187  0.5767  0.8630  11.00000  0.05    0.26
Q17   1   0.5088  0.4992  0.6104  11.00000  0.05    0.25
Q18   1  -0.1574  0.6820  0.6407  11.00000  0.05    0.25
Q19   1   0.4216  0.9264  0.6357  11.00000  0.05    0.25
Q20   1   0.2731  0.6479  0.7061  11.00000  0.05    0.24
;
_shelx_res_checksum              3275
_olex2_submission_special_instructions 'No special instructions were received'
_oxdiff_exptl_absorpt_empirical_details
;
Empirical correction (ABSPACK) includes:
- Absorption correction using spherical harmonics
- Frame scaling
;
_oxdiff_exptl_absorpt_empirical_full_max 1.185
_oxdiff_exptl_absorpt_empirical_full_min 0.886
loop_
_space_group_symop_operation_xyz
'x, y, z'
'-x+1/2, y+1/2, -z+1/2'
'-x, -y, -z'
'x-1/2, -y-1/2, z-1/2'
loop_
_atom_site_label
_atom_site_type_symbol
_atom_site_fract_x
_atom_site_fract_y
_atom_site_fract_z
_atom_site_U_iso_or_equiv
_atom_site_adp_type
_atom_site_occupancy
_atom_site_site_symmetry_order
_atom_site_calc_flag
_atom_site_refinement_flags_posn
_atom_site_refinement_flags_adp
_atom_site_refinement_flags_occupancy
_atom_site_disorder_assembly
_atom_site_disorder_group
Cl1 Cl 0.60522(7) 0.54493(3) 0.72655(3) 0.01596(10) Uani 1 1 d . . . . .
O4 O 0.5900(2) 0.52632(9) 0.85492(10) 0.0198(2) Uani 1 1 d . . . . .
O3 O 0.5097(3) 0.45904(9) 0.65570(11) 0.0259(3) Uani 1 1 d . . . . .
O2 O 0.8641(2) 0.56090(10) 0.71007(11) 0.0247(3) Uani 1 1 d . . . . .
N2 N 0.4526(2) 0.83668(10) 0.48902(11) 0.0136(2) Uani 1 1 d . . . . .
N1 N 0.3525(2) 0.86100(9) 0.59014(11) 0.0145(2) Uani 1 1 d . . . . .
N4 N 0.1649(2) 0.73504(9) 0.48627(11) 0.0140(2) Uani 1 1 d . . . . .
O1 O 0.4653(3) 0.63356(10) 0.68833(13) 0.0358(3) Uani 1 1 d . . . . .
N3 N 0.3541(2) 0.76198(10) 0.42516(11) 0.0149(2) Uani 1 1 d . . . . .
N6 N 0.6592(3) 0.88402(11) 0.45393(13) 0.0175(3) Uani 1 1 d . . . . .
N5 N 0.0059(3) 0.78390(11) 0.66939(12) 0.0182(3) Uani 1 1 d . . . . .
C1 C 0.1674(3) 0.79285(11) 0.58765(13) 0.0133(3) Uani 1 1 d . . . . .
C2 C 0.0013(3) 0.65158(13) 0.44470(16) 0.0214(3) Uani 1 1 d . . . . .
H6A H 0.709(4) 0.9279(16) 0.5110(19) 0.021(5) Uiso 1 1 d . . . . .
H5A H 0.025(4) 0.8292(17) 0.7307(19) 0.027(5) Uiso 1 1 d . . . . .
H6B H 0.618(4) 0.9179(18) 0.387(2) 0.032(6) Uiso 1 1 d . . . . .
H2A H -0.152(5) 0.6655(19) 0.457(2) 0.038(6) Uiso 1 1 d . . . . .
H5B H -0.062(4) 0.7262(19) 0.679(2) 0.032(6) Uiso 1 1 d . . . . .
H2B H 0.048(5) 0.594(2) 0.489(2) 0.043(7) Uiso 1 1 d . . . . .
H2C H 0.013(5) 0.6406(18) 0.361(2) 0.040(7) Uiso 1 1 d . . . . .
loop_
_atom_site_aniso_label
_atom_site_aniso_U_11
_atom_site_aniso_U_22
_atom_site_aniso_U_33
_atom_site_aniso_U_23
_atom_site_aniso_U_13
_atom_site_aniso_U_12
Cl1 0.01830(18) 0.01345(17) 0.01577(17) 0.00161(12) 0.00078(12) 0.00026(12)
O4 0.0222(6) 0.0225(6) 0.0155(5) 0.0018(4) 0.0050(4) 0.0011(4)
O3 0.0320(7) 0.0240(6) 0.0208(6) -0.0046(5) 0.0008(5) -0.0101(5)
O2 0.0216(6) 0.0305(7) 0.0233(6) -0.0010(5) 0.0074(5) -0.0070(5)
N2 0.0142(6) 0.0134(6) 0.0135(5) 0.0004(4) 0.0024(4) 0.0003(4)
N1 0.0171(6) 0.0134(6) 0.0135(5) -0.0001(4) 0.0038(4) 0.0007(4)
N4 0.0151(6) 0.0136(6) 0.0137(5) -0.0007(4) 0.0031(4) -0.0003(4)
O1 0.0447(9) 0.0250(7) 0.0351(7) 0.0077(6) -0.0052(6) 0.0149(6)
N3 0.0156(6) 0.0143(6) 0.0150(6) -0.0008(4) 0.0034(4) -0.0005(5)
N6 0.0163(6) 0.0189(6) 0.0180(6) 0.0016(5) 0.0050(5) -0.0046(5)
N5 0.0222(7) 0.0169(6) 0.0171(6) -0.0004(5) 0.0088(5) -0.0006(5)
C1 0.0156(7) 0.0116(6) 0.0128(6) 0.0018(5) 0.0017(5) 0.0024(5)
C2 0.0222(8) 0.0196(8) 0.0230(8) -0.0064(6) 0.0055(6) -0.0068(6)
loop_
_atom_type_symbol
_atom_type_description
_atom_type_scat_dispersion_real
_atom_type_scat_dispersion_imag
_atom_type_scat_source
C C 0.0033 0.0016 'International Tables Vol C Tables 4.2.6.8 and 6.1.1.4'
H H 0.0000 0.0000 'International Tables Vol C Tables 4.2.6.8 and 6.1.1.4'
Cl Cl 0.1484 0.1585 'International Tables Vol C Tables 4.2.6.8 and 6.1.1.4'
N N 0.0061 0.0033 'International Tables Vol C Tables 4.2.6.8 and 6.1.1.4'
O O 0.0106 0.0060 'International Tables Vol C Tables 4.2.6.8 and 6.1.1.4'
loop_
_geom_angle_atom_site_label_1
_geom_angle_atom_site_label_2
_geom_angle_atom_site_label_3
_geom_angle
_geom_angle_site_symmetry_1
_geom_angle_site_symmetry_3
_geom_angle_publ_flag
O4 Cl1 O2 108.83(7) . . ?
O3 Cl1 O4 109.45(7) . . ?
O3 Cl1 O2 109.52(8) . . ?
O1 Cl1 O4 109.45(8) . . ?
O1 Cl1 O3 110.49(8) . . ?
O1 Cl1 O2 109.08(9) . . ?
N1 N2 N6 123.49(12) . . ?
N3 N2 N1 117.07(12) . . ?
N3 N2 N6 119.37(12) . . ?
N2 N1 C1 101.57(12) . . ?
N3 N4 C1 109.52(12) . . ?
N3 N4 C2 121.17(12) . . ?
C1 N4 C2 129.23(13) . . ?
N2 N3 N4 102.72(11) . . ?
N1 C1 N4 109.03(13) . . ?
N5 C1 N1 126.47(14) . . ?
N5 C1 N4 124.48(14) . . ?
loop_
_geom_bond_atom_site_label_1
_geom_bond_atom_site_label_2
_geom_bond_distance
_geom_bond_site_symmetry_2
_geom_bond_publ_flag
Cl1 O4 1.4457(11) . ?
Cl1 O3 1.4378(12) . ?
Cl1 O2 1.4511(13) . ?
Cl1 O1 1.4312(13) . ?
N2 N1 1.3369(16) . ?
N2 N3 1.2891(18) . ?
N2 N6 1.3797(17) . ?
N1 C1 1.3467(19) . ?
N4 N3 1.3427(17) . ?
N4 C1 1.3513(18) . ?
N4 C2 1.453(2) . ?
N5 C1 1.3363(19) . ?
loop_
_geom_contact_atom_site_label_1
_geom_contact_atom_site_label_2
_geom_contact_distance
_geom_contact_site_symmetry_1
_geom_contact_site_symmetry_2
_geom_contact_publ_flag
? ? ? ? ? ?
loop_
_geom_hbond_atom_site_label_D
_geom_hbond_atom_site_label_H
_geom_hbond_atom_site_label_A
_geom_hbond_distance_DH
_geom_hbond_distance_HA
_geom_hbond_distance_DA
_geom_hbond_angle_DHA
_geom_hbond_site_symmetry_A
? ? ? ? ? ? ? ?
loop_
_geom_torsion_atom_site_label_1
_geom_torsion_atom_site_label_2
_geom_torsion_atom_site_label_3
_geom_torsion_atom_site_label_4
_geom_torsion
_geom_torsion_site_symmetry_1
_geom_torsion_site_symmetry_2
_geom_torsion_site_symmetry_3
_geom_torsion_site_symmetry_4
_geom_torsion_publ_flag
? ? ? ? ? ? ? ? ? ?
