#------------------------------------------------------------------------------
#$Date: 2022-07-06 11:07:39 +0300 (Wed, 06 Jul 2022) $
#$Revision: 276612 $
#$URL: file:///home/coder/svn-repositories/cod/cif/7/71/04/7710472.cif $
#------------------------------------------------------------------------------
#
# This file is available in the Crystallography Open Database (COD),
# http://www.crystallography.net/
#
# All data on this site have been placed in the public domain by the
# contributors.
#
data_7710472
loop_
_publ_author_name
'Sergeenko, Ania S.'
'Paripovic, Damir'
'Dab, Chahinez'
'Blanc, Pierre-Fran\,cois'
'Reber, Christian'
'Leznoff, Daniel B.'
_publ_section_title
;
 Highly emissive polymorphs of anhydrous cadmium tetracyanoplatinate and
 their solvated coordination networks.
;
_journal_issue                   24
_journal_name_full
'Dalton transactions (Cambridge, England : 2003)'
_journal_page_first              9531
_journal_page_last               9540
_journal_paper_doi               10.1039/d2dt00918h
_journal_volume                  51
_journal_year                    2022
_chemical_formula_moiety         'C12 H24 Cd N4 O4 Pt S4'
_chemical_formula_sum            'C12 H24 Cd N4 O4 Pt S4'
_chemical_formula_weight         724.08
_space_group_crystal_system      triclinic
_space_group_IT_number           2
_space_group_name_Hall           '-P 1'
_space_group_name_H-M_alt        'P -1'
_atom_sites_solution_hydrogens   geom
_audit_update_record
;
2019-01-21 deposited with the CCDC.	2022-05-27 downloaded from the CCDC.
;
_cell_angle_alpha                69.236(6)
_cell_angle_beta                 76.287(7)
_cell_angle_gamma                85.858(8)
_cell_formula_units_Z            1
_cell_length_a                   7.5618(10)
_cell_length_b                   9.2109(11)
_cell_length_c                   9.4735(10)
_cell_measurement_reflns_used    9852
_cell_measurement_temperature    296(2)
_cell_measurement_theta_max      36.44
_cell_measurement_theta_min      2.37
_cell_volume                     599.34(13)
_computing_cell_refinement       'Bruker SAINT'
_computing_data_reduction        'Bruker SAINT'
_computing_structure_refinement  'SHELXL-2016/6 (Sheldrick, 2016)'
_computing_structure_solution    'SHELXT 2014/5 (Sheldrick, 2014)'
_diffrn_ambient_temperature      296(2)
_diffrn_measured_fraction_theta_full 1.000
_diffrn_measured_fraction_theta_max 1.000
_diffrn_measurement_device_type  'Bruker APEX-II CCD'
_diffrn_measurement_method       '\f and \w scans'
_diffrn_radiation_monochromator  graphite
_diffrn_radiation_type           MoK\a
_diffrn_radiation_wavelength     0.71073
_diffrn_reflns_av_R_equivalents  0.0287
_diffrn_reflns_av_unetI/netI     0.0154
_diffrn_reflns_Laue_measured_fraction_full 1.000
_diffrn_reflns_Laue_measured_fraction_max 1.000
_diffrn_reflns_limit_h_max       11
_diffrn_reflns_limit_h_min       -11
_diffrn_reflns_limit_k_max       14
_diffrn_reflns_limit_k_min       -14
_diffrn_reflns_limit_l_max       14
_diffrn_reflns_limit_l_min       -14
_diffrn_reflns_number            34714
_diffrn_reflns_point_group_measured_fraction_full 1.000
_diffrn_reflns_point_group_measured_fraction_max 1.000
_diffrn_reflns_theta_full        25.242
_diffrn_reflns_theta_max         33.142
_diffrn_reflns_theta_min         2.361
_exptl_absorpt_coefficient_mu    7.086
_exptl_absorpt_correction_T_max  0.7471
_exptl_absorpt_correction_T_min  0.6158
_exptl_absorpt_correction_type   multi-scan
_exptl_absorpt_process_details   '(Sheldrick , 1996)'
_exptl_crystal_colour            Colourless
_exptl_crystal_density_diffrn    2.006
_exptl_crystal_description       Block
_exptl_crystal_F_000             346
_exptl_crystal_size_max          0.163
_exptl_crystal_size_mid          0.116
_exptl_crystal_size_min          0.070
_refine_diff_density_max         0.605
_refine_diff_density_min         -0.607
_refine_diff_density_rms         0.077
_refine_ls_extinction_method     none
_refine_ls_goodness_of_fit_ref   1.062
_refine_ls_hydrogen_treatment    constr
_refine_ls_matrix_type           full
_refine_ls_number_parameters     125
_refine_ls_number_reflns         4583
_refine_ls_number_restraints     0
_refine_ls_restrained_S_all      1.062
_refine_ls_R_factor_all          0.0143
_refine_ls_R_factor_gt           0.0132
_refine_ls_shift/su_max          0.001
_refine_ls_shift/su_mean         0.000
_refine_ls_structure_factor_coef Fsqd
_refine_ls_weighting_details
'w=1/[\s^2^(Fo^2^)+(0.0120P)^2^+0.1255P] where P=(Fo^2^+2Fc^2^)/3'
_refine_ls_weighting_scheme      calc
_refine_ls_wR_factor_gt          0.0274
_refine_ls_wR_factor_ref         0.0279
_reflns_Friedel_coverage         0.000
_reflns_number_gt                4458
_reflns_number_total             4583
_reflns_threshold_expression     'I > 2\s(I)'
_cod_data_source_file            d2dt00918h2.cif
_cod_data_source_block           mo_Cd_PtCN4_DMSO_080217_0m_a
_cod_depositor_comments
;
The following automatic conversions were performed:

data item '_exptl_absorpt_correction_type' value 'Multi-scan' was
changed to 'multi-scan' in accordance with the
/home/data/users/saulius/crontab/automatic-downloads/rss-feeds/RSC/lib/dictionaries/cif_core.dic
dictionary named 'cif_core.dic' version 2.4.2 last updated on
2011-04-26.

Automatic conversion script
Id: cif_fix_values 7556 2019-12-06 15:28:31Z antanas 

 Adding full bibliography for 7710471--7710472.cif.
;
_cod_database_code               7710472
_shelx_space_group_comment
;
The symmetry employed for this shelxl refinement is uniquely defined
by the following loop, which should always be used as a source of
symmetry information in preference to the above space-group names.
They are only intended as comments.
;
_shelx_estimated_absorpt_t_min   0.391
_shelx_estimated_absorpt_t_max   0.637
_shelx_res_file
;
TITL mo_Cd_PtCN4_DMSO_080217_0m_a.res in P-1
    mo_Cd_PtCN4_DMSO_080217_0m_a.res
    created by SHELXL-2016/6 at 14:15:44 on 20-Jul-2017
REM Old TITL mo_Cd_PtCN4_DMSO_080217_0m in P-1
REM SHELXT solution in P-1
REM R1 0.060,  Rweak 0.010,  Alpha 0.033,  Orientation as input
REM Formula found by SHELXT:  C10 Cd N4 O6 Pt S4
CELL  0.71073   7.5618   9.2109   9.4735   69.236   76.287   85.858
ZERR    1.000   0.0010   0.0011   0.0010    0.006    0.007    0.008
LATT  1
SFAC C H CD N O PT S
UNIT 12 24 1 4 4 1 4
TEMP 23.000
SIZE 0.07 0.116 0.163
shel 999 0.65
L.S. 10
BOND $H
LIST 6
FMAP 2
PLAN 20
acta
WGHT    0.012000    0.125500
FVAR       0.55357
PT1   6    1.000000    1.000000    0.000000    10.50000    0.01652    0.01071 =
         0.01092   -0.00076   -0.00366    0.00062
S1    7    0.900677    0.623309    0.801511    11.00000    0.02309    0.03675 =
         0.02436   -0.01745   -0.00930    0.00739
O1    5    0.817513    0.556666    0.706294    11.00000    0.02197    0.02550 =
         0.02028   -0.01260   -0.00197    0.00039
CD1   3    1.000000    0.500000    0.500000    10.50000    0.01472    0.01173 =
         0.01078   -0.00054   -0.00213    0.00023
C1    1    0.969860    0.829578    0.203224    11.00000    0.01804    0.01520 =
         0.01643   -0.00236   -0.00413    0.00212
N1    4    0.952465    0.731344    0.321642    11.00000    0.02479    0.01943 =
         0.01878    0.00145   -0.00384    0.00336
N2    4    0.640836    1.150383    0.133068    11.00000    0.03475    0.04142 =
         0.02995   -0.01184   -0.00529    0.01528
S2    7    0.663905    0.243256    0.571128    11.00000    0.01671    0.01996 =
         0.02375   -0.00644   -0.00404   -0.00081
O2    5    0.752776    0.399188    0.464422    11.00000    0.02006    0.02759 =
         0.02059   -0.00232   -0.00504   -0.00747
C2    1    0.771950    1.096395    0.082852    11.00000    0.02579    0.02032 =
         0.01666   -0.00219   -0.00505    0.00351
C6    1    0.488053    0.220231    0.484223    11.00000    0.02238    0.03890 =
         0.03069   -0.01795   -0.00425   -0.00629
AFIX 137
H6A   2    0.413403    0.310893    0.466675    11.00000   -1.50000
H6B   2    0.414674    0.130727    0.551985    11.00000   -1.50000
H6C   2    0.541333    0.206667    0.387184    11.00000   -1.50000
AFIX   0
C5    1    0.525839    0.278688    0.736219    11.00000    0.03055    0.03697 =
         0.02135   -0.00979    0.00035   -0.01138
AFIX 137
H5A   2    0.443809    0.361732    0.703175    11.00000   -1.50000
H5B   2    0.602126    0.306959    0.790450    11.00000   -1.50000
H5C   2    0.457269    0.186443    0.803893    11.00000   -1.50000
AFIX   0
C4    1    0.732504    0.593813    0.976366    11.00000    0.03853    0.07360 =
         0.02654   -0.02716   -0.00741    0.01991
AFIX 137
H4A   2    0.620209    0.639332    0.952265    11.00000   -1.50000
H4B   2    0.772448    0.641700    1.038610    11.00000   -1.50000
H4C   2    0.714137    0.484496    1.032548    11.00000   -1.50000
AFIX   0
C3    1    0.879451    0.827572    0.716060    11.00000    0.07084    0.03211 =
         0.06616   -0.02358   -0.02903   -0.00560
AFIX 137
H3A   2    0.954627    0.862924    0.612928    11.00000   -1.50000
H3B   2    0.917485    0.878015    0.777098    11.00000   -1.50000
H3C   2    0.754777    0.852105    0.712000    11.00000   -1.50000
AFIX   0
HKLF 4




REM  mo_Cd_PtCN4_DMSO_080217_0m_a.res in P-1
REM R1 =  0.0132 for    4458 Fo > 4sig(Fo)  and  0.0143 for all    4583 data
REM    125 parameters refined using      0 restraints

END

WGHT      0.0120      0.1255

REM Highest difference peak  0.605,  deepest hole -0.607,  1-sigma level  0.077
Q1    1   1.0678  1.0559  0.0186  11.00000  0.05    0.60
Q2    1   1.0613  0.5523  0.5135  11.00000  0.05    0.49
Q3    1   0.8642  0.5954  0.7399  11.00000  0.05    0.44
Q4    1   1.0307  0.9348  0.0158  11.00000  0.05    0.44
Q5    1   0.8665  1.0452  0.0447  11.00000  0.05    0.42
Q6    1   0.9069  0.7348  0.7450  11.00000  0.05    0.42
Q7    1   0.9894  0.4558  0.4377  11.00000  0.05    0.40
Q8    1   0.5651  0.2313  0.5110  11.00000  0.05    0.39
Q9    1   0.8320  0.6267  0.8980  11.00000  0.05    0.36
Q10   1   0.7253  0.1636  0.5961  11.00000  0.05    0.35
Q11   1   0.9150  0.8039  0.2865  11.00000  0.05    0.34
Q12   1   0.7834  0.3601  0.4171  11.00000  0.05    0.30
Q13   1   1.0175  0.7587  0.2568  11.00000  0.05    0.30
Q14   1   0.7206  1.1463  0.0580  11.00000  0.05    0.30
Q15   1   0.7590  1.1616  0.0979  11.00000  0.05    0.29
Q16   1   0.5857  0.2934  0.6369  11.00000  0.05    0.29
Q17   1   0.9543  0.7399  0.2313  11.00000  0.05    0.28
Q18   1   0.7466  0.5954  0.7198  11.00000  0.05    0.27
Q19   1   0.9086  0.5621  0.6482  11.00000  0.05    0.27
Q20   1   1.0177  0.9028  0.1151  11.00000  0.05    0.26
;
_shelx_res_checksum              30433
loop_
_space_group_symop_operation_xyz
'x, y, z'
'-x, -y, -z'
loop_
_atom_site_label
_atom_site_type_symbol
_atom_site_fract_x
_atom_site_fract_y
_atom_site_fract_z
_atom_site_U_iso_or_equiv
_atom_site_adp_type
_atom_site_occupancy
_atom_site_site_symmetry_order
_atom_site_calc_flag
_atom_site_refinement_flags_posn
_atom_site_refinement_flags_adp
_atom_site_refinement_flags_occupancy
_atom_site_disorder_assembly
_atom_site_disorder_group
Pt1 Pt 1.000000 1.000000 0.000000 0.01348(2) Uani 1 2 d S . P . .
S1 S 0.90068(5) 0.62331(5) 0.80151(5) 0.02585(8) Uani 1 1 d . . . . .
O1 O 0.81751(15) 0.55667(13) 0.70629(12) 0.0218(2) Uani 1 1 d . . . . .
Cd1 Cd 1.000000 0.500000 0.500000 0.01349(3) Uani 1 2 d S . P . .
C1 C 0.96986(19) 0.82958(16) 0.20322(16) 0.0175(2) Uani 1 1 d . . . . .
N1 N 0.95247(18) 0.73134(15) 0.32164(15) 0.0236(3) Uani 1 1 d . . . . .
N2 N 0.6408(2) 1.1504(2) 0.13307(18) 0.0367(4) Uani 1 1 d . . . . .
S2 S 0.66391(5) 0.24326(4) 0.57113(4) 0.02051(7) Uani 1 1 d . . . . .
O2 O 0.75278(15) 0.39919(13) 0.46442(12) 0.0239(2) Uani 1 1 d . . . . .
C2 C 0.7720(2) 1.09640(17) 0.08285(17) 0.0222(3) Uani 1 1 d . . . . .
C6 C 0.4881(2) 0.2202(2) 0.4842(2) 0.0290(3) Uani 1 1 d . . . . .
H6A H 0.413403 0.310893 0.466675 0.043 Uiso 1 1 calc R U . . .
H6B H 0.414674 0.130727 0.551985 0.043 Uiso 1 1 calc R U . . .
H6C H 0.541333 0.206667 0.387184 0.043 Uiso 1 1 calc R U . . .
C5 C 0.5258(2) 0.2787(2) 0.73622(18) 0.0302(4) Uani 1 1 d . . . . .
H5A H 0.443809 0.361732 0.703175 0.045 Uiso 1 1 calc R U . . .
H5B H 0.602126 0.306959 0.790450 0.045 Uiso 1 1 calc R U . . .
H5C H 0.457269 0.186443 0.803893 0.045 Uiso 1 1 calc R U . . .
C4 C 0.7325(3) 0.5938(3) 0.9764(2) 0.0445(5) Uani 1 1 d . . . . .
H4A H 0.620209 0.639332 0.952265 0.067 Uiso 1 1 calc R U . . .
H4B H 0.772448 0.641700 1.038610 0.067 Uiso 1 1 calc R U . . .
H4C H 0.714137 0.484496 1.032548 0.067 Uiso 1 1 calc R U . . .
C3 C 0.8795(4) 0.8276(2) 0.7161(3) 0.0518(6) Uani 1 1 d . . . . .
H3A H 0.954627 0.862924 0.612928 0.078 Uiso 1 1 calc R U . . .
H3B H 0.917485 0.878015 0.777098 0.078 Uiso 1 1 calc R U . . .
H3C H 0.754777 0.852105 0.712000 0.078 Uiso 1 1 calc R U . . .
loop_
_atom_site_aniso_label
_atom_site_aniso_U_11
_atom_site_aniso_U_22
_atom_site_aniso_U_33
_atom_site_aniso_U_23
_atom_site_aniso_U_13
_atom_site_aniso_U_12
Pt1 0.01652(3) 0.01071(3) 0.01092(3) -0.00076(2) -0.00366(2) 0.00062(2)
S1 0.02309(17) 0.0368(2) 0.02436(18) -0.01745(16) -0.00930(14) 0.00739(15)
O1 0.0220(5) 0.0255(5) 0.0203(5) -0.0126(4) -0.0020(4) 0.0004(4)
Cd1 0.01472(6) 0.01173(5) 0.01078(5) -0.00054(4) -0.00213(4) 0.00023(4)
C1 0.0180(6) 0.0152(6) 0.0164(6) -0.0024(5) -0.0041(5) 0.0021(4)
N1 0.0248(6) 0.0194(6) 0.0188(6) 0.0015(4) -0.0038(5) 0.0034(5)
N2 0.0348(8) 0.0414(9) 0.0300(7) -0.0118(7) -0.0053(6) 0.0153(7)
S2 0.01671(15) 0.01996(16) 0.02375(16) -0.00644(13) -0.00404(13) -0.00081(12)
O2 0.0201(5) 0.0276(5) 0.0206(5) -0.0023(4) -0.0050(4) -0.0075(4)
C2 0.0258(7) 0.0203(6) 0.0167(6) -0.0022(5) -0.0051(5) 0.0035(5)
C6 0.0224(7) 0.0389(9) 0.0307(8) -0.0179(7) -0.0043(6) -0.0063(6)
C5 0.0305(8) 0.0370(9) 0.0214(7) -0.0098(6) 0.0004(6) -0.0114(7)
C4 0.0385(10) 0.0736(15) 0.0265(9) -0.0272(10) -0.0074(8) 0.0199(10)
C3 0.0708(16) 0.0321(10) 0.0662(15) -0.0236(10) -0.0290(13) -0.0056(10)
loop_
_atom_type_symbol
_atom_type_description
_atom_type_scat_dispersion_real
_atom_type_scat_dispersion_imag
_atom_type_scat_source
C C 0.0033 0.0016 'International Tables Vol C Tables 4.2.6.8 and 6.1.1.4'
H H 0.0000 0.0000 'International Tables Vol C Tables 4.2.6.8 and 6.1.1.4'
Cd Cd -0.8075 1.2024 'International Tables Vol C Tables 4.2.6.8 and 6.1.1.4'
N N 0.0061 0.0033 'International Tables Vol C Tables 4.2.6.8 and 6.1.1.4'
O O 0.0106 0.0060 'International Tables Vol C Tables 4.2.6.8 and 6.1.1.4'
Pt Pt -1.7033 8.3905 'International Tables Vol C Tables 4.2.6.8 and 6.1.1.4'
S S 0.1246 0.1234 'International Tables Vol C Tables 4.2.6.8 and 6.1.1.4'
loop_
_geom_angle_atom_site_label_1
_geom_angle_atom_site_label_2
_geom_angle_atom_site_label_3
_geom_angle
_geom_angle_site_symmetry_1
_geom_angle_site_symmetry_3
_geom_angle_publ_flag
C1 Pt1 C1 180.0 . 2_775 ?
C1 Pt1 C2 89.55(6) . . ?
C1 Pt1 C2 90.45(6) 2_775 . ?
C1 Pt1 C2 90.45(6) . 2_775 ?
C1 Pt1 C2 89.55(6) 2_775 2_775 ?
C2 Pt1 C2 180.0 . 2_775 ?
O1 S1 C3 104.44(9) . . ?
O1 S1 C4 105.19(9) . . ?
C3 S1 C4 98.25(12) . . ?
S1 O1 Cd1 120.26(6) . . ?
N1 Cd1 N1 180.0 . 2_766 ?
N1 Cd1 O2 90.86(5) . 2_766 ?
N1 Cd1 O2 89.14(5) 2_766 2_766 ?
N1 Cd1 O2 89.14(5) . . ?
N1 Cd1 O2 90.86(5) 2_766 . ?
O2 Cd1 O2 180.0 2_766 . ?
N1 Cd1 O1 85.95(5) . 2_766 ?
N1 Cd1 O1 94.05(5) 2_766 2_766 ?
O2 Cd1 O1 90.03(4) 2_766 2_766 ?
O2 Cd1 O1 89.97(4) . 2_766 ?
N1 Cd1 O1 94.05(5) . . ?
N1 Cd1 O1 85.95(5) 2_766 . ?
O2 Cd1 O1 89.97(4) 2_766 . ?
O2 Cd1 O1 90.03(4) . . ?
O1 Cd1 O1 180.0 2_766 . ?
N1 C1 Pt1 179.55(14) . . ?
C1 N1 Cd1 158.44(12) . . ?
O2 S2 C6 104.28(8) . . ?
O2 S2 C5 105.52(8) . . ?
C6 S2 C5 98.80(8) . . ?
S2 O2 Cd1 123.62(6) . . ?
N2 C2 Pt1 178.84(14) . . ?
S2 C6 H6A 109.5 . . ?
S2 C6 H6B 109.5 . . ?
H6A C6 H6B 109.5 . . ?
S2 C6 H6C 109.5 . . ?
H6A C6 H6C 109.5 . . ?
H6B C6 H6C 109.5 . . ?
S2 C5 H5A 109.5 . . ?
S2 C5 H5B 109.5 . . ?
H5A C5 H5B 109.5 . . ?
S2 C5 H5C 109.5 . . ?
H5A C5 H5C 109.5 . . ?
H5B C5 H5C 109.5 . . ?
S1 C4 H4A 109.5 . . ?
S1 C4 H4B 109.5 . . ?
H4A C4 H4B 109.5 . . ?
S1 C4 H4C 109.5 . . ?
H4A C4 H4C 109.5 . . ?
H4B C4 H4C 109.5 . . ?
S1 C3 H3A 109.5 . . ?
S1 C3 H3B 109.5 . . ?
H3A C3 H3B 109.5 . . ?
S1 C3 H3C 109.5 . . ?
H3A C3 H3C 109.5 . . ?
H3B C3 H3C 109.5 . . ?
loop_
_geom_bond_atom_site_label_1
_geom_bond_atom_site_label_2
_geom_bond_distance
_geom_bond_site_symmetry_2
_geom_bond_publ_flag
Pt1 C1 1.9808(13) . ?
Pt1 C1 1.9808(13) 2_775 ?
Pt1 C2 2.0024(15) . ?
Pt1 C2 2.0024(15) 2_775 ?
S1 O1 1.5177(11) . ?
S1 C3 1.777(2) . ?
S1 C4 1.7796(19) . ?
O1 Cd1 2.3101(10) . ?
Cd1 N1 2.2692(12) . ?
Cd1 N1 2.2692(12) 2_766 ?
Cd1 O2 2.2896(11) 2_766 ?
Cd1 O2 2.2896(11) . ?
C1 N1 1.1498(18) . ?
N2 C2 1.153(2) . ?
S2 O2 1.5246(11) . ?
S2 C6 1.7818(16) . ?
S2 C5 1.7836(17) . ?
C6 H6A 0.9600 . ?
C6 H6B 0.9600 . ?
C6 H6C 0.9600 . ?
C5 H5A 0.9600 . ?
C5 H5B 0.9600 . ?
C5 H5C 0.9600 . ?
C4 H4A 0.9600 . ?
C4 H4B 0.9600 . ?
C4 H4C 0.9600 . ?
C3 H3A 0.9600 . ?
C3 H3B 0.9600 . ?
C3 H3C 0.9600 . ?
