#------------------------------------------------------------------------------
#$Date: 2022-08-02 01:53:27 +0300 (Tue, 02 Aug 2022) $
#$Revision: 277030 $
#$URL: file:///home/coder/svn-repositories/cod/cif/7/71/08/7710877.cif $
#------------------------------------------------------------------------------
#
# This file is available in the Crystallography Open Database (COD),
# http://www.crystallography.net/
#
# All data on this site have been placed in the public domain by the
# contributors.
#
data_7710877
loop_
_publ_author_name
'Pal, Sarvesh Kumar'
'Singh, Baghendra'
'Yadav, Jitendra Kumar'
'Yadav, Chote Lal'
'Drew, Michael G. B.'
'Singh, Nanhai'
'Indra, Arindam'
'Kumar, Kamlesh'
_publ_section_title
;
 Homoleptic Ni(II) Dithiocarbamate Complexes as Pre-catalysts for
 Electrocatalytic Oxygen Evolution Reaction
;
_journal_name_full               'Dalton Transactions'
_journal_paper_doi               10.1039/D2DT01971J
_journal_year                    2022
_chemical_formula_sum            'C24 H22 N4 Ni S6'
_chemical_formula_weight         617.52
_space_group_crystal_system      triclinic
_space_group_IT_number           2
_space_group_name_Hall           '-P 1'
_space_group_name_H-M_alt        'P -1'
_atom_sites_solution_hydrogens   geom
_audit_creation_method           SHELXL-2016/6
_audit_update_record
;
2022-01-24 deposited with the CCDC.	2022-08-01 downloaded from the CCDC.
;
_cell_angle_alpha                77.765(10)
_cell_angle_beta                 73.925(10)
_cell_angle_gamma                87.279(11)
_cell_formula_units_Z            1
_cell_length_a                   6.191(3)
_cell_length_b                   10.226(4)
_cell_length_c                   10.769(5)
_cell_measurement_reflns_used    7039
_cell_measurement_temperature    100(2)
_cell_measurement_theta_max      27.50
_cell_measurement_theta_min      2.55
_cell_volume                     640.2(5)
_computing_structure_refinement  'SHELXL-2016/6 (Sheldrick, 2016)'
_diffrn_ambient_temperature      100(2)
_diffrn_measured_fraction_theta_full 0.989
_diffrn_measured_fraction_theta_max 0.986
_diffrn_measurement_device_type  'Bruker APEX-II CCD'
_diffrn_measurement_method       '\f and \w scans'
_diffrn_radiation_type           MoK\a
_diffrn_radiation_wavelength     0.71073
_diffrn_reflns_av_R_equivalents  0.0738
_diffrn_reflns_av_unetI/netI     0.0998
_diffrn_reflns_Laue_measured_fraction_full 0.989
_diffrn_reflns_Laue_measured_fraction_max 0.986
_diffrn_reflns_limit_h_max       8
_diffrn_reflns_limit_h_min       -8
_diffrn_reflns_limit_k_max       13
_diffrn_reflns_limit_k_min       -13
_diffrn_reflns_limit_l_max       13
_diffrn_reflns_limit_l_min       -13
_diffrn_reflns_number            7039
_diffrn_reflns_point_group_measured_fraction_full 0.989
_diffrn_reflns_point_group_measured_fraction_max 0.986
_diffrn_reflns_theta_full        25.242
_diffrn_reflns_theta_max         27.499
_diffrn_reflns_theta_min         2.550
_exptl_absorpt_coefficient_mu    1.270
_exptl_crystal_colour            Brown
_exptl_crystal_density_diffrn    1.602
_exptl_crystal_description       Needle
_exptl_crystal_F_000             318
_refine_diff_density_max         0.985
_refine_diff_density_min         -1.026
_refine_diff_density_rms         0.143
_refine_ls_extinction_method     none
_refine_ls_goodness_of_fit_ref   1.162
_refine_ls_hydrogen_treatment    constr
_refine_ls_matrix_type           full
_refine_ls_number_parameters     161
_refine_ls_number_reflns         2889
_refine_ls_number_restraints     0
_refine_ls_restrained_S_all      1.162
_refine_ls_R_factor_all          0.1299
_refine_ls_R_factor_gt           0.0827
_refine_ls_shift/su_max          0.002
_refine_ls_shift/su_mean         0.000
_refine_ls_structure_factor_coef Fsqd
_refine_ls_weighting_details
'w=1/[\s^2^(Fo^2^)+(0.1158P)^2^] where P=(Fo^2^+2Fc^2^)/3'
_refine_ls_weighting_scheme      calc
_refine_ls_wR_factor_gt          0.2205
_refine_ls_wR_factor_ref         0.2446
_reflns_Friedel_coverage         0.000
_reflns_number_gt                1834
_reflns_number_total             2889
_reflns_threshold_expression     'I > 2\s(I)'
_cod_data_source_file            d2dt01971j2.cif
_cod_data_source_block           1
_cod_database_code               7710877
_shelx_shelxl_version_number     2016/6
_shelx_space_group_comment
;
The symmetry employed for this shelxl refinement is uniquely defined
by the following loop, which should always be used as a source of
symmetry information in preference to the above space-group names.
They are only intended as comments.
;
_shelx_res_file
;
TITL shelxt_a.res in P-1
    shelx.res
    created by SHELXL-2016/6 at 10:35:45 on 29-Nov-2021
CELL  0.71073   6.1913  10.2256  10.7685   77.765   73.925   87.279
ZERR     1.00   0.0027   0.0044   0.0048    0.010    0.010    0.011
LATT   1
SFAC  C    H    N    NI     S
UNIT  24 22 4 1  6
MERG   2
OMIT     0.00  55.00
free c32 s33
free s33 c34
free c35 s36
free s36 c32
FMAP   2
PLAN   20
BOND   $H
acta
HTAB C21 S13
EQIV $2 -x+1, -y+1, -z
HTAB C24 S13_$2
EQIV $3 -x, -y, -z+1
HTAB C31 S36_$3
htab
l.s. 8
LIST   6
TEMP     0.00
WGHT    0.115800
FVAR       0.30291   0.32790   0.39008   0.06530   0.33923   0.05041   0.05935
FVAR       0.06717  -0.02821  -0.01541   0.00382   0.03362   0.02721   0.25011
FVAR       0.07527   0.07354   0.08675   0.00478  -0.02761  -0.00279
NI1   4    0.500000    0.500000    0.500000    10.50000    0.03659    0.03664 =
         0.02950   -0.00692   -0.01229    0.00107
S11   5    0.334190    0.306747    0.527618    11.00000    0.04176    0.03615 =
         0.03106   -0.00514   -0.01551   -0.00020
C12   1    0.207397    0.389101    0.410835    11.00000    0.04317    0.03531 =
         0.02802   -0.01158   -0.00842    0.00563
S13   5    0.297235    0.551781    0.359459    11.00000    0.04280    0.03668 =
         0.03257   -0.00457   -0.01464    0.00223
N14   3    0.060053    0.332456    0.368179    11.00000    0.04286    0.04315 =
         0.03105   -0.00937   -0.01830    0.00546
C21   1   -0.044678    0.413141    0.269452    11.00000    0.04302    0.04114 =
         0.03600   -0.00836   -0.02011    0.00999
AFIX  23
H21A  2    0.003191    0.505782    0.251996    11.00000   -1.20000
H21B  2   -0.206793    0.409382    0.305386    11.00000   -1.20000
AFIX   0
C22   1    0.016536    0.364714    0.142892    11.00000    0.03618    0.04112 =
         0.03362   -0.00421   -0.01482    0.00041
C23   1    0.245335    0.361965    0.061364    11.00000    0.02954    0.03401 =
         0.05062   -0.00042   -0.00263    0.00348
AFIX  43
H23   2    0.362430    0.392879    0.086450    11.00000   -1.20000
AFIX   0
C24   1    0.285150    0.319254   -0.040122    11.00000    0.07121    0.05724 =
         0.07611    0.01178   -0.00246    0.01144
AFIX  43
H24   2    0.433499    0.314396   -0.089451    11.00000   -1.20000
AFIX   0
C25   1    0.118762    0.279000   -0.082199    11.00000    0.12755    0.05829 =
         0.03750   -0.00980   -0.01735    0.03196
AFIX  43
H25   2    0.158474    0.249451   -0.161384    11.00000   -1.20000
AFIX   0
N26   3   -0.096133    0.278607   -0.018971    11.00000    0.11831    0.05787 =
         0.05653   -0.01937   -0.04928    0.01409
C27   1   -0.142401    0.320086    0.093950    11.00000    0.04771    0.04953 =
         0.03875   -0.00247   -0.01931   -0.00374
AFIX  43
H27   2   -0.291934    0.318913    0.143187    11.00000   -1.20000
AFIX   0
C31   1   -0.010119    0.193992    0.419626    11.00000    0.03218    0.03881 =
         0.03457   -0.00891   -0.01058   -0.00225
AFIX  23
H31A  2   -0.167007    0.185905    0.422553    11.00000   -1.20000
H31B  2    0.001722    0.168210    0.509502    11.00000   -1.20000
AFIX   0
C32   1    0.124749    0.098530    0.340144    11.00000    0.04210    0.03090 =
         0.03879   -0.00901   -0.01845   -0.00289
PART    1
S33   5   31.000000   41.000000   51.000000   -21.00000   61.00000   71.00000 =
        81.00000   91.00000  101.00000  111.00000
PART    2
C33   1   31.000000   41.000000   51.000000    21.00000   61.00000   71.00000 =
        81.00000   91.00000  101.00000  111.00000
AFIX  43
H33   2    0.484492    0.092931    0.382772    21.00000   -1.20000
AFIX   0
PART    0
C34   1    0.425410   -0.032567    0.235224    11.00000    0.05214    0.06368 =
         0.07687   -0.03341   -0.00188    0.01195
AFIX  43
H34   2    0.561835   -0.073436    0.205259    11.00000   -1.20000
AFIX   0
C35   1    0.238742   -0.051063    0.194166    11.00000    0.11911    0.05090 =
         0.05782   -0.02015   -0.02890   -0.00521
AFIX  43
H35   2    0.238771   -0.107227    0.136603    11.00000   -1.20000
AFIX   0
PART    1
C36   1  121.000000  131.000000  141.000000   -21.00000  151.00000  161.00000 =
       171.00000  181.00000  191.00000  201.00000
AFIX  43
H36   2   -0.107525    0.031487    0.234908   -21.00000   -1.20000
AFIX   0
PART    2
S36   5  121.000000  131.000000  141.000000    21.00000  151.00000  161.00000 =
       171.00000  181.00000  191.00000  201.00000
HKLF    4




REM  shelxt_a.res in P-1
REM R1 =  0.0827 for    1834 Fo > 4sig(Fo)  and  0.1299 for all    2889 data
REM    161 parameters refined using      0 restraints

END

WGHT      0.1150      0.0000

REM Instructions for potential hydrogen bonds
HTAB C21 S13
HTAB C24 S13_$2
HTAB C31 S36_$3

REM Highest difference peak  0.985,  deepest hole -1.026,  1-sigma level  0.143
Q1    1   0.4418  0.4126  0.5639  11.00000  0.05    0.98
Q2    1   0.4123  0.2620  0.4623  11.00000  0.05    0.68
Q3    1   0.4156  0.5348  0.5698  11.00000  0.05    0.66
Q4    1   0.2243  0.3509  0.6144  11.00000  0.05    0.61
Q5    1   0.4068  0.5572  0.4076  11.00000  0.05    0.56
Q6    1   0.1032 -0.0375  0.1687  11.00000  0.05    0.54
Q7    1   0.4444  0.3858  0.4536  11.00000  0.05    0.53
Q8    1   0.2811  0.2288  0.5864  11.00000  0.05    0.53
Q9    1   0.5716  0.3441  0.4983  11.00000  0.05    0.53
Q10   1   0.2155  0.4657  0.4290  11.00000  0.05    0.53
Q11   1   0.1256  0.3648  0.3916  11.00000  0.05    0.52
Q12   1   0.2085  0.3957  0.1017  11.00000  0.05    0.52
Q13   1   0.2126  0.3669  0.0226  11.00000  0.05    0.52
Q14   1   0.2640  0.5199  0.4944  11.00000  0.05    0.51
Q15   1   0.4592  0.0273  0.2615  11.00000  0.05    0.49
Q16   1   0.4930  0.5082  0.3759  11.00000  0.05    0.49
Q17   1   0.3747  0.3192  0.1560  11.00000  0.05    0.48
Q18   1   0.2612 -0.0200  0.4795  11.00000  0.05    0.48
Q19   1   0.5335  0.6017  0.3174  11.00000  0.05    0.47
Q20   1   0.4537 -0.2571  0.3333  11.00000  0.05    0.47
;
_shelx_res_checksum              44223
loop_
_space_group_symop_operation_xyz
'x, y, z'
'-x, -y, -z'
loop_
_atom_site_label
_atom_site_type_symbol
_atom_site_fract_x
_atom_site_fract_y
_atom_site_fract_z
_atom_site_U_iso_or_equiv
_atom_site_adp_type
_atom_site_occupancy
_atom_site_site_symmetry_order
_atom_site_calc_flag
_atom_site_refinement_flags_posn
_atom_site_refinement_flags_adp
_atom_site_refinement_flags_occupancy
_atom_site_disorder_assembly
_atom_site_disorder_group
Ni1 Ni 0.500000 0.500000 0.500000 0.0336(4) Uani 1 2 d S . P . .
S11 S 0.3342(3) 0.30675(16) 0.52762(14) 0.0354(4) Uani 1 1 d . . . . .
C12 C 0.2074(10) 0.3891(6) 0.4108(5) 0.0352(13) Uani 1 1 d . . . . .
S13 S 0.2972(3) 0.55178(16) 0.35946(14) 0.0369(4) Uani 1 1 d . . . . .
N14 N 0.0601(8) 0.3325(5) 0.3682(5) 0.0373(12) Uani 1 1 d . . . . .
C21 C -0.0447(10) 0.4131(6) 0.2695(6) 0.0384(14) Uani 1 1 d . . . . .
H21A H 0.003191 0.505782 0.251996 0.046 Uiso 1 1 calc R U . . .
H21B H -0.206793 0.409382 0.305386 0.046 Uiso 1 1 calc R U . . .
C22 C 0.0165(10) 0.3647(6) 0.1429(6) 0.0364(14) Uani 1 1 d . . . . .
C23 C 0.2453(10) 0.3620(6) 0.0614(7) 0.0411(15) Uani 1 1 d . . . . .
H23 H 0.362430 0.392879 0.086450 0.049 Uiso 1 1 calc R U . . .
C24 C 0.2852(16) 0.3193(9) -0.0401(9) 0.076(3) Uani 1 1 d . . . . .
H24 H 0.433499 0.314396 -0.089451 0.091 Uiso 1 1 calc R U . . .
C25 C 0.119(2) 0.2790(9) -0.0822(8) 0.077(3) Uani 1 1 d . . . . .
H25 H 0.158474 0.249451 -0.161384 0.092 Uiso 1 1 calc R U . . .
N26 N -0.0961(15) 0.2786(7) -0.0190(7) 0.072(2) Uani 1 1 d . . . . .
C27 C -0.1424(11) 0.3201(7) 0.0939(6) 0.0447(16) Uani 1 1 d . . . . .
H27 H -0.291934 0.318913 0.143187 0.054 Uiso 1 1 calc R U . . .
C31 C -0.0101(9) 0.1940(6) 0.4196(6) 0.0346(13) Uani 1 1 d . . . . .
H31A H -0.167007 0.185905 0.422553 0.042 Uiso 1 1 calc R U . . .
H31B H 0.001722 0.168210 0.509502 0.042 Uiso 1 1 calc R U . . .
C32 C 0.1247(10) 0.0985(6) 0.3401(6) 0.0354(13) Uani 1 1 d . . . . .
S33 S 0.3901(4) 0.0653(3) 0.3392(3) 0.0569(9) Uani 0.672(8) 1 d . . P A 1
C33 C 0.3901(4) 0.0653(3) 0.3392(3) 0.0569(9) Uani 0.328(8) 1 d . . P A 2
H33 H 0.484492 0.092931 0.382772 0.068 Uiso 0.328(8) 1 calc R U P A 2
C34 C 0.4254(13) -0.0326(8) 0.2352(8) 0.065(2) Uani 1 1 d . . . . .
H34 H 0.561835 -0.073436 0.205259 0.078 Uiso 1 1 calc R U . A 2
C35 C 0.2387(18) -0.0511(8) 0.1942(8) 0.073(3) Uani 1 1 d . . . . .
H35 H 0.238771 -0.107227 0.136603 0.088 Uiso 1 1 calc R U . A 1
C36 C 0.0336(9) 0.0272(5) 0.2501(5) 0.0806(19) Uani 0.672(8) 1 d . . P A 1
H36 H -0.107525 0.031487 0.234908 0.097 Uiso 0.672(8) 1 calc R U P A 1
S36 S 0.0336(9) 0.0272(5) 0.2501(5) 0.0806(19) Uani 0.328(8) 1 d . . P A 2
loop_
_atom_site_aniso_label
_atom_site_aniso_U_11
_atom_site_aniso_U_22
_atom_site_aniso_U_33
_atom_site_aniso_U_23
_atom_site_aniso_U_13
_atom_site_aniso_U_12
Ni1 0.0366(6) 0.0366(7) 0.0295(6) -0.0069(4) -0.0123(5) 0.0011(5)
S11 0.0418(8) 0.0362(9) 0.0311(7) -0.0051(6) -0.0155(7) -0.0002(7)
C12 0.043(3) 0.035(3) 0.028(3) -0.012(2) -0.008(3) 0.006(3)
S13 0.0428(8) 0.0367(9) 0.0326(8) -0.0046(6) -0.0146(7) 0.0022(7)
N14 0.043(3) 0.043(3) 0.031(2) -0.009(2) -0.018(2) 0.005(2)
C21 0.043(3) 0.041(4) 0.036(3) -0.008(3) -0.020(3) 0.010(3)
C22 0.036(3) 0.041(4) 0.034(3) -0.004(3) -0.015(3) 0.000(3)
C23 0.030(3) 0.034(4) 0.051(4) 0.000(3) -0.003(3) 0.003(3)
C24 0.071(6) 0.057(6) 0.076(6) 0.012(5) -0.002(5) 0.011(5)
C25 0.128(8) 0.058(6) 0.038(4) -0.010(4) -0.017(5) 0.032(6)
N26 0.118(6) 0.058(5) 0.057(4) -0.019(3) -0.049(5) 0.014(4)
C27 0.048(4) 0.050(4) 0.039(3) -0.002(3) -0.019(3) -0.004(3)
C31 0.032(3) 0.039(4) 0.035(3) -0.009(3) -0.011(3) -0.002(3)
C32 0.042(3) 0.031(3) 0.039(3) -0.009(2) -0.018(3) -0.003(3)
S33 0.0504(14) 0.0593(18) 0.0672(18) -0.0282(13) -0.0154(13) 0.0038(12)
C33 0.0504(14) 0.0593(18) 0.0672(18) -0.0282(13) -0.0154(13) 0.0038(12)
C34 0.052(4) 0.064(6) 0.077(5) -0.033(4) -0.002(4) 0.012(4)
C35 0.119(8) 0.051(5) 0.058(5) -0.020(4) -0.029(5) -0.005(5)
C36 0.075(3) 0.074(4) 0.087(4) 0.005(3) -0.028(3) -0.003(3)
S36 0.075(3) 0.074(4) 0.087(4) 0.005(3) -0.028(3) -0.003(3)
loop_
_atom_type_symbol
_atom_type_description
_atom_type_scat_dispersion_real
_atom_type_scat_dispersion_imag
_atom_type_scat_source
C C 0.0033 0.0016 'International Tables Vol C Tables 4.2.6.8 and 6.1.1.4'
H H 0.0000 0.0000 'International Tables Vol C Tables 4.2.6.8 and 6.1.1.4'
N N 0.0061 0.0033 'International Tables Vol C Tables 4.2.6.8 and 6.1.1.4'
Ni Ni 0.3393 1.1124 'International Tables Vol C Tables 4.2.6.8 and 6.1.1.4'
S S 0.1246 0.1234 'International Tables Vol C Tables 4.2.6.8 and 6.1.1.4'
loop_
_geom_angle_atom_site_label_1
_geom_angle_atom_site_label_2
_geom_angle_atom_site_label_3
_geom_angle
_geom_angle_site_symmetry_1
_geom_angle_site_symmetry_3
_geom_angle_publ_flag
S13 Ni1 S13 180.0 2_666 . ?
S13 Ni1 S11 100.52(6) 2_666 . ?
S13 Ni1 S11 79.48(6) . . ?
S13 Ni1 S11 79.48(6) 2_666 2_666 ?
S13 Ni1 S11 100.52(6) . 2_666 ?
S11 Ni1 S11 180.0 . 2_666 ?
C12 S11 Ni1 85.0(2) . . ?
N14 C12 S13 125.8(4) . . ?
N14 C12 S11 124.1(5) . . ?
S13 C12 S11 110.1(3) . . ?
C12 S13 Ni1 85.4(2) . . ?
C12 N14 C31 122.0(5) . . ?
C12 N14 C21 120.0(5) . . ?
C31 N14 C21 118.0(5) . . ?
N14 C21 C22 112.1(5) . . ?
N14 C21 H21A 109.2 . . ?
C22 C21 H21A 109.2 . . ?
N14 C21 H21B 109.2 . . ?
C22 C21 H21B 109.2 . . ?
H21A C21 H21B 107.9 . . ?
C27 C22 C23 114.6(6) . . ?
C27 C22 C21 122.1(6) . . ?
C23 C22 C21 123.3(5) . . ?
C24 C23 C22 120.3(7) . . ?
C24 C23 H23 119.9 . . ?
C22 C23 H23 119.9 . . ?
C23 C24 C25 121.4(9) . . ?
C23 C24 H24 119.3 . . ?
C25 C24 H24 119.3 . . ?
N26 C25 C24 124.5(8) . . ?
N26 C25 H25 117.8 . . ?
C24 C25 H25 117.8 . . ?
C25 N26 C27 115.1(7) . . ?
N26 C27 C22 124.1(7) . . ?
N26 C27 H27 117.9 . . ?
C22 C27 H27 117.9 . . ?
N14 C31 C32 113.9(5) . . ?
N14 C31 H31A 108.8 . . ?
C32 C31 H31A 108.8 . . ?
N14 C31 H31B 108.8 . . ?
C32 C31 H31B 108.8 . . ?
H31A C31 H31B 107.7 . . ?
C31 C32 C36 123.9(5) . . ?
C31 C32 C33 121.2(4) . . ?
C34 C33 C32 94.3(4) . . ?
C34 C33 H33 132.9 . . ?
C32 C33 H33 132.9 . . ?
C35 C34 C33 115.3(6) . . ?
C35 C34 H34 122.4 . . ?
C33 C34 H34 122.4 . . ?
C34 C35 C36 114.9(7) . . ?
C34 C35 H35 122.6 . . ?
C36 C35 H35 122.6 . . ?
C35 C36 C32 100.7(5) . . ?
C35 C36 H36 129.6 . . ?
C32 C36 H36 129.6 . . ?
loop_
_geom_bond_atom_site_label_1
_geom_bond_atom_site_label_2
_geom_bond_distance
_geom_bond_site_symmetry_2
_geom_bond_publ_flag
Ni1 S13 2.1900(15) 2_666 ?
Ni1 S13 2.1900(15) . ?
Ni1 S11 2.1959(18) . ?
Ni1 S11 2.1959(18) 2_666 ?
S11 C12 1.715(6) . ?
C12 N14 1.332(8) . ?
C12 S13 1.706(6) . ?
N14 C31 1.447(7) . ?
N14 C21 1.480(7) . ?
C21 C22 1.493(8) . ?
C21 H21A 0.9700 . ?
C21 H21B 0.9700 . ?
C22 C27 1.373(8) . ?
C22 C23 1.448(8) . ?
C23 C24 1.220(11) . ?
C23 H23 0.9300 . ?
C24 C25 1.347(13) . ?
C24 H24 0.9300 . ?
C25 N26 1.316(12) . ?
C25 H25 0.9300 . ?
N26 C27 1.325(8) . ?
C27 H27 0.9300 . ?
C31 C32 1.505(8) . ?
C31 H31A 0.9700 . ?
C31 H31B 0.9700 . ?
C32 C36 1.559(7) . ?
C32 C33 1.659(6) . ?
C33 C34 1.619(8) . ?
C33 H33 0.9300 . ?
C34 C35 1.381(11) . ?
C34 H34 0.9300 . ?
C35 C36 1.517(11) . ?
C35 H35 0.9300 . ?
C36 H36 0.9300 . ?
loop_
_geom_hbond_atom_site_label_D
_geom_hbond_atom_site_label_H
_geom_hbond_atom_site_label_A
_geom_hbond_distance_DH
_geom_hbond_distance_HA
_geom_hbond_distance_DA
_geom_hbond_angle_DHA
_geom_hbond_site_symmetry_A
C21 H21A S13 0.97 2.52 3.071(6) 116.0 .
C24 H24 S13 0.93 2.99 3.705(9) 134.6 2_665
C31 H31B S36 0.97 2.88 3.758(7) 151.5 2_556
