#------------------------------------------------------------------------------
#$Date: 2018-09-26 06:29:44 +0300 (Wed, 26 Sep 2018) $
#$Revision: 211175 $
#$URL: file:///home/coder/svn-repositories/cod/cif/8/00/00/8000020.cif $
#------------------------------------------------------------------------------
#
# This file is available in the Crystallography Open Database (COD),
# http://www.crystallography.net/
#
# All data on this site have been placed in the public domain by the
# contributors.
#
data_8000020
loop_
_publ_author_name
'Manabu Hoshino'
'Akiko Sekine'
'Hidehiro Uekusa'
'Yuji Ohashi'
_publ_section_title
;
 X-ray Analysis of Bond Elongation in VO(acac)2 at the Excited State
;
_journal_issue                   9
_journal_name_full               'Chemistry Letters'
_journal_page_first              1228
_journal_paper_doi               10.1246/cl.2005.1228
_journal_volume                  34
_journal_year                    2005
_chemical_formula_sum            'C10 H14 O5 V'
_chemical_formula_weight         265.15
_space_group_IT_number           2
_symmetry_cell_setting           triclinic
_symmetry_space_group_name_Hall  '-P 1'
_symmetry_space_group_name_H-M   'P -1'
_atom_sites_solution_hydrogens   geom
_atom_sites_solution_primary     direct
_atom_sites_solution_secondary   difmap
_audit_creation_method           SHELXL-97
_cell_angle_alpha                72.941(1)
_cell_angle_beta                 72.127(1)
_cell_angle_gamma                66.883(1)
_cell_formula_units_Z            2
_cell_length_a                   7.3913(2)
_cell_length_b                   8.1844(1)
_cell_length_c                   11.2270(2)
_cell_measurement_temperature    160(2)
_cell_volume                     582.77(2)
_computing_cell_refinement       'Siemens SMART'
_computing_data_collection       'Siemens SMART'
_computing_data_reduction        'Siemens SAINT & SADABS'
_computing_molecular_graphics    'ORTEP-3 for Windows (Farrugia, 1998)'
_computing_publication_material  'SHELXL-97 (Sheldrick, 1997)'
_computing_structure_refinement  'SHELXL-97 (Sheldrick, 1997)'
_computing_structure_solution    'SHELXS-97 (Sheldrick, 1990)'
_diffrn_ambient_temperature      160(2)
_diffrn_measured_fraction_theta_full 0.994
_diffrn_measured_fraction_theta_max 0.923
_diffrn_measurement_device_type  'Siemens SMART CCD area detector system'
_diffrn_measurement_method       'omega scan'
_diffrn_radiation_monochromator  graphite
_diffrn_radiation_source         'Rigaku ratating anode Ultrax18'
_diffrn_radiation_type           MoK\a
_diffrn_radiation_wavelength     0.71073
_diffrn_reflns_av_R_equivalents  0.0258
_diffrn_reflns_av_sigmaI/netI    0.0319
_diffrn_reflns_limit_h_max       11
_diffrn_reflns_limit_h_min       -11
_diffrn_reflns_limit_k_max       12
_diffrn_reflns_limit_k_min       -12
_diffrn_reflns_limit_l_max       16
_diffrn_reflns_limit_l_min       -16
_diffrn_reflns_number            10433
_diffrn_reflns_theta_full        30.00
_diffrn_reflns_theta_max         32.95
_diffrn_reflns_theta_min         1.94
_exptl_absorpt_coefficient_mu    0.853
_exptl_absorpt_correction_T_max  1.000000
_exptl_absorpt_correction_T_min  0.780266
_exptl_absorpt_correction_type   multi-scan
_exptl_absorpt_process_details   'PROGRAM SADABS was used.'
_exptl_crystal_colour            blue
_exptl_crystal_density_diffrn    1.511
_exptl_crystal_density_method    'not measured'
_exptl_crystal_description       block
_exptl_crystal_F_000             274
_exptl_crystal_size_max          0.20
_exptl_crystal_size_mid          0.20
_exptl_crystal_size_min          0.20
_refine_diff_density_max         0.484
_refine_diff_density_min         -0.489
_refine_diff_density_rms         0.065
_refine_ls_extinction_method     none
_refine_ls_goodness_of_fit_ref   1.059
_refine_ls_hydrogen_treatment    refxyz
_refine_ls_matrix_type           full
_refine_ls_number_parameters     187
_refine_ls_number_reflns         4035
_refine_ls_number_restraints     0
_refine_ls_restrained_S_all      1.059
_refine_ls_R_factor_all          0.0319
_refine_ls_R_factor_gt           0.0282
_refine_ls_shift/su_max          0.001
_refine_ls_shift/su_mean         0.000
_refine_ls_structure_factor_coef Fsqd
_refine_ls_weighting_details
'calc w=1/[\s^2^(Fo^2^)+(0.0539P)^2^+0.0000P] where P=(Fo^2^+2Fc^2^)/3'
_refine_ls_weighting_scheme      calc
_refine_ls_wR_factor_gt          0.0824
_refine_ls_wR_factor_ref         0.0836
_reflns_number_gt                3542
_reflns_number_total             4035
_reflns_threshold_expression     >2sigma(I)
_cod_original_sg_symbol_H-M      P-1
_cod_database_code               8000020
loop_
_symmetry_equiv_pos_as_xyz
'x, y, z'
'-x, -y, -z'
loop_
_atom_site_label
_atom_site_type_symbol
_atom_site_fract_x
_atom_site_fract_y
_atom_site_fract_z
_atom_site_U_iso_or_equiv
_atom_site_adp_type
_atom_site_occupancy
_atom_site_symmetry_multiplicity
_atom_site_calc_flag
V1 V 0.14186(3) 0.29191(2) 0.722501(16) 0.01660(6) Uani 1 1 d
O1 O -0.00751(13) 0.11913(11) 0.76907(8) 0.02159(16) Uani 1 1 d
O2 O -0.06241(12) 0.41737(11) 0.85676(8) 0.02087(16) Uani 1 1 d
O3 O 0.14900(13) 0.53814(11) 0.63470(8) 0.02104(16) Uani 1 1 d
O4 O 0.21999(13) 0.22969(11) 0.55262(7) 0.02050(15) Uani 1 1 d
O5 O 0.33969(13) 0.18912(12) 0.78005(8) 0.02634(18) Uani 1 1 d
C1 C -0.21078(19) -0.06349(16) 0.88503(12) 0.0241(2) Uani 1 1 d
H1A H -0.334(3) -0.011(3) 0.8448(17) 0.036 Uiso 1 1 d
H1B H -0.252(3) -0.114(3) 0.9757(18) 0.036 Uiso 1 1 d
H1C H -0.116(3) -0.146(3) 0.8414(18) 0.036 Uiso 1 1 d
C2 C -0.13705(16) 0.08895(14) 0.87208(10) 0.01824(18) Uani 1 1 d
C3 C -0.21562(17) 0.19209(16) 0.96802(11) 0.0211(2) Uani 1 1 d
H3 H -0.312(2) 0.153(2) 1.0461(15) 0.025 Uiso 1 1 d
C4 C -0.17709(16) 0.35117(15) 0.95543(10) 0.01939(19) Uani 1 1 d
C5 C -0.2730(2) 0.45976(19) 1.05974(13) 0.0288(2) Uani 1 1 d
H5A H -0.172(3) 0.467(3) 1.0907(19) 0.043 Uiso 1 1 d
H5B H -0.378(3) 0.421(3) 1.1244(19) 0.043 Uiso 1 1 d
H5C H -0.356(3) 0.588(3) 1.0324(19) 0.043 Uiso 1 1 d
C6 C 0.22729(19) 0.78481(15) 0.48288(12) 0.0230(2) Uani 1 1 d
H6A H 0.112(3) 0.859(3) 0.4482(17) 0.034 Uiso 1 1 d
H6B H 0.345(3) 0.793(2) 0.4183(17) 0.034 Uiso 1 1 d
H6C H 0.215(3) 0.831(2) 0.5513(18) 0.034 Uiso 1 1 d
C7 C 0.22651(15) 0.59343(14) 0.51778(10) 0.01806(18) Uani 1 1 d
C8 C 0.30079(17) 0.48988(15) 0.42234(11) 0.0208(2) Uani 1 1 d
H8 H 0.351(2) 0.546(2) 0.3378(15) 0.025 Uiso 1 1 d
C9 C 0.29152(16) 0.31547(14) 0.44392(10) 0.01833(18) Uani 1 1 d
C10 C 0.3661(2) 0.21555(18) 0.33585(12) 0.0279(2) Uani 1 1 d
H10A H 0.499(3) 0.129(3) 0.3395(18) 0.042 Uiso 1 1 d
H10B H 0.376(3) 0.285(3) 0.2528(18) 0.042 Uiso 1 1 d
H10C H 0.288(3) 0.151(3) 0.3417(18) 0.042 Uiso 1 1 d
loop_
_atom_site_aniso_label
_atom_site_aniso_U_11
_atom_site_aniso_U_22
_atom_site_aniso_U_33
_atom_site_aniso_U_23
_atom_site_aniso_U_13
_atom_site_aniso_U_12
V1 0.01894(9) 0.01670(9) 0.01408(9) -0.00275(6) -0.00238(6) -0.00698(6)
O1 0.0287(4) 0.0212(4) 0.0169(4) -0.0031(3) -0.0023(3) -0.0129(3)
O2 0.0230(4) 0.0205(4) 0.0190(4) -0.0054(3) 0.0004(3) -0.0098(3)
O3 0.0265(4) 0.0188(3) 0.0186(4) -0.0044(3) -0.0014(3) -0.0104(3)
O4 0.0268(4) 0.0191(3) 0.0160(3) -0.0036(3) -0.0009(3) -0.0107(3)
O5 0.0233(4) 0.0301(4) 0.0237(4) -0.0046(3) -0.0066(3) -0.0063(3)
C1 0.0308(6) 0.0227(5) 0.0237(5) -0.0014(4) -0.0080(4) -0.0148(4)
C2 0.0200(4) 0.0183(4) 0.0174(4) 0.0005(3) -0.0071(3) -0.0080(4)
C3 0.0207(5) 0.0231(5) 0.0194(5) -0.0037(4) -0.0011(4) -0.0102(4)
C4 0.0168(4) 0.0220(5) 0.0190(5) -0.0053(4) -0.0021(3) -0.0065(4)
C5 0.0269(6) 0.0340(6) 0.0281(6) -0.0168(5) 0.0061(4) -0.0143(5)
C6 0.0265(5) 0.0165(4) 0.0266(5) -0.0028(4) -0.0056(4) -0.0092(4)
C7 0.0166(4) 0.0170(4) 0.0206(5) -0.0021(4) -0.0045(3) -0.0064(3)
C8 0.0245(5) 0.0188(5) 0.0174(5) -0.0022(4) -0.0007(4) -0.0093(4)
C9 0.0185(4) 0.0191(4) 0.0162(4) -0.0040(3) -0.0023(3) -0.0058(4)
C10 0.0403(7) 0.0244(5) 0.0188(5) -0.0080(4) 0.0007(5) -0.0133(5)
loop_
_atom_type_symbol
_atom_type_description
_atom_type_scat_dispersion_real
_atom_type_scat_dispersion_imag
_atom_type_scat_source
C C 0.0033 0.0016 'International Tables Vol C Tables 4.2.6.8 and 6.1.1.4'
H H 0.0000 0.0000 'International Tables Vol C Tables 4.2.6.8 and 6.1.1.4'
O O 0.0106 0.0060 'International Tables Vol C Tables 4.2.6.8 and 6.1.1.4'
V V 0.3005 0.5294 'International Tables Vol C Tables 4.2.6.8 and 6.1.1.4'
loop_
_geom_angle_atom_site_label_1
_geom_angle_atom_site_label_2
_geom_angle_atom_site_label_3
_geom_angle
O5 V1 O4 104.87(4)
O5 V1 O2 104.86(4)
O4 V1 O2 150.27(4)
O5 V1 O3 106.93(4)
O4 V1 O3 87.88(3)
O2 V1 O3 84.04(3)
O5 V1 O1 106.78(4)
O4 V1 O1 83.58(3)
O2 V1 O1 87.43(3)
O3 V1 O1 146.29(4)
C2 O1 V1 128.49(7)
C4 O2 V1 127.70(7)
C7 O3 V1 128.90(7)
C9 O4 V1 128.86(7)
C2 C1 H1A 107.8(11)
C2 C1 H1B 109.5(11)
H1A C1 H1B 108.9(15)
C2 C1 H1C 110.0(12)
H1A C1 H1C 107.6(15)
H1B C1 H1C 112.9(16)
O1 C2 C3 124.28(10)
O1 C2 C1 116.12(10)
C3 C2 C1 119.55(10)
C4 C3 C2 123.16(10)
C4 C3 H3 119.3(9)
C2 C3 H3 117.3(9)
O2 C4 C3 124.29(10)
O2 C4 C5 115.18(10)
C3 C4 C5 120.52(10)
C4 C5 H5A 109.8(11)
C4 C5 H5B 113.4(12)
H5A C5 H5B 115.4(16)
C4 C5 H5C 114.7(11)
H5A C5 H5C 104.9(16)
H5B C5 H5C 97.9(15)
C7 C6 H6A 107.4(11)
C7 C6 H6B 109.7(11)
H6A C6 H6B 108.1(15)
C7 C6 H6C 113.8(12)
H6A C6 H6C 106.0(15)
H6B C6 H6C 111.6(15)
O3 C7 C8 124.38(10)
O3 C7 C6 116.27(10)
C8 C7 C6 119.29(10)
C9 C8 C7 123.24(10)
C9 C8 H8 119.1(10)
C7 C8 H8 117.5(10)
O4 C9 C8 124.59(10)
O4 C9 C10 115.06(10)
C8 C9 C10 120.35(10)
C9 C10 H10A 109.5(11)
C9 C10 H10B 116.9(12)
H10A C10 H10B 106.1(16)
C9 C10 H10C 111.9(12)
H10A C10 H10C 106.0(16)
H10B C10 H10C 105.7(17)
loop_
_geom_bond_atom_site_label_1
_geom_bond_atom_site_label_2
_geom_bond_distance
V1 O5 1.5995(9)
V1 O4 1.9732(8)
V1 O2 1.9748(8)
V1 O3 1.9803(8)
V1 O1 1.9824(8)
O1 C2 1.2859(13)
O2 C4 1.2928(13)
O3 C7 1.2844(13)
O4 C9 1.2862(13)
C1 C2 1.5012(15)
C1 H1A 1.022(18)
C1 H1B 0.980(18)
C1 H1C 0.894(19)
C2 C3 1.4052(15)
C3 C4 1.3981(15)
C3 H3 1.004(16)
C4 C5 1.5068(16)
C5 H5A 0.94(2)
C5 H5B 0.97(2)
C5 H5C 0.99(2)
C6 C7 1.5009(15)
C6 H6A 0.951(19)
C6 H6B 0.956(18)
C6 H6C 0.916(18)
C7 C8 1.4050(15)
C8 C9 1.4016(15)
C8 H8 0.953(16)
C9 C10 1.5042(15)
C10 H10A 0.97(2)
C10 H10B 0.94(2)
C10 H10C 0.90(2)
loop_
_geom_hbond_atom_site_label_D
_geom_hbond_atom_site_label_H
_geom_hbond_atom_site_label_A
_geom_hbond_distance_DH
_geom_hbond_distance_HA
_geom_hbond_distance_DA
_geom_hbond_angle_DHA
_geom_hbond_site_symmetry_A
C1 H1A O5 1.022(18) 2.514(19) 3.5048(15) 163.3(14) 1_455
C1 H1B O5 0.980(18) 2.559(18) 3.5222(15) 167.2(15) 2_557
C5 H5A O2 0.94(2) 2.55(2) 3.4605(16) 163.6(17) 2_567
loop_
_geom_torsion_atom_site_label_1
_geom_torsion_atom_site_label_2
_geom_torsion_atom_site_label_3
_geom_torsion_atom_site_label_4
_geom_torsion
O5 V1 O1 C2 86.43(10)
O4 V1 O1 C2 -169.93(9)
O2 V1 O1 C2 -18.31(9)
O3 V1 O1 C2 -93.58(10)
O5 V1 O2 C4 -83.52(10)
O4 V1 O2 C4 95.44(11)
O3 V1 O2 C4 170.50(9)
O1 V1 O2 C4 23.16(9)
O5 V1 O3 C7 90.40(10)
O4 V1 O3 C7 -14.50(9)
O2 V1 O3 C7 -165.85(10)
O1 V1 O3 C7 -89.59(11)
O5 V1 O4 C9 -92.04(10)
O2 V1 O4 C9 89.00(11)
O3 V1 O4 C9 14.92(9)
O1 V1 O4 C9 162.26(10)
V1 O1 C2 C3 7.78(16)
V1 O1 C2 C1 -174.42(7)
O1 C2 C3 C4 7.02(18)
C1 C2 C3 C4 -170.71(11)
V1 O2 C4 C3 -17.82(16)
V1 O2 C4 C5 162.92(9)
C2 C3 C4 O2 -1.80(18)
C2 C3 C4 C5 177.43(11)
V1 O3 C7 C8 9.12(16)
V1 O3 C7 C6 -173.61(7)
O3 C7 C8 C9 2.37(18)
C6 C7 C8 C9 -174.83(10)
V1 O4 C9 C8 -10.02(16)
V1 O4 C9 C10 170.65(8)
C7 C8 C9 O4 -1.92(18)
C7 C8 C9 C10 177.37(11)
