#------------------------------------------------------------------------------
#$Date: 2019-10-31 02:30:52 +0200 (Thu, 31 Oct 2019) $
#$Revision: 220565 $
#$URL: file:///home/coder/svn-repositories/cod/cif/8/00/02/8000293.cif $
#------------------------------------------------------------------------------
#
# This file is available in the Crystallography Open Database (COD),
# http://www.crystallography.net/
#
# All data on this site have been placed in the public domain by the
# contributors.
#
data_8000293
loop_
_publ_author_name
'Malaspina, Lorraine A.'
'Wieduwilt, Erna K.'
'Bergmann, Justin'
'Kleemiss, Florian'
'Meyer, Benjamin'
'Ruiz-L\'opez, Manuel F'
'Pal, Rumpa'
'Hupf, Emanuel'
'Beckmann, Jens'
'Piltz, Ross O.'
'Edwards, Alison J.'
'Grabowsky, Simon'
'Genoni, Alessandro'
_publ_section_title
;
 Fast and Accurate Quantum Crystallography: From Small to Large, from
 Light to Heavy.
;
_journal_name_full               'The journal of physical chemistry letters'
_journal_page_first              6973
_journal_page_last               6982
_journal_paper_doi               10.1021/acs.jpclett.9b02646
_journal_year                    2019
_chemical_absolute_configuration syn
_chemical_formula_moiety         'C5 H10 N2 O3'
_chemical_formula_sum            'C5 H10 N2 O3'
_chemical_formula_weight         146.1471
_chemical_name_common            Glycil-L-Alanine
_chemical_name_systematic        Glycil-L-Alanine
_space_group_IT_number           19
_space_group_name_Hall           'P 2ac 2ab'
_space_group_name_H-M_alt        'P 21 21 21'
_symmetry_cell_setting           orthorhombic
_symmetry_Int_Tables_number      19
_symmetry_space_group_name_Hall  'P 2ac 2ab'
_symmetry_space_group_name_H-M   'P 21 21 21'
_atom_sites_solution_hydrogens   difmap
_atom_sites_solution_primary     direct
_atom_sites_solution_secondary   difmap
_audit_creation_date             2019-01-11T11:15:38-00:00
_audit_creation_method           'WinGX routine CIF_UPDATE'
_cell_angle_alpha                90
_cell_angle_beta                 90
_cell_angle_gamma                90
_cell_formula_units_Z            4
_cell_length_a                   7.4620(10)
_cell_length_b                   9.490(2)
_cell_length_c                   9.72700(10)
_cell_measurement_reflns_used    310
_cell_measurement_temperature    50(2)
_cell_measurement_theta_max      21.1
_cell_measurement_theta_min      6.04
_cell_volume                     688.81(17)
_computing_cell_refinement
'SMART-Bruker software V5.618 (BrukerAXS, 1997-2002)'
_computing_data_collection
'SMART-Bruker software V5.618 (BrukerAXS, 1997-2002)'
_computing_data_reduction        'SAINT V6.41A (BrukerAXS, 1997-2002)'
_computing_structure_refinement
'Tonto 18.12.17 github v. 2b3dd9c (Capelli, 2014)'
_computing_structure_solution    'SHELXS-97 (Sheldrick, 1990)'
_diffrn_ambient_temperature      50(2)
_diffrn_detector_area_resol_mean 0.657
_diffrn_measured_fraction_theta_full 0.96
_diffrn_measured_fraction_theta_max 0.946
_diffrn_measurement_device_type  'Bruker SMART-CCD'
_diffrn_measurement_method       'area detector'
_diffrn_radiation_monochromator  'Si(111) double crystal'
_diffrn_radiation_type           synchrotron
_diffrn_radiation_wavelength     0.5259
_diffrn_reflns_av_R_equivalents  0.0301
_diffrn_reflns_av_unetI/netI     0.0309
_diffrn_reflns_Laue_measured_fraction_full 0.96
_diffrn_reflns_Laue_measured_fraction_max 0.946
_diffrn_reflns_limit_h_max       8
_diffrn_reflns_limit_h_min       -11
_diffrn_reflns_limit_k_max       14
_diffrn_reflns_limit_k_min       -14
_diffrn_reflns_limit_l_max       14
_diffrn_reflns_limit_l_min       -14
_diffrn_reflns_number            8714
_diffrn_reflns_point_group_measured_fraction_full 0.955
_diffrn_reflns_point_group_measured_fraction_max 0.939
_diffrn_reflns_theta_full        18.393
_diffrn_reflns_theta_max         23.658
_diffrn_reflns_theta_min         2.546
_exptl_absorpt_coefficient_mu    0.07
_exptl_absorpt_correction_type   none
_exptl_crystal_colour            colourless
_exptl_crystal_density_diffrn    1.409
_exptl_crystal_density_method    'not measured'
_exptl_crystal_description       Prismatic
_exptl_crystal_F_000             312
_exptl_crystal_size_max          0.1
_exptl_crystal_size_mid          0.08
_exptl_crystal_size_min          0.05
_refine_diff_density_max         0.1672
_refine_diff_density_min         -0.1848
_refine_diff_density_rms         0.0351
_refine_ls_abs_structure_details
;
 Flack x determined using 909 quotients [(I+)-(I-)]/[(I+)+(I-)]
 (Parsons, Flack and Wagner, Acta Cryst. B69 (2013) 249-259).
;
_refine_ls_abs_structure_Flack   -0.4(4)
_refine_ls_extinction_method     none
_refine_ls_goodness_of_fit_all   2.1406
_refine_ls_goodness_of_fit_gt    2.1406
_refine_ls_hydrogen_treatment    refxyz,refU
_refine_ls_matrix_type           full
_refine_ls_number_constraints    50
_refine_ls_number_parameters     131
_refine_ls_number_reflns         2295
_refine_ls_number_restraints     0
_refine_ls_R_factor_all          0.0258
_refine_ls_R_factor_gt           0.0258
_refine_ls_shift/su_max          0
_refine_ls_shift/su_mean         0
_refine_ls_structure_factor_coef Fsqd
_refine_ls_weighting_details     w=1/\s(F)
_refine_ls_weighting_scheme      sigma
_refine_ls_wR_factor_all         0.0295
_refine_ls_wR_factor_gt          0.0295
_refine_ls_wR_factor_ref         0.0647
_reflns_Friedel_coverage         0.712
_reflns_Friedel_fraction_full    0.948
_reflns_Friedel_fraction_max     0.93
_reflns_number_gt                2295
_reflns_number_total             2295
_reflns_threshold_expression     'F>0 & F/u(F)>3.0 & |F_calc|>10^-3'
_iucr_refine_instructions_details
;
!!!!!!!!!!!!!!!!!!!!!!!!!!!!!!!!!!!!!!!!!!!!!!!!!!!!!!!!!!!!!!!!!!!!!!!!!!!!!!!
!!!                                                                         !!!
!!!                        This stdin was written with lamaGOET             !!!
!!!                                                                         !!!
!!!                    script written by Lorraine Andrade Malaspina         !!!
!!!                        contact: lorraine.malaspina@gmail.com            !!!
!!!                                                                         !!!
!!!!!!!!!!!!!!!!!!!!!!!!!!!!!!!!!!!!!!!!!!!!!!!!!!!!!!!!!!!!!!!!!!!!!!!!!!!!!!!
{ 

   keyword_echo_on

   name= GlyAla_50K_tonto_IAM

   ! Process the CIF
   CIF= {
       file_name= xd_geo_50K_reordered.cif
    }

   process_CIF

   name= GlyAla_50K_tonto_IAM

   crystal= {
      xray_data= {
         optimise_extinction= NO
         correct_dispersion=  FALSE
         wavelength= 0.5259  Angstrom
         REDIRECT tonto.data.hkl
         f_sigma_cutoff= 3
         refine_H_U_iso= YES

         show_fit_output= TRUE
         show_fit_results= TRUE
      }

   }
   
   set_isotropic_h_adps 

   put

   ! Refine atoms with invarioms
   IAM_refinement

}
;
_cod_data_source_file            GlyAla_50K.cif
_cod_data_source_block           GlyAla_50K_tonto_IAM
_cod_depositor_comments
;
The following automatic conversions were performed:

'_symmetry_cell_setting' value 'Orthorhombic' changed to
'orthorhombic' according to
/home/data/users/saulius/crontab/automatic-downloads/rss-feeds/ACS/lib/dictionaries/cif_core.dic
dictionary named 'cif_core.dic' version 2.4.2 from 2011-04-26.

Automatic conversion script
Id: cif_fix_values 4973 2017-02-22 13:04:09Z antanas 
;
_cod_original_sg_symbol_Hall     'p 2ac 2ab'
_cod_original_sg_symbol_H-M      'p 21 21 21'
_cod_database_code               8000293
_refine_ls_svd_threshold         0.1E-02
loop_
_symmetry_equiv_pos_as_xyz
'+x, +y, +z'
'-x+1/2, -y, +z+1/2'
'+x+1/2, -y+1/2, -z'
'-x, +y+1/2, -z+1/2'
loop_
_atom_site_label
_atom_site_fract_x
_atom_site_fract_y
_atom_site_fract_z
_atom_site_U_iso_or_equiv
_atom_site_adp_type
_atom_site_occupancy
_atom_site_disorder_group
N(2) 0.73432(11) 0.75582(6) 0.40099(6) 0.0059(3) Uani 1 0
H(12) 0.8457(19) 0.7930(11) 0.4003(12) 0.014(3) Uiso 1 0
H(22) 0.732(2) 0.6912(12) 0.3313(12) 0.017(3) Uiso 1 0
H(32) 0.712(2) 0.7107(11) 0.4799(12) 0.015(3) Uiso 1 0
C(5) 0.59797(12) 0.86702(7) 0.38207(8) 0.0061(3) Uani 1 0
H(5A) 0.4875(18) 0.8213(11) 0.3662(11) 0.009(2) Uiso 1 0
H(5B) 0.6292(18) 0.9261(10) 0.3052(10) 0.005(2) Uiso 1 0
C(4) 0.58889(12) 0.95502(7) 0.51414(7) 0.0049(3) Uani 1 0
O(3) 0.70904(9) 0.94881(5) 0.60052(5) 0.0074(2) Uani 1 0
N(1) 0.44284(11) 1.03619(6) 0.52578(6) 0.0054(3) Uani 1 0
H(11) 0.361(2) 1.0417(13) 0.4596(12) 0.021(3) Uiso 1 0
C(2) 0.42637(12) 1.13502(7) 0.63961(7) 0.0053(3) Uani 1 0
H(2) 0.5388(17) 1.1799(10) 0.6523(9) 0.001(2) Uiso 1 0
C(3) 0.28340(14) 1.24494(7) 0.60454(8) 0.0108(4) Uani 1 0
H(3A) 0.1635(19) 1.1991(11) 0.5887(12) 0.018(3) Uiso 1 0
H(3B) 0.321(2) 1.2972(11) 0.5182(13) 0.016(3) Uiso 1 0
H(3C) 0.272(2) 1.3095(12) 0.6826(12) 0.019(3) Uiso 1 0
C(1) 0.37338(12) 1.06539(7) 0.77671(7) 0.0050(3) Uani 1 0
O(1) 0.26744(9) 0.96256(5) 0.77801(5) 0.0079(2) Uani 1 0
O(2) 0.43074(9) 1.12569(5) 0.88387(5) 0.0074(2) Uani 1 0
loop_
_atom_site_aniso_label
_atom_site_aniso_U_11
_atom_site_aniso_U_22
_atom_site_aniso_U_33
_atom_site_aniso_U_23
_atom_site_aniso_U_13
_atom_site_aniso_U_12
N(2) 0.0071(4) 0.0046(2) 0.0060(3) 0.0000(2) 0.0012(3) 0.0011(2)
C(5) 0.0075(4) 0.0056(3) 0.0051(3) -0.0009(2) -0.0005(3) 0.0013(3)
C(4) 0.0075(4) 0.0033(2) 0.0040(3) 0.0013(2) 0.0015(2) -0.0004(3)
O(3) 0.0079(3) 0.0071(2) 0.0073(2) -0.00033(17) -0.0022(2) 0.0002(2)
N(1) 0.0068(4) 0.0059(2) 0.0034(2) -0.0012(2) -0.0004(2) 0.0010(2)
C(2) 0.0076(4) 0.0039(3) 0.0043(3) -0.0014(2) 0.0003(3) 0.0001(3)
C(3) 0.0161(5) 0.0081(3) 0.0082(3) 0.0000(3) -0.0006(3) 0.0060(3)
C(1) 0.0055(4) 0.0047(2) 0.0048(3) -0.0003(2) 0.0005(3) 0.0024(2)
O(1) 0.0096(3) 0.00673(19) 0.0073(2) -0.00148(18) 0.0019(2) -0.0031(2)
O(2) 0.0081(3) 0.0091(2) 0.0049(2) -0.00245(17) -0.0007(2) -0.0010(2)
loop_
_atom_type_symbol
_atom_type_description
_atom_type_scat_dispersion_real
_atom_type_scat_dispersion_imag
_atom_type_scat_source
C C 0.0015 0.0009 'International Tables Vol C Tables 4.2.6.8 and 6.1.1.4'
H H 0 0 'International Tables Vol C Tables 4.2.6.8 and 6.1.1.4'
N N 0.003 0.0019 'International Tables Vol C Tables 4.2.6.8 and 6.1.1.4'
O O 0.0056 0.0036 'International Tables Vol C Tables 4.2.6.8 and 6.1.1.4'
loop_
_geom_angle_atom_site_label_1
_geom_angle_atom_site_label_2
_geom_angle_atom_site_label_3
_geom_angle
_geom_angle_publ_flag
O(1) C(1) O(2) 123.83(7) yes
O(3) C(4) N(1) 124.25(6) yes
O(3) C(4) C(5) 120.92(7) yes
O(1) C(1) C(2) 120.24(6) yes
O(2) C(1) C(2) 115.66(6) yes
N(2) C(5) C(4) 108.36(6) yes
N(1) C(4) C(5) 114.83(7) yes
N(1) C(2) C(3) 109.17(6) yes
N(1) C(2) C(1) 113.81(5) yes
N(2) C(5) H(5A) 107.1(7) yes
N(2) C(5) H(5B) 110.2(7) yes
N(1) C(2) H(2) 108.3(6) yes
C(4) N(1) C(2) 120.23(7) yes
C(5) N(2) H(12) 110.7(7) yes
C(5) N(2) H(22) 112.1(9) yes
C(5) N(2) H(32) 108.7(9) yes
C(4) N(1) H(11) 122.2(9) yes
C(2) N(1) H(11) 117.0(8) yes
C(3) C(2) C(1) 107.85(7) yes
C(4) C(5) H(5A) 110.4(7) yes
C(4) C(5) H(5B) 110.1(6) yes
C(2) C(3) H(3A) 111.0(6) yes
C(2) C(3) H(3B) 109.0(8) yes
C(2) C(3) H(3C) 108.2(8) yes
C(3) C(2) H(2) 109.8(6) yes
C(1) C(2) H(2) 107.9(5) yes
H(12) N(2) H(22) 105.8(12) yes
H(12) N(2) H(32) 111.4(12) yes
H(22) N(2) H(32) 108.2(9) yes
H(5A) C(5) H(5B) 110.6(10) yes
H(3A) C(3) H(3B) 109.3(10) yes
H(3A) C(3) H(3C) 108.3(12) yes
H(3B) C(3) H(3C) 111.0(9) yes
loop_
_geom_bond_atom_site_label_1
_geom_bond_atom_site_label_2
_geom_bond_distance
_geom_bond_publ_flag
O(3) C(4) 1.2301(10) yes
O(1) C(1) 1.2560(9) yes
O(2) C(1) 1.2637(9) yes
N(2) C(5) 1.4774(10) yes
N(1) C(4) 1.3394(11) yes
N(1) C(2) 1.4562(8) yes
N(2) H(12) 0.903(13) yes
N(2) H(22) 0.914(12) yes
N(2) H(32) 0.895(12) yes
N(1) H(11) 0.891(15) yes
C(5) C(4) 1.5337(10) yes
C(2) C(3) 1.5306(11) yes
C(2) C(1) 1.5399(10) yes
C(5) H(5A) 0.944(13) yes
C(5) H(5B) 0.963(10) yes
C(2) H(2) 0.949(12) yes
C(3) H(3A) 1.007(13) yes
C(3) H(3B) 1.015(12) yes
C(3) H(3C) 0.979(12) yes
