#------------------------------------------------------------------------------
#$Date: 2019-10-31 02:31:25 +0200 (Thu, 31 Oct 2019) $
#$Revision: 220567 $
#$URL: file:///home/coder/svn-repositories/cod/cif/8/00/02/8000299.cif $
#------------------------------------------------------------------------------
#
# This file is available in the Crystallography Open Database (COD),
# http://www.crystallography.net/
#
# All data on this site have been placed in the public domain by the
# contributors.
#
data_8000299
loop_
_publ_author_name
'Malaspina, Lorraine A.'
'Wieduwilt, Erna K.'
'Bergmann, Justin'
'Kleemiss, Florian'
'Meyer, Benjamin'
'Ruiz-L\'opez, Manuel F'
'Pal, Rumpa'
'Hupf, Emanuel'
'Beckmann, Jens'
'Piltz, Ross O.'
'Edwards, Alison J.'
'Grabowsky, Simon'
'Genoni, Alessandro'
_publ_section_title
;
 Fast and Accurate Quantum Crystallography: From Small to Large, from
 Light to Heavy.
;
_journal_name_full               'The journal of physical chemistry letters'
_journal_page_first              6973
_journal_page_last               6982
_journal_paper_doi               10.1021/acs.jpclett.9b02646
_journal_year                    2019
_chemical_absolute_configuration unk
_chemical_formula_moiety         'C5 H10 N2 O3'
_chemical_formula_sum            'C5 H10 N2 O3'
_chemical_formula_weight         146.1471
_chemical_name_common            Glycil-L-Alanine
_chemical_name_systematic        Glycil-L-Alanine
_space_group_IT_number           19
_space_group_name_Hall           'P 2ac 2ab'
_space_group_name_H-M_alt        'P 21 21 21'
_symmetry_cell_setting           orthorhombic
_symmetry_Int_Tables_number      19
_symmetry_space_group_name_Hall  'P 2ac 2ab'
_symmetry_space_group_name_H-M   'P 21 21 21'
_atom_sites_solution_hydrogens   difmap
_atom_sites_solution_primary     direct
_atom_sites_solution_secondary   difmap
_audit_creation_date             2019-01-14T16:22:25-00:00
_audit_creation_method           'WinGX routine CIF_UPDATE'
_cell_angle_alpha                90
_cell_angle_beta                 90
_cell_angle_gamma                90
_cell_formula_units_Z            4
_cell_length_a                   7.487(2)
_cell_length_b                   9.49600(10)
_cell_length_c                   9.7099(4)
_cell_measurement_reflns_used    310
_cell_measurement_temperature    150(2)
_cell_measurement_theta_max      21.1
_cell_measurement_theta_min      6.04
_cell_volume                     690.34(19)
_computing_cell_refinement
'SMART-Bruker software V5.618 (BrukerAXS, 1997-2002)'
_computing_data_collection
'SMART-Bruker software V5.618 (BrukerAXS, 1997-2002)'
_computing_data_reduction        'SAINT V6.41A (BrukerAXS, 1997-2002)'
_computing_structure_refinement
'Tonto 18.12.17 github v. 2b3dd9c (Capelli, 2014)'
_computing_structure_solution    'SHELXS-97 (Sheldrick, 1990)'
_diffrn_ambient_temperature      150(2)
_diffrn_detector_area_resol_mean 0.657
_diffrn_measured_fraction_theta_full 0.989
_diffrn_measured_fraction_theta_max 0.974
_diffrn_measurement_device_type  'Bruker SMART-CCD'
_diffrn_measurement_method       'area detector'
_diffrn_radiation_monochromator  'Si(111) double crystal'
_diffrn_radiation_type           synchrotron
_diffrn_radiation_wavelength     0.5259
_diffrn_reflns_av_R_equivalents  0.0262
_diffrn_reflns_av_unetI/netI     0.0207
_diffrn_reflns_Laue_measured_fraction_full 0.989
_diffrn_reflns_Laue_measured_fraction_max 0.974
_diffrn_reflns_limit_h_max       11
_diffrn_reflns_limit_h_min       -11
_diffrn_reflns_limit_k_max       13
_diffrn_reflns_limit_k_min       -13
_diffrn_reflns_limit_l_max       14
_diffrn_reflns_limit_l_min       -14
_diffrn_reflns_number            13196
_diffrn_reflns_point_group_measured_fraction_full 0.991
_diffrn_reflns_point_group_measured_fraction_max 0.968
_diffrn_reflns_theta_full        18.393
_diffrn_reflns_theta_max         23.792
_diffrn_reflns_theta_min         2.22
_exptl_absorpt_coefficient_mu    0.071
_exptl_absorpt_correction_type   none
_exptl_crystal_colour            Colourless
_exptl_crystal_density_diffrn    1.406
_exptl_crystal_density_method    'not measured'
_exptl_crystal_description       Prismatic
_exptl_crystal_F_000             312
_exptl_crystal_size_max          0.1
_exptl_crystal_size_mid          0.08
_exptl_crystal_size_min          0.05
_refine_diff_density_max         0.143
_refine_diff_density_min         -0.1919
_refine_diff_density_rms         0.0351
_refine_ls_abs_structure_details
;
 Flack x determined using 997 quotients [(I+)-(I-)]/[(I+)+(I-)]
 (Parsons, Flack and Wagner, Acta Cryst. B69 (2013) 249-259).
;
_refine_ls_abs_structure_Flack   -0.2(3)
_refine_ls_extinction_method     none
_refine_ls_goodness_of_fit_all   3.0926
_refine_ls_goodness_of_fit_gt    3.0926
_refine_ls_goodness_of_fit_ref   1.095
_refine_ls_hydrogen_treatment    refxyz,refU
_refine_ls_matrix_type           full
_refine_ls_number_constraints    50
_refine_ls_number_parameters     131
_refine_ls_number_reflns         2440
_refine_ls_number_restraints     0
_refine_ls_restrained_S_all      1.095
_refine_ls_R_factor_all          0.0251
_refine_ls_R_factor_gt           0.0251
_refine_ls_shift/su_max          0
_refine_ls_shift/su_mean         0
_refine_ls_structure_factor_coef F
_refine_ls_weighting_details     w=1/\s(F)
_refine_ls_weighting_scheme      sigma
_refine_ls_wR_factor_all         0.0291
_refine_ls_wR_factor_gt          0.0291
_refine_ls_wR_factor_ref         0.0642
_reflns_Friedel_coverage         0.714
_reflns_Friedel_fraction_full    0.994
_reflns_Friedel_fraction_max     0.958
_reflns_number_gt                2440
_reflns_number_total             2440
_reflns_threshold_expression     'F>0 & F/u(F)>3.0 & |F_calc|>10^-3'
_iucr_refine_instructions_details
;
!!!!!!!!!!!!!!!!!!!!!!!!!!!!!!!!!!!!!!!!!!!!!!!!!!!!!!!!!!!!!!!!!!!!!!!!!!!!!!!
!!!                                                                         !!!
!!!                        This stdin was written with lamaGOET             !!!
!!!                                                                         !!!
!!!                    script written by Lorraine Andrade Malaspina         !!!
!!!                        contact: lorraine.malaspina@gmail.com            !!!
!!!                                                                         !!!
!!!!!!!!!!!!!!!!!!!!!!!!!!!!!!!!!!!!!!!!!!!!!!!!!!!!!!!!!!!!!!!!!!!!!!!!!!!!!!!
{ 

   keyword_echo_on

   name= tonto_IAM_150K

   ! Process the CIF
   CIF= {
       file_name= GlyAla_150K.cif
    }

   process_CIF

   name= tonto_IAM_150K

   crystal= {
      xray_data= {
         optimise_extinction= NO
         correct_dispersion=  FALSE
         wavelength= 0.5259  Angstrom
         REDIRECT tonto.data_150K.hkl
         f_sigma_cutoff= 3
         refine_H_U_iso= YES

         show_fit_output= TRUE
         show_fit_results= TRUE
      }

   }
   
   set_isotropic_h_adps 

   put

   ! Refine atoms with invarioms
   IAM_refinement

}
;
_cod_data_source_file            GlyAla_150K.cif
_cod_data_source_block           GlyAla_150K_tonto_IAM
_cod_depositor_comments
;
The following automatic conversions were performed:

'_symmetry_cell_setting' value 'Orthorhombic' changed to
'orthorhombic' according to
/home/data/users/saulius/crontab/automatic-downloads/rss-feeds/ACS/lib/dictionaries/cif_core.dic
dictionary named 'cif_core.dic' version 2.4.2 from 2011-04-26.

Automatic conversion script
Id: cif_fix_values 4973 2017-02-22 13:04:09Z antanas 
;
_cod_original_sg_symbol_Hall     'p 2ac 2ab'
_cod_original_sg_symbol_H-M      'p 21 21 21'
_cod_database_code               8000299
_refine_ls_coordinate_system     cartesian
loop_
_symmetry_equiv_pos_as_xyz
'+x, +y, +z'
'-x+1/2, -y, +z+1/2'
'+x+1/2, -y+1/2, -z'
'-x, +y+1/2, -z+1/2'
loop_
_atom_site_label
_atom_site_fract_x
_atom_site_fract_y
_atom_site_fract_z
_atom_site_U_iso_or_equiv
_atom_site_adp_type
_atom_site_occupancy
_atom_site_disorder_group
N(2) 0.73440(8) 0.75580(7) 0.40080(6) 0.0121(3) Uani 1 0
H(12) 0.8468(14) 0.7920(14) 0.4005(11) 0.026(3) Uiso 1 0
H(22) 0.7335(16) 0.6897(15) 0.3326(12) 0.026(3) Uiso 1 0
H(32) 0.7109(14) 0.7126(13) 0.4792(10) 0.017(2) Uiso 1 0
C(5) 0.59931(9) 0.86670(9) 0.38179(6) 0.0127(3) Uani 1 0
H(5A) 0.4902(14) 0.8190(15) 0.3655(10) 0.022(3) Uiso 1 0
H(5B) 0.6295(14) 0.9254(13) 0.3059(10) 0.019(2) Uiso 1 0
C(4) 0.58975(9) 0.95495(9) 0.51361(6) 0.0103(3) Uani 1 0
O(3) 0.70949(7) 0.94906(7) 0.60009(5) 0.0160(2) Uani 1 0
N(1) 0.44396(8) 1.03563(8) 0.52562(5) 0.0116(3) Uani 1 0
H(11) 0.3692(15) 1.0425(15) 0.4589(11) 0.026(3) Uiso 1 0
C(2) 0.42706(9) 1.13461(9) 0.63914(6) 0.0117(3) Uani 1 0
H(2) 0.5368(12) 1.1808(13) 0.6531(8) 0.009(2) Uiso 1 0
C(3) 0.28595(14) 1.24446(11) 0.60365(8) 0.0248(4) Uani 1 0
H(3A) 0.1664(15) 1.2019(16) 0.5866(12) 0.032(3) Uiso 1 0
H(3B) 0.328(2) 1.2964(19) 0.5139(15) 0.046(4) Uiso 1 0
H(3C) 0.2746(17) 1.3079(17) 0.6820(13) 0.036(3) Uiso 1 0
C(1) 0.37370(8) 1.06529(8) 0.77662(6) 0.0106(3) Uani 1 0
O(1) 0.26836(7) 0.96312(7) 0.77796(5) 0.0176(2) Uani 1 0
O(2) 0.43070(7) 1.12584(7) 0.88360(5) 0.0161(2) Uani 1 0
loop_
_atom_site_aniso_label
_atom_site_aniso_U_11
_atom_site_aniso_U_22
_atom_site_aniso_U_33
_atom_site_aniso_U_23
_atom_site_aniso_U_13
_atom_site_aniso_U_12
N(2) 0.0150(3) 0.0099(3) 0.0113(2) -0.0005(2) 0.00223(19) 0.0018(2)
C(5) 0.0161(3) 0.0122(4) 0.0098(2) -0.0016(2) -0.0005(2) 0.0028(3)
C(4) 0.0145(3) 0.0082(4) 0.0084(2) 0.0010(2) 0.00163(18) -0.0006(3)
O(3) 0.0181(2) 0.0155(3) 0.0143(2) -0.0016(2) -0.00460(17) 0.0021(2)
N(1) 0.0134(2) 0.0131(3) 0.00819(19) -0.0020(2) -0.00054(18) 0.0013(2)
C(2) 0.0160(3) 0.0090(4) 0.0101(2) -0.0018(2) 0.0008(2) 0.0009(3)
C(3) 0.0394(5) 0.0184(5) 0.0167(3) -0.0003(3) -0.0019(3) 0.0156(4)
C(1) 0.0115(3) 0.0104(4) 0.0098(2) -0.0016(2) 0.00084(19) 0.0026(2)
O(1) 0.0221(2) 0.0165(3) 0.01408(19) -0.0038(2) 0.00489(17) -0.0074(2)
O(2) 0.0175(2) 0.0205(3) 0.01019(19) -0.0048(2) 0.00017(17) -0.0030(2)
loop_
_atom_type_symbol
_atom_type_description
_atom_type_scat_dispersion_real
_atom_type_scat_dispersion_imag
_atom_type_scat_source
C C 0.0015 0.0009 'International Tables Vol C Tables 4.2.6.8 and 6.1.1.4'
H H 0 0 'International Tables Vol C Tables 4.2.6.8 and 6.1.1.4'
N N 0.003 0.0019 'International Tables Vol C Tables 4.2.6.8 and 6.1.1.4'
O O 0.0056 0.0036 'International Tables Vol C Tables 4.2.6.8 and 6.1.1.4'
loop_
_geom_angle_atom_site_label_1
_geom_angle_atom_site_label_2
_geom_angle_atom_site_label_3
_geom_angle
_geom_angle_publ_flag
O(1) C(1) O(2) 123.95(6) yes
O(3) C(4) N(1) 124.13(6) yes
O(3) C(4) C(5) 120.78(6) yes
O(1) C(1) C(2) 120.26(6) yes
O(2) C(1) C(2) 115.52(7) yes
N(2) C(5) C(4) 108.59(5) yes
N(1) C(4) C(5) 115.09(5) yes
N(1) C(2) C(3) 109.35(6) yes
N(1) C(2) C(1) 113.77(7) yes
N(2) C(5) H(5A) 105.8(8) yes
N(2) C(5) H(5B) 110.7(7) yes
N(1) C(2) H(2) 109.6(6) yes
C(4) N(1) C(2) 120.46(6) yes
C(5) N(2) H(12) 111.4(8) yes
C(5) N(2) H(22) 113.3(8) yes
C(5) N(2) H(32) 107.7(7) yes
C(4) N(1) H(11) 120.6(8) yes
C(2) N(1) H(11) 117.8(9) yes
C(3) C(2) C(1) 107.97(6) yes
C(4) C(5) H(5A) 111.1(6) yes
C(4) C(5) H(5B) 109.8(7) yes
C(2) C(3) H(3A) 112.5(8) yes
C(2) C(3) H(3B) 107.7(9) yes
C(2) C(3) H(3C) 107.9(8) yes
C(3) C(2) H(2) 108.6(7) yes
C(1) C(2) H(2) 107.5(5) yes
H(12) N(2) H(22) 105.4(10) yes
H(12) N(2) H(32) 111.3(10) yes
H(22) N(2) H(32) 107.8(11) yes
H(5A) C(5) H(5B) 110.8(9) yes
H(3A) C(3) H(3B) 108.7(10) yes
H(3A) C(3) H(3C) 107.6(11) yes
H(3B) C(3) H(3C) 112.6(12) yes
loop_
_geom_bond_atom_site_label_1
_geom_bond_atom_site_label_2
_geom_bond_distance
_geom_bond_publ_flag
O(3) C(4) 1.2296(8) yes
O(1) C(1) 1.2504(9) yes
O(2) C(1) 1.2616(8) yes
N(2) C(5) 1.4718(10) yes
N(1) C(4) 1.3386(9) yes
N(1) C(2) 1.4541(9) yes
N(2) H(12) 0.909(11) yes
N(2) H(22) 0.913(13) yes
N(2) H(32) 0.883(11) yes
N(1) H(11) 0.859(11) yes
C(5) C(4) 1.5316(10) yes
C(2) C(3) 1.5242(11) yes
C(2) C(1) 1.5411(9) yes
C(5) H(5A) 0.948(11) yes
C(5) H(5B) 0.951(11) yes
C(2) H(2) 0.941(10) yes
C(3) H(3A) 0.996(12) yes
C(3) H(3B) 1.049(16) yes
C(3) H(3C) 0.974(14) yes
