#------------------------------------------------------------------------------
#$Date: 2020-01-04 05:58:52 +0200 (Sat, 04 Jan 2020) $
#$Revision: 246581 $
#$URL: file:///home/coder/svn-repositories/cod/cif/8/00/03/8000325.cif $
#------------------------------------------------------------------------------
#
# This file is available in the Crystallography Open Database (COD),
# http://www.crystallography.net/
#
# All data on this site have been placed in the public domain by the
# contributors.
#
data_8000325
loop_
_publ_author_name
'Wang, Ryan Taoran'
'Xu, Alex Fan'
'Chen, Jason Yuanzhe'
'Yang, Lory Wenjuan'
'Xu, Gu'
'Jarvis, Victoria'
'Britten, James F.'
_publ_section_title
;
 Reversing Organic-Inorganic Hybrid Perovskite Degradation in Water via pH
 and Hydrogen Bonds.
;
_journal_issue                   22
_journal_name_full               'The journal of physical chemistry letters'
_journal_page_first              7245
_journal_page_last               7250
_journal_paper_doi               10.1021/acs.jpclett.9b02972
_journal_volume                  10
_journal_year                    2019
_chemical_formula_moiety         'I, 0.13(C8 H48 N8)'
_chemical_formula_sum            'C H6 I N'
_chemical_formula_weight         158.97
_space_group_crystal_system      tetragonal
_space_group_IT_number           129
_space_group_name_Hall           '-P 4a 2a'
_space_group_name_H-M_alt        'P 4/n m m :2'
_atom_sites_solution_hydrogens   geom
_atom_sites_solution_primary     dual
_audit_creation_date             2019-02-02
_audit_creation_method
;
Olex2 1.2
(compiled 2018.05.29 svn.r3508 for OlexSys, GUI svn.r5506)
;
_cell_angle_alpha                90
_cell_angle_beta                 90
_cell_angle_gamma                90
_cell_formula_units_Z            2
_cell_length_a                   5.124(3)
_cell_length_b                   5.124(3)
_cell_length_c                   9.039(5)
_cell_measurement_reflns_used    916
_cell_measurement_temperature    295(2)
_cell_measurement_theta_max      27.01
_cell_measurement_theta_min      2.25
_cell_volume                     237.3(2)
_computing_cell_refinement       'SAINT v8.34A (Bruker, 2013)'
_computing_data_reduction        'SAINT v8.34A (Bruker, 2013)'
_computing_molecular_graphics    'Olex2 (Dolomanov et al., 2009)'
_computing_publication_material  'Olex2 (Dolomanov et al., 2009)'
_computing_structure_refinement  'ShelXL (Sheldrick, 2015)'
_computing_structure_solution    'ShelXT (Sheldrick, 2015)'
_diffrn_ambient_temperature      295.15
_diffrn_measured_fraction_theta_full 1.000
_diffrn_measured_fraction_theta_max 0.996
_diffrn_measurement_device_type  'Bruker APEX-II CCD'
_diffrn_measurement_method       '\f and \w scans'
_diffrn_radiation_type           MoK\a
_diffrn_radiation_wavelength     0.71073
_diffrn_reflns_av_R_equivalents  0.0246
_diffrn_reflns_av_unetI/netI     0.0178
_diffrn_reflns_Laue_measured_fraction_full 1.000
_diffrn_reflns_Laue_measured_fraction_max 0.996
_diffrn_reflns_limit_h_max       7
_diffrn_reflns_limit_h_min       -7
_diffrn_reflns_limit_k_max       7
_diffrn_reflns_limit_k_min       -5
_diffrn_reflns_limit_l_max       11
_diffrn_reflns_limit_l_min       -13
_diffrn_reflns_number            1917
_diffrn_reflns_point_group_measured_fraction_full 1.000
_diffrn_reflns_point_group_measured_fraction_max 0.996
_diffrn_reflns_theta_full        25.242
_diffrn_reflns_theta_max         30.737
_diffrn_reflns_theta_min         2.253
_diffrn_standards_number         0
_exptl_absorpt_coefficient_mu    6.543
_exptl_absorpt_correction_T_max  0.3340
_exptl_absorpt_correction_T_min  0.0926
_exptl_absorpt_correction_type   multi-scan
_exptl_absorpt_process_details
'SADABS-2014/4 (Bruker,2014/4) was used for absorption correction. wR2(int) was 0.0759 before and 0.0427 after correction. The Ratio of minimum to maximum transmission is 0.2772. The \l/2 correction factor is 0.00150.'
_exptl_crystal_colour            colourless
_exptl_crystal_colour_primary    colourless
_exptl_crystal_density_diffrn    2.224
_exptl_crystal_description       plate
_exptl_crystal_F_000             144
_exptl_crystal_size_max          0.29
_exptl_crystal_size_mid          0.284
_exptl_crystal_size_min          0.088
_refine_diff_density_max         2.209
_refine_diff_density_min         -1.680
_refine_diff_density_rms         0.186
_refine_ls_extinction_method     none
_refine_ls_goodness_of_fit_ref   1.160
_refine_ls_hydrogen_treatment    constr
_refine_ls_matrix_type           full
_refine_ls_number_parameters     12
_refine_ls_number_reflns         255
_refine_ls_number_restraints     0
_refine_ls_restrained_S_all      1.160
_refine_ls_R_factor_all          0.0399
_refine_ls_R_factor_gt           0.0370
_refine_ls_shift/su_max          0.454
_refine_ls_shift/su_mean         0.063
_refine_ls_structure_factor_coef Fsqd
_refine_ls_weighting_details
'w=1/[\s^2^(Fo^2^)+(0.0419P)^2^+1.0211P] where P=(Fo^2^+2Fc^2^)/3'
_refine_ls_weighting_scheme      calc
_refine_ls_wR_factor_gt          0.0952
_refine_ls_wR_factor_ref         0.0976
_reflns_Friedel_coverage         0.000
_reflns_number_gt                234
_reflns_number_total             255
_reflns_threshold_expression     'I > 2\s(I)'
_cod_data_source_file            jz9b02972_si_002.cif
_cod_data_source_block           tabeart_0m
_cod_depositor_comments          'Adding full bibliography for 8000325.cif.'
_cod_original_cell_volume        237.3(3)
_cod_original_sg_symbol_H-M      'P 4/n m m'
_cod_database_code               8000325
_shelx_shelxl_version_number     2018/3
_shelx_space_group_comment
;
The symmetry employed for this shelxl refinement is uniquely defined
by the following loop, which should always be used as a source of
symmetry information in preference to the above space-group names.
They are only intended as comments.
;
_shelx_estimated_absorpt_t_max   0.597
_shelx_estimated_absorpt_t_min   0.253
_olex2_refinement_description
;
1. Fixed Uiso
 At 1.2 times of:
  All N(H,H,H) groups
 At 1.5 times of:
  All C(H,H,H) groups
2. Others
 Fixed Sof: H00C(0.125) H00B(0.125) H00A(0.125) H1B(0.125) H1A(0.125) H1C(0.125)
3.a Idealised Me refined as rotating group:
 N002(H00C,H00B,H00A), C1(H1B,H1A,H1C)
;
_shelx_res_file
;
TITL tabeart_0m_a.res in P4/nmm
    tabeart_0m.res
    created by SHELXL-2018/3 at 17:32:30 on 02-Feb-2019
REM Old TITL tabeart_0m_a.res in P4/nmm
REM SHELXT solution in P4/nmm: R1 0.108, Rweak 0.031, Alpha 0.007
REM <I/s> 8.175 for 8 systematic absences, Orientation as input
REM Formula found by SHELXT: N I
CELL 0.71073 5.1243 5.1243 9.0388 90 90 90
ZERR 2 0.0029 0.0029 0.0052 0 0 0
LATT 1
SYMM 0.5-X,0.5-Y,+Z
SYMM 0.5-Y,+X,+Z
SYMM +Y,0.5-X,+Z
SYMM -X,0.5+Y,-Z
SYMM 0.5+X,-Y,-Z
SYMM 0.5+Y,0.5+X,-Z
SYMM -Y,-X,-Z
SFAC C H I N
UNIT 2 12 2 2

L.S. 10
PLAN  20
SIZE 0.088 0.284 0.29
TEMP 22
BOND
list 4
fmap 2
acta
REM <olex2.extras>
REM <HklSrc "%.\\TabeaRT_0m.hkl">
REM </olex2.extras>

WGHT    0.041900    1.021100
FVAR       0.87686
I001  3    0.250000    0.250000    0.689585    10.12500    0.04200    0.04200 =
         0.06153    0.00000    0.00000    0.00000
N002  4    0.250000    0.250000    0.292649    10.12500    0.04304    0.04304 =
         0.04743    0.00000    0.00000    0.00000
PART -1
AFIX 137
H00C  2    0.412001    0.226137    0.325471    10.12500   -1.20000
H00B  2    0.148333    0.121635    0.325471    10.12500   -1.20000
H00A  2    0.189666    0.402229    0.325471    10.12500   -1.20000
AFIX   0
PART 0
C1    1    0.250000    0.250000    0.132464    10.12500    0.10671    0.10671 =
         0.04753    0.00000    0.00000    0.00000
PART -1
AFIX 137
H1B   2    0.113227    0.361762    0.097061    10.12500   -1.50000
H1A   2    0.221597    0.075670    0.097061    10.12500   -1.50000
H1C   2    0.415175    0.312568    0.097061    10.12500   -1.50000
AFIX   0
HKLF 4




REM  tabeart_0m_a.res in P4/nmm
REM wR2 = 0.0976, GooF = S = 1.160, Restrained GooF = 1.160 for all data
REM R1 = 0.0370 for 234 Fo > 4sig(Fo) and 0.0399 for all 255 data
REM 12 parameters refined using 0 restraints

END

WGHT      0.0419      1.0210

REM Highest difference peak  2.209,  deepest hole -1.680,  1-sigma level  0.186
Q1    1   0.2500  0.2500  0.4976  10.12500  0.05    2.21
Q2    1   0.2500  0.2500  0.5800  10.12500  0.05    2.10
Q3    1   0.2500  0.2500  0.7845  10.12500  0.05    1.55
Q4    1   0.2500  0.1439 -0.0646  10.50000  0.05    0.83
Q5    1   0.3518  0.1482  0.6822  10.50000  0.05    0.64
Q6    1   0.2966  0.1087  0.6852  11.00000  0.05    0.57
Q7    1   0.2500  0.1539  0.0307  10.50000  0.05    0.33
Q8    1   0.4801  0.2500  0.4603  10.50000  0.05    0.32
Q9    1   0.2500  0.2500  0.1925  10.12500  0.05    0.31
Q10   1   0.2500 -0.2500  0.0903  10.25000  0.05    0.26
Q11   1   0.2500 -0.2500  0.1970  10.25000  0.05    0.22
Q12   1   0.7500  0.1469  0.2779  10.50000  0.05    0.19
Q13   1   0.2500 -0.2500  0.0000  10.12500  0.05    0.19
Q14   1   0.4758  0.2500  0.3846  10.50000  0.05    0.18
Q15   1   0.7500  0.4253  0.1032  10.50000  0.05    0.18
Q16   1   0.7500  0.1449  0.4427  10.50000  0.05    0.16
Q17   1   0.6573  0.2500  0.4640  10.50000  0.05    0.14
Q18   1   0.0800  0.6817  0.3565  11.00000  0.05    0.12
Q19   1   0.6390  0.2500  0.2984  10.50000  0.05    0.12
Q20   1   0.2500 -0.1475  0.1404  10.50000  0.05    0.11
;
_shelx_res_checksum              87311
_shelx_hkl_file
;
   0   1   0    4.10    0.80
   0   1   0    2.40    0.80
  -1   0   0    3.00    0.80
  -1   0   0    6.10    0.80
  -1   1   0 9826.82  304.67
  -1   1   0 9999.00  304.67
  -1  -1   0 9657.63  304.77
  -2   0   0 7068.59  209.08
   0   2   0 6363.26  209.08
  -2   0   0 6797.42  209.08
  -2   2   0 3535.55  110.79
  -2   2   0 3527.65  110.69
  -2  -2   0 3596.34  110.69
   2   2   0 3606.24  110.69
  -3   0   0   -6.80    1.30
  -3   1   0 2802.02   84.59
  -3   1   0 2746.33   84.59
  -1   3   0 2506.65   84.49
   1   3   0 2715.53   84.49
  -3  -1   0 2829.12   84.59
  -3  -3   0 1151.58   36.10
  -3   3   0 1146.69   36.10
   3   3   0 1150.48   36.10
  -4   0   0 1436.76   44.90
  -4   0   0 1433.66   44.90
  -4   1   0   13.30    1.80
  -2   4   0  933.71   29.60
   2   4   0  931.21   29.60
  -4  -2   0  946.91   29.70
  -4   2   0  931.01   29.60
   4   2   0  949.11   29.70
  -4   2   0  937.01   29.60
  -4  -3   0   24.20    2.80
   4  -3   0   25.70    2.80
  -4   4   0  313.97   11.00
   4   4   0  297.97   11.00
  -5   0   0   17.90    2.60
   5   0   0   18.80    2.60
  -5   0   0   15.40    2.60
   1   5   0  509.95   17.40
   5   1   0  540.15   17.40
  -5  -1   0  532.75   17.40
  -5   1   0  542.85   17.30
   5  -1   0  548.05   17.30
  -1   5   0  512.45   17.20
  -5   1   0  528.75   17.30
  -5   2   0   15.20    2.70
  -5  -2   0   15.50    3.20
   5   2   0   21.40    3.40
  -5   2   0    8.30    2.70
  -2   5   0   19.60    2.80
   5  -2   0   13.10    2.80
  -5   3   0  276.17   10.00
   3   5   0  256.77   10.20
   5  -3   0  275.77   10.10
  -3   5   0  272.37   10.00
  -5   3   0  263.07   10.10
  -5   4   0    7.30    3.80
   5   4   0   13.10    4.10
  -4   5   0   10.40    4.00
  -5   4   0    8.40    3.70
   4   5   0   11.20    4.30
  -5   5   0   87.19    6.20
  -6   0   0  252.37    9.60
  -6   0   0  232.68    9.60
   6   0   0  236.68    9.30
  -6  -1   0   12.10    3.70
   6  -1   0    8.00    3.30
  -6   1   0    8.70    3.50
   6   1   0    8.20    4.00
  -6   1   0    9.60    3.60
  -6  -2   0  150.98    8.30
   6   2   0  154.28    8.60
  -6   2   0  159.28    7.90
   6  -2   0  170.78    7.60
  -6   2   0  158.28    7.70
   6  -3   0    6.40    4.10
  -3   6   0    3.90    4.30
  -6   3   0    4.70    4.20
  -6   3   0    7.50    3.90
   3   6   0   11.10    4.80
  -6   4   0   66.49    6.00
  -6   4   0   70.79    5.70
   4   6   0   63.79    6.30
  -4   6   0   72.99    6.00
   6  -4   0   77.09    6.20
   7   0   0    3.40    4.20
  -7   0   0    4.80    4.70
  -7   1   0   83.29    6.20
   7   1   0   76.69    6.90
  -7  -1   0   81.69    6.30
   7  -1   0   81.49    5.60
  -7   1   0   86.39    5.80
  -7   2   0    6.60    4.50
   7  -2   0    3.40    4.60
   2   7   0    9.30    6.20
  -7   2   0    4.30    5.00
   0   0  -1  974.30   30.60
  -1   0   1 3200.78  101.99
   0   1  -1 3187.18  102.09
   0   1   1 3161.68  101.99
   1   0  -1 3386.66  101.99
  -1   0   1 3352.56  102.09
  -1   0  -1 3371.96  101.99
  -1   0  -1 3351.96  101.99
  -1  -1   1  644.84   20.20
   1   1   1  600.34   20.10
   1  -1  -1  640.94   20.20
  -1   1  -1  659.73   20.20
  -1   1   1  642.04   20.20
  -1   1   1  638.44   20.20
   1   1  -1  659.83   20.30
  -1   1  -1  668.33   20.20
  -2   0   1  504.85   16.10
  -2   0   1  510.65   16.10
   2   0  -1  499.65   16.10
  -2   0  -1  523.55   16.10
   0   2   1  508.15   16.10
  -2   0  -1  519.45   16.10
  -2  -1   1 2192.48   68.99
  -2  -1   1 2195.68   68.99
  -2   1  -1 2183.78   68.99
  -1   2   1 2113.79   68.99
   1   2  -1 2306.27   69.29
  -2   1  -1 2228.08   68.99
   1   2  -1 2195.68   68.99
   2  -1  -1 2270.47   68.99
  -1   2  -1 2121.29   68.99
   2   1  -1 2259.87   69.09
   1   2   1 2201.48   68.99
  -2   1   1 2361.66   69.09
  -2   1   1 2249.18   68.99
  -1  -2   1 2214.48   68.99
   2  -2  -1  341.27   11.00
  -2  -2   1  371.06   11.00
  -2  -2  -1  332.67   11.00
  -2   2   1  301.77   11.10
   2   2  -1  390.56   11.30
   2   2   1  339.67   11.00
  -2   2   1  326.27   11.00
  -3   0  -1 1492.15   46.90
   0   3  -1 1470.75   46.90
  -3   0   1 1537.35   46.90
   0   3   1 1490.65   46.90
  -3   0  -1 1512.65   46.90
  -3   0   1 1539.95   46.90
   3   0  -1 1484.75   46.90
   3  -1  -1  279.67   10.00
  -3  -1   1  296.17   10.10
  -3  -1   1  298.67    9.90
   1   3  -1  346.67   10.20
  -3   1  -1  325.97   10.00
   1   3  -1  339.17   10.00
  -1   3   1  278.47    9.90
  -3   1  -1  308.57   10.00
  -3   1   1  273.67   10.00
   3   1  -1  305.67   10.10
  -3  -1  -1  287.87   10.00
   1   3   1  343.57   10.00
   3  -2  -1 1029.10   31.50
   2   3  -1  993.30   31.40
  -3  -2   1  993.40   31.40
  -3   2  -1 1007.40   31.40
  -3   2  -1  985.70   31.50
  -2   3   1  990.30   31.40
   3   2  -1 1024.50   31.60
  -2   3  -1  953.20   31.40
  -2  -3   1 1001.80   31.40
  -3   2   1 1019.30   31.50
  -3   2   1 1027.20   31.50
   2   3   1 1001.70   31.40
  -3  -3   1  167.78    6.50
   3   3  -1  189.18    8.10
  -3   3  -1  183.48    6.60
  -3   3  -1  179.08    6.70
   3   3  -1  193.38    6.60
  -4   0   1  169.68    6.30
   4   0  -1  175.78    6.20
  -4   0  -1  169.58    6.30
  -4   0  -1  174.98    6.20
  -4   0   1  157.58    6.40
  -4   1  -1  677.53   21.80
  -1   4   1  637.64   21.60
  -4   1  -1  696.43   21.70
  -4  -1   1  702.33   21.90
   4  -1  -1  690.43   21.80
   4   1  -1  703.93   21.80
  -1   4  -1  659.23   21.70
  -4   1   1  667.93   21.70
   1   4   1  670.83   21.70
  -4   1   1  724.83   21.80
  -4  -1  -1  703.73   21.80
   4  -2  -1  134.69    5.70
  -4   2  -1  144.29    5.60
  -4  -2   1  135.99    5.60
  -2   4   1  138.09    5.60
  -4   2  -1  145.39    5.70
   2   4  -1  165.08    5.70
  -2   4  -1  157.68    5.70
   2   4   1  140.99    5.70
  -4   2   1  136.79    5.80
   4   2  -1  147.29    6.10
  -4   2   1  116.29    5.60
  -4   3  -1  329.97   11.40
   4  -3  -1  337.37   11.30
   3   4  -1  317.67   11.40
  -3   4   1  332.97   11.30
  -4   3  -1  337.77   11.30
   4   3  -1  317.37   11.30
  -4   3   1  333.27   11.40
  -4   3   1  336.67   11.40
  -3   4  -1  340.27   11.40
  -3  -4   1  342.07   11.30
   4   3  -1  329.17   12.20
  -4  -4   1   76.29    5.20
  -4   4  -1   54.19    4.10
  -4   4   1   60.79    4.10
   4   4  -1   73.59    4.40
  -5   0  -1  339.87   11.60
   0   5  -1  328.07   11.60
   5   0  -1  346.17   11.50
  -5   0   1  340.47   11.60
  -5   0   1  332.57   11.60
  -5   0  -1  343.97   11.50
   5  -1  -1   94.89    4.80
  -5  -1   1   86.79    5.40
  -5   1  -1   83.69    4.80
  -5   1  -1   85.69    5.00
  -5   1   1   81.69    5.00
  -1   5  -1  109.39    5.10
   5   1  -1   94.29    5.30
   1   5   1   93.79    5.20
  -5  -1  -1   80.69    5.10
  -5   1   1   89.79    5.00
  -5   2  -1  221.78    8.60
   5  -2  -1  227.58    8.50
  -5   2  -1  235.68    8.40
  -5  -2   1  223.98    9.00
  -2   5   1  235.08    8.30
   2   5  -1  221.18    8.70
   5   2   1  224.88    8.90
  -5   2   1  233.68    8.50
   5   2  -1  222.98    9.00
  -5  -2  -1  223.18    8.70
  -5   2   1  233.88    8.50
   2   5   1  230.38    8.70
  -2   5  -1  215.08    8.50
  -5   3  -1   44.30    4.00
  -3   5   1   56.19    3.90
  -5   3  -1   53.69    3.80
   3   5  -1   67.69    4.50
   5  -3  -1   50.99    3.90
  -5   3   1   52.39    4.10
  -3   5  -1   55.59    4.00
  -5   3   1   54.39    3.80
   3   5   1   43.60    4.20
   5  -3   1   47.50    4.10
   5   3  -1   55.39    5.20
   4   5  -1   96.89    5.90
  -5   4  -1  101.79    6.90
   5  -4  -1   86.79    6.80
  -4   5   1   91.69    6.60
  -4   5  -1   93.99    6.90
   5   4  -1  107.99    6.00
  -5   4   1   87.29    5.40
   5  -4   1  107.49    7.30
   4   5   1  104.09    5.90
  -5   4   1   89.89    6.70
  -5   5  -1   20.80    5.10
   5   5  -1   27.40    5.40
  -5   5   1   18.20    4.90
   0   6   1   43.60    4.90
  -6   0   1   40.80    4.00
   6   0  -1   39.00    3.80
  -6   0  -1   40.60    3.80
  -6   0   1   44.10    3.90
  -6   0  -1   36.10    4.00
   6   0   1   38.00    3.70
   6  -1  -1  117.09    6.40
  -6   1  -1  128.19    6.90
  -6   1  -1  124.39    6.40
  -6  -1   1  115.79    7.30
   6   1  -1  111.99    7.10
   1   6   1  119.69    7.20
   6  -1   1  122.29    6.40
  -6   1   1  114.79    6.50
  -6   1   1  115.89    6.80
  -1   6  -1  119.99    8.80
  -6  -1  -1  118.39    6.80
  -6   2  -1   28.30    4.20
  -6   2  -1   26.70    3.80
   6  -2  -1   30.00    3.80
   2   6   1   33.80    4.80
  -6   2   1   30.80    4.20
  -2   6  -1   34.60    4.20
   6   2  -1   35.40    4.80
  -6   2   1   33.50    3.80
   6  -2   1   30.20    4.00
   6  -3  -1   71.29    5.20
   3   6  -1   66.69    5.70
  -6   3  -1   69.09    5.30
  -6   3  -1   80.09    5.60
   3   6   1   67.19    6.10
  -6   3   1   68.69    5.10
  -6   3   1   72.99    5.40
   6  -3   1   78.09    5.60
  -3   6  -1   66.59    5.50
  -6  -4   1   20.40    5.60
  -6   4  -1   10.80    5.00
  -6   4  -1   17.20    5.10
  -4   6   1   14.80    5.10
   6  -4   1   20.20    5.50
  -6   4   1   14.10    5.00
  -4   6  -1   13.80    5.40
  -7   0  -1   53.19    5.30
  -7   0  -1   47.40    5.30
   7   0  -1   50.69    5.10
   7   0   1   50.79    5.00
   7   0  -1   47.30    5.70
  -7   0   1   50.89    5.50
   7   1   1   11.20    6.00
  -7  -1   1   12.90    5.20
  -7   1  -1   13.20    5.00
   7  -1  -1   11.40    4.40
  -7   1  -1   18.50    5.00
  -7  -1  -1   15.20    5.20
   7  -1   1   14.50    4.50
   7   1  -1   18.80    5.60
  -7   1   1   16.40    4.90
   7  -2  -1   36.00    5.10
   2   7  -1   35.60    6.50
  -7   2  -1   40.90    5.60
  -7   2  -1   38.90    5.50
   2   7   1   34.80    6.60
   7   2  -1   43.50    8.00
   7  -2   1   43.00    5.50
  -7   2   1   38.00    5.60
   0   0  -2 4922.21  156.08
   0   0  -2 5141.99  156.08
   0   1  -2 2929.21   87.89
  -1   0   2 2790.62   87.79
   0   1   2 2729.63   87.79
  -1   0  -2 2948.21   87.79
   1   0  -2 2834.52   87.79
  -1   0   2 2791.12   87.79
   1   0  -2 2844.52   87.79
  -1   0  -2 2775.92   87.79
  -1   1  -2 3203.78   97.79
  -1   1   2 3203.88   97.89
   1  -1  -2 3095.49   97.69
  -1   1   2 2997.80   97.69
   1   1  -2 3247.48   97.89
  -1  -1   2 3096.29   97.69
  -1   1  -2 3210.58   97.79
   0   2   2 2313.17   71.59
   2   0  -2 2305.87   71.59
  -2   0  -2 2315.27   71.59
  -2   0  -2 2321.67   71.59
   2   0  -2 2329.97   71.69
  -2   0   2 2305.87   71.69
   0   2  -2 2261.57   71.69
  -2   0   2 2293.17   71.59
   1   2  -2 1557.34   47.60
   2  -1  -2 1528.55   47.20
  -2   1  -2 1512.95   47.20
  -2  -1   2 1516.75   47.10
  -1   2   2 1512.85   47.20
  -2   1  -2 1515.15   47.20
   1   2   2 1517.95   47.10
  -1  -2   2 1495.95   47.10
  -1   2  -2 1531.05   47.20
   2   1  -2 1506.35   47.20
  -2   1   2 1469.65   47.20
  -2   2  -2 1405.86   43.80
  -2   2  -2 1417.16   43.80
  -2  -2   2 1369.36   43.70
   2  -2  -2 1432.56   43.80
  -2   2   2 1385.46   43.70
   2   2  -2 1406.86   44.00
  -3   0  -2  967.30   29.90
  -3   0   2  944.71   29.90
   3   0  -2  927.01   29.90
   0   3  -2  940.21   30.00
  -3   0  -2  960.20   29.90
   0   3   2  988.10   29.90
  -3   1  -2 1089.49   34.30
   1   3  -2 1057.89   34.50
   3  -1  -2 1124.99   34.30
  -3  -1   2 1098.29   34.40
  -3   1  -2 1094.09   34.30
  -3  -1   2 1097.69   34.20
   3   1  -2 1087.79   34.30
  -3   1   2 1121.69   34.30
  -1  -3   2 1080.79   34.20
   1   3   2 1089.99   34.20
  -3   1   2 1105.29   34.30
  -1   3  -2 1082.19   34.30
   2   3  -2  621.64   20.70
   3  -2  -2  626.34   19.80
  -3  -2   2  615.54   19.70
  -2   3   2  618.44   19.80
  -3   2  -2  631.84   19.80
  -3   2  -2  626.54   19.80
   2   3  -2  630.94   19.80
  -3   2   2  616.44   19.80
   3   2  -2  623.64   20.10
  -2   3  -2  625.84   19.90
  -2  -3   2  626.44   19.80
   2   3   2  623.04   19.70
   3   3  -2  487.35   16.00
  -3  -3   2  492.95   15.90
  -3   3   2  502.15   16.00
   3   3  -2  478.85   16.90
  -3   3  -2  499.45   16.00
  -4   0  -2  578.94   18.30
   4   0  -2  548.75   18.30
  -4   0  -2  582.34   18.30
  -4   0   2  567.04   18.40
   0   4   2  569.34   18.30
   0   4  -2  587.54   18.50
  -4  -1   2  428.86   13.90
   1   4  -2  414.56   14.00
  -4   1  -2  422.16   13.80
   4  -1  -2  417.36   13.80
  -4   1  -2  421.46   13.70
  -4   1   2  409.86   13.70
  -4   1   2  414.96   13.80
  -4  -1  -2  431.56   13.70
  -1   4  -2  414.66   13.80
   1   4   2  432.76   13.70
   4   1  -2  426.46   13.90
  -4   2  -2  396.76   13.20
   4  -2  -2  404.86   13.30
   2   4  -2  388.76   13.30
  -4   2  -2  397.56   13.30
   2   4  -2  411.96   14.10
  -2   4   2  401.56   13.20
  -4  -2   2  399.36   13.20
   2   4   2  403.36   13.30
  -4   2   2  412.16   13.30
   4   2  -2  390.66   13.60
  -2   4  -2  416.16   13.40
  -4   2   2  408.26   13.30
   3   4  -2  228.38   11.10
  -3   4   2  214.28    8.00
   3   4  -2  208.48    8.10
  -4   3  -2  205.58    8.10
   4  -3  -2  221.78    8.10
  -4   3  -2  205.78    8.00
  -4   3   2  230.28    8.10
   3   4   2  213.38    8.00
  -3  -4   2  215.68    7.90
   4   3  -2  208.48    9.40
  -3   4  -2  218.18    8.20
   4   4  -2  131.49    8.70
  -4   4  -2  154.78    7.10
   4   4  -2  145.29    7.10
  -4  -4   2  148.89    6.80
  -4   4   2  140.09    6.90
   5   0  -2  212.68    7.80
   0   5   2  197.08    8.00
  -5   0   2  205.38    7.90
  -5   0  -2  202.88    7.80
  -5   0  -2  198.58    7.70
   0   5  -2  208.38    8.10
   5  -1  -2  233.58    8.50
  -5   1  -2  226.08    8.60
  -5  -1   2  226.98    9.00
  -5   1  -2  235.48    8.50
   1   5  -2  243.18    9.10
   5   1  -2  219.78    8.80
   1   5   2  220.38    8.70
  -5  -1  -2  230.88    8.60
  -5   1   2  228.78    8.60
  -1   5  -2  239.78    8.70
   2   5  -2  153.98    7.50
   5  -2  -2  144.09    6.50
   2   5  -2  150.38    6.80
  -5   2  -2  140.49    6.40
  -5   2  -2  138.39    6.70
  -2   5   2  156.88    6.50
  -5   2   2  157.68    6.70
   5   2  -2  145.59    7.30
   2   5   2  148.89    6.80
  -2   5  -2  149.19    6.80
   3   5  -2  108.99    6.70
   5  -3  -2  119.99    6.50
  -5   3  -2  124.09    6.90
  -5   3  -2  124.99    6.20
  -3   5   2  113.79    6.20
   3   5   2  120.89    6.80
  -5   3   2  130.99    6.60
  -3   5  -2  127.59    6.80
   5   3  -2  119.99    8.20
   5   3  -2  130.29    7.10
  -5  -4   2   73.19    5.30
   5  -4  -2   49.40    4.90
  -5   4  -2   64.19    5.20
  -4   5   2   52.99    4.70
   4   5  -2   68.29    5.20
  -5   4   2   59.29    4.80
  -4   5  -2   62.19    5.20
   5   5  -2   39.20    5.70
  -5   5   2   30.10    5.10
  -5   5  -2   42.30    5.80
  -6   0   2   96.69    6.70
   6   0  -2   94.39    6.30
   6   0  -2   97.99    6.40
   0   6  -2  110.29    6.70
  -6   0  -2   96.69    6.50
  -6  -1   2   82.69    5.40
   6  -1  -2   72.39    4.70
  -6   1  -2   71.99    4.70
  -6   1  -2   82.69    5.00
  -6  -1  -2   75.09    4.80
   1   6   2   80.39    5.60
  -1   6  -2   74.79    5.00
   6   1  -2   81.49    5.30
  -6   1   2   82.59    5.00
   2   6  -2   77.29    5.50
  -6   2  -2   80.09    5.30
  -6   2  -2   77.29    5.90
   6  -2  -2   76.69    5.00
   2   6   2   82.99    5.80
  -2   6  -2   69.49    5.20
  -6   2   2   82.39    5.30
   6   2  -2   78.59    5.90
   6  -3  -2   39.60    4.70
  -6   3  -2   44.60    4.70
  -6   3  -2   45.40    5.30
  -6   3   2   50.29    5.10
   6  -3   2   41.40    5.10
   3   6   2   47.20    5.60
  -3   6  -2   43.50    5.20
   6   3  -2   40.40    6.50
  -6   4  -2   38.30    5.50
  -6  -4   2   32.00    6.00
   6  -4  -2   24.30    5.50
  -6   4  -2   33.80    5.80
  -4   6  -2   39.10    5.90
  -6   4   2   28.50    5.40
   6  -4   2   33.30    6.00
  -7   0   2   30.70    5.30
  -7   0  -2   27.80    5.10
  -7   0  -2   32.40    4.90
   7   0  -2   21.80    4.90
   7   0  -2   27.40    5.50
  -7   1  -2   32.30    5.30
   7  -1  -2   24.70    5.40
   7  -1  -2   33.20    4.90
  -7  -1   2   35.50    5.70
  -7   1  -2   41.70    5.00
  -7   1   2   35.50    5.40
   1   7   2   42.20    6.60
   7  -1   2   33.40    4.80
   7   1  -2   30.80    5.80
  -7   2  -2   21.90    5.50
  -7   2  -2   24.00    5.30
  -7   2   2   25.60    5.50
   0   0  -3 4186.18  131.69
   0   0  -3 4298.87  131.79
   0   1   3  678.03   22.00
  -1   0  -3  686.53   21.90
  -1   0   3  698.53   22.00
   0   1  -3  725.43   22.20
   1   0  -3  698.73   22.00
  -1   0  -3  712.03   22.00
   1   0  -3  687.33   22.00
   0   1  -3  728.53   22.30
   1  -1  -3 2995.60   92.39
  -1   1  -3 3007.90   92.39
  -1   1   3 2821.72   92.29
   1  -1  -3 2920.31   92.29
   1   1  -3 3070.79   92.49
  -1   1   3 3019.60   92.49
  -1   1  -3 2982.20   92.39
   0   2  -3 2280.37   70.29
   2   0  -3 2209.58   70.09
  -2   0   3 2266.97   70.09
  -2   0  -3 2307.17   70.09
  -2   0  -3 2205.38   69.99
   2   0  -3 2274.27   70.09
   0   2   3 2252.37   70.09
  -2   0   3 2231.08   70.09
  -2   1  -3  351.96   11.60
  -2  -1   3  360.86   11.50
   1   2  -3  354.66   12.20
  -2   1  -3  360.66   11.60
   2  -1  -3  355.36   11.50
  -1   2   3  365.26   11.80
  -2   1   3  369.76   11.80
   2   1  -3  364.86   11.70
  -1   2  -3  366.66   11.70
  -2   1   3  353.66   11.50
  -2   2  -3 1391.96   44.00
  -2   2  -3 1403.96   44.10
   2  -2  -3 1433.96   44.00
  -2   2   3 1441.86   44.30
   2   2  -3 1429.96   44.40
  -2   2   3 1389.26   44.00
  -2  -2   3 1383.36   44.00
   0   3   3  235.48    7.70
  -3   0   3  233.98    7.70
  -3   0  -3  228.68    7.60
  -3   0  -3  214.58    7.70
   0   3  -3  216.98    8.00
  -3   0   3  230.18    7.70
   3   0  -3  223.88    7.60
   3   0  -3  228.58    7.70
   1   3  -3 1149.48   36.50
   3  -1  -3 1147.99   36.00
  -3   1  -3 1150.48   35.90
  -1   3   3 1153.38   36.10
  -3  -1   3 1151.68   35.90
  -3   1  -3 1154.18   35.90
  -3   1   3 1126.19   35.90
   3   1  -3 1131.29   36.00
   1   3   3 1169.08   35.90
  -1   3  -3 1137.19   36.10
  -3   2  -3  143.59    5.80
  -3   2  -3  148.69    5.80
  -3  -2   3  159.68    5.60
   3  -2  -3  159.98    5.80
   2   3  -3  162.48    7.60
  -2   3   3  148.49    5.70
  -3   2   3  160.18    5.70
  -2   3  -3  154.38    6.00
   2   3   3  169.68    5.70
  -2  -3   3  150.88    5.70
   3   2  -3  151.38    6.50
  -3  -3   3  516.55   16.60
   3   3  -3  528.15   17.80
  -3   3  -3  502.65   16.80
  -3   3   3  528.05   16.80
  -4   0   3  631.54   20.10
   0   4   3  614.84   20.00
  -4   0  -3  651.23   20.00
   4   0  -3  605.84   20.00
  -4   0  -3  639.54   19.90
   0   4  -3  612.54   20.30
   4   0  -3  613.44   19.90
  -4   1  -3  102.69    5.00
  -4   1  -3  105.79    5.00
  -1   4   3  129.29    5.60
   1   4  -3  123.69    6.20
   4  -1  -3  106.19    4.90
  -4  -1   3  118.39    4.90
  -4  -1   3  111.09    5.50
  -1   4  -3  117.39    5.40
   1   4   3  123.59    5.00
   4   1  -3  113.89    5.30
  -4   1   3  112.19    5.00
  -4   2  -3  440.76   14.50
  -4  -2   3  443.96   14.50
  -4   2  -3  434.66   14.60
   2   4  -3  438.56   14.60
   2   4  -3  443.96   16.00
   4  -2  -3  448.66   14.60
  -2   4  -3  439.16   14.70
  -4   2   3  464.15   14.60
   4   2  -3  440.86   15.00
  -2  -4   3  438.86   14.50
   2   4   3  439.96   14.50
   3   4  -3   54.49    5.90
  -4  -3   3   66.69    3.80
  -4   3  -3   60.09    3.80
   3   4  -3   58.59    3.90
  -3   4   3   64.39    4.60
  -4   3  -3   54.79    3.80
   4  -3  -3   63.99    4.70
   4   3  -3   54.69    5.10
  -4   3   3   67.99    4.70
  -3  -4   3   61.19    3.70
  -3   4  -3   54.89    3.80
   4   4  -3  143.19    9.10
  -4   4   3  160.68    7.30
   4   4  -3  155.98    7.50
  -4   4  -3  163.98    7.60
  -4  -4   3  165.08    7.30
   5   0  -3   56.09    3.80
   5   0  -3   56.79    3.60
   0   5  -3   61.69    4.30
   0   5   3   57.89    4.20
  -5   0   3   60.79    3.90
  -5   0  -3   53.59    3.70
  -5   0  -3   61.69    4.60
  -5  -1   3  262.17   10.00
   5  -1  -3  271.77    9.50
  -5   1  -3  270.77    9.40
   1   5  -3  259.57   10.30
  -5   1  -3  267.47    9.60
   5   1  -3  248.08    9.70
  -1   5  -3  258.07    9.80
   1   5   3  260.57    9.60
  -5  -1  -3  248.18    9.40
  -5   1   3  255.97    9.50
   2   5  -3   45.60    4.90
  -5   2  -3   42.60    3.90
   5  -2  -3   46.00    3.60
  -5   2  -3   41.00    3.60
   5   2  -3   43.20    4.40
  -2   5  -3   47.10    4.10
   2   5   3   45.10    4.10
  -5   2   3   45.70    3.80
   3   5  -3  133.89   10.10
  -5   3  -3  134.29    6.90
  -5   3  -3  136.99    7.40
  -3   5   3  151.38    8.30
   5  -3  -3  134.99    7.10
  -5  -3   3  131.79    7.10
  -3   5  -3  129.19    7.30
   5   3  -3  144.79    9.00
  -5   3   3  151.38    7.20
  -5  -4   3   18.90    4.60
  -5   4  -3   19.80    4.30
  -5   4  -3   19.90    4.90
   4   5  -3   16.20    4.90
  -4   5   3   12.20    4.00
   5   4  -3   17.70    7.60
   4   5   3   16.10    4.90
  -5   4   3   19.10    4.30
   5   4  -3   19.10    4.90
  -4  -5   3   26.30    4.80
  -4   5  -3   22.20    4.90
  -5   5  -3   41.70    6.20
   5   5  -3   47.70    6.50
  -5   5   3   42.00    5.50
  -5  -5   3   48.70    6.10
   0   6  -3  101.19    7.50
  -6   0  -3  109.29    6.60
   0   6   3  113.49    7.70
  -6   0  -3  109.09    6.90
   6   0  -3  111.59    6.90
  -6   0   3  113.99    7.30
   6   0  -3  114.29    6.90
   6  -1  -3   18.80    4.10
  -1   6   3   22.40    5.70
   1   6  -3   22.50    6.70
  -6  -1   3   27.60    4.40
   6  -1  -3   20.40    3.70
  -6   1  -3   27.50    4.10
  -6   1  -3   24.40    3.90
  -1   6  -3   24.20    4.30
   6   1  -3   21.90    4.30
   1   6   3   22.40    4.80
  -6   1   3   22.40    4.10
  -6   2  -3   83.29    6.40
   6  -2  -3   78.89    5.30
  -6   2  -3   83.79    5.80
  -6   2   3   96.09    5.70
  -2   6  -3   83.89    5.80
   6   2  -3   89.99    6.40
  -6   3  -3   13.30    5.10
  -6   3  -3   13.20    4.40
   6  -3  -3    7.60    4.50
   3   6  -3   13.90    5.50
   6   3  -3   12.80    6.40
  -3   6  -3   14.00    5.10
  -6   3   3   16.00    4.90
   3   6   3   19.50    5.40
   0   7   3   20.90    7.10
  -7   0  -3    9.20    5.20
  -7   0   3   11.60    5.30
  -7   0  -3    7.10    4.60
   7   0  -3   10.60    4.90
   7   0  -3    9.50    5.30
  -7   1  -3   43.60    5.70
  -7  -1   3   41.40    5.90
   7  -1  -3   35.90    5.80
   7  -1  -3   41.10    5.30
  -7   1  -3   33.10    5.10
   7   1  -3   43.20    6.10
   1   7   3   41.90    6.80
  -7   1   3   41.70    5.80
   0   0  -4    0.10    1.80
   0   0  -4    0.40    1.50
  -1   0   4 2243.88   67.99
   1   0  -4 2200.08   68.09
   0   1  -4 2178.18   68.19
  -1   0  -4 2081.19   67.89
   0   1  -4 2356.76   68.29
  -1   0  -4 2184.18   68.09
   1   0  -4 2068.39   67.99
   0  -1  -4 2172.38   68.09
   1  -1  -4    2.00    1.40
  -1   1  -4    2.30    1.40
   1  -1  -4    1.70    1.20
  -1   1   4    2.10    1.80
   1   1  -4   -0.30    2.10
   1   1  -4   -1.20    2.00
  -2   0   4    7.10    1.60
   2   0  -4    5.60    1.50
  -2   0  -4    2.80    1.40
   0   2  -4    2.70    2.30
   2   0  -4    4.30    1.40
  -2   0  -4    2.40    1.20
   0   2   4    2.50    1.70
   1   2  -4 1442.16   45.40
  -2   1  -4 1441.56   45.00
  -2   1  -4 1443.06   45.00
  -1   2   4 1449.35   45.20
   2  -1  -4 1468.75   45.00
   2  -1  -4 1446.86   45.00
  -2  -1   4 1407.96   44.90
  -2   1   4 1413.26   45.00
  -2   1   4 1423.86   45.10
  -1   2  -4 1446.76   45.20
   2   1  -4 1475.05   45.20
   2   2  -4    3.40    2.70
  -2   2  -4    3.80    1.70
  -2   2   4    5.20    1.50
  -2   2   4    3.10    2.60
  -2   2  -4    9.60    1.80
   2  -2  -4    5.30    1.70
  -2  -2   4    9.30    1.60
  -3   0   4 1002.50   31.20
  -3   0   4  974.20   31.10
   3   0  -4  972.30   31.10
   0   3  -4  968.70   31.40
  -3   0  -4 1002.30   31.00
  -3   0  -4  997.10   31.10
   3   0  -4  992.60   31.20
   0   3   4 1003.30   31.20
   3  -1  -4    3.10    1.80
  -3   1  -4    5.70    1.80
   3  -1  -4    6.30    1.70
   1   3  -4   14.00    3.60
  -3   1  -4    3.70    1.70
  -3  -1   4    4.30    1.70
  -1   3   4    4.80    2.60
  -1   3  -4    6.50    2.30
  -3   1   4    3.70    1.70
   3   1  -4    6.80    2.10
   1   3   4    6.50    2.00
   3  -2  -4  679.03   21.00
   2   3  -4  638.54   21.80
  -3  -2   4  660.23   20.90
  -3   2  -4  667.33   21.10
  -3   2  -4  663.73   21.00
  -2   3   4  649.24   21.50
  -2  -3   4  673.13   20.90
  -2   3  -4  638.54   21.10
  -3   2   4  658.33   21.00
   3   2  -4  658.33   21.40
  -3  -3   4    4.40    2.10
   3   3  -4    4.40    4.10
  -3   3  -4    3.80    2.50
   3  -3  -4    4.10    2.30
  -3   3  -4    2.60    2.60
  -3   3   4    4.10    2.30
   4   0  -4    7.90    2.40
  -4   0   4    8.80    2.50
   0   4   4    8.30    2.70
  -4   0   4    7.60    2.40
   4   0  -4    7.50    2.10
  -4   0  -4    4.20    2.20
   0   4  -4    5.20    3.10
  -4   0  -4   -1.80    2.30
   1   4  -4  456.75   16.10
  -4   1  -4  465.45   15.10
  -4  -1   4  459.15   15.00
  -1   4   4  469.95   15.50
  -4   1  -4  474.35   15.10
   4  -1  -4  453.85   15.10
   4  -1  -4  455.95   15.00
  -1   4  -4  457.95   15.50
  -4   1   4  462.45   15.10
   1   4   4  455.85   15.10
   4   1  -4  454.95   15.30
   4  -2  -4    6.30    2.40
  -4   2  -4    1.60    2.60
   2   4  -4    1.00    2.80
   2   4  -4    4.90    4.70
  -4  -2   4    7.20    2.40
  -4   2  -4   -3.30    2.50
  -2   4  -4    9.80    2.90
   4   2  -4    4.60    3.30
  -4   2   4    4.70    2.60
   2   4   4    5.00    2.70
  -4   3  -4  212.78    8.90
  -4   3  -4  227.98    8.70
  -3   4   4  230.48    8.50
   4  -3  -4  237.38    8.70
   3   4  -4  215.68   10.90
   3   4  -4  224.08    8.90
  -4  -3   4  221.18    8.50
  -4   3   4  246.78    8.70
  -3  -4   4  230.38    8.50
   4   3  -4  212.48   10.20
  -3   4  -4  217.58    9.00
  -4   4  -4    7.40    3.60
  -4   4   4    2.10    3.50
  -4   4  -4    3.30    4.00
   4  -4  -4    6.40    3.40
   4   4  -4    2.30    6.30
  -4  -4   4    5.60    3.60
   4   4  -4    2.60    4.20
  -5   0  -4  235.88    8.70
   5   0  -4  224.68    8.80
   0   5  -4  214.28    9.60
   0   5   4  231.88    9.20
  -5   0  -4  235.78    8.70
  -5   0   4  216.28    9.00
   5   0  -4  227.88    8.60
  -5   1  -4    3.60    3.20
  -5   1  -4   -0.30    2.90
  -5  -1   4    7.90    3.40
   5  -1  -4    9.70    2.80
  -1   5   4    7.90    4.50
   1   5  -4    8.90    4.30
   5  -1  -4    4.80    3.20
  -5   1   4    1.60    3.00
   1   5   4   10.90    3.40
  -1   5  -4    4.70    3.70
   5   1  -4    5.80    3.40
  -5   2  -4  162.68    7.40
   2   5  -4  171.38    9.90
  -5   2  -4  170.88    7.90
   5  -2  -4  173.58    7.40
  -5  -2   4  168.78    7.60
   5   2  -4  165.28    8.40
  -2   5  -4  151.88    8.10
  -5   2   4  177.48    7.60
   3   5  -4    4.10    4.30
  -5   3  -4    4.40    3.70
   5  -3  -4    2.30    3.50
  -5  -3   4    3.80    4.00
  -5   3  -4    5.50    4.10
   3   5  -4    3.50    7.10
   5   3  -4    5.90    5.30
  -3   5  -4    9.30    4.40
  -5   3   4    6.10    3.90
   4   5  -4   67.89    6.20
  -5   4  -4   68.99    6.00
  -5   4  -4   66.69    5.40
  -5  -4   4   68.89    5.60
   4   5  -4   44.70   12.10
   5   4  -4   70.99    6.20
  -4   5  -4   66.99    6.10
   5   4  -4   48.20    8.20
  -5   4   4   59.69    5.50
  -4  -5   4   75.49    5.60
  -6   0  -4    2.10    3.90
   6   0  -4    7.30    4.20
   0   6  -4    4.00    4.80
   0   6   4   10.70    5.30
   6   0  -4    6.90    3.90
  -6   0  -4    1.00    3.80
  -6   0   4    8.60    4.40
   6  -1  -4   85.39    5.80
  -6   1  -4   95.79    5.60
  -6   1  -4   90.59    5.50
   6  -1  -4   94.19    6.50
   1   6  -4   79.99    6.50
   1   6   4   86.39    6.20
  -6   1   4   85.69    5.80
  -1   6  -4   78.19    5.90
   6   1  -4   90.79    6.00
  -6   2  -4    1.90    4.30
  -6   2  -4    6.40    4.50
   6  -2  -4    9.20    4.10
   6  -2  -4   -2.00    4.70
  -2   6  -4    7.80    4.90
   2   6   4   11.50    5.10
   6   2  -4    7.80    5.30
  -6   2   4    1.00    4.50
   6  -3  -4   37.60    5.10
  -6   3  -4   45.60    5.30
  -6   3  -4   53.99    6.00
   6   3  -4   52.89    7.50
  -6   3   4   49.50    5.60
  -3   6  -4   35.50    6.00
  -7   0   4   42.40    6.20
  -7   0  -4   31.70    5.50
   0   0  -5 2589.44   82.09
   0   0  -5 2684.83   82.19
  -1   0  -5  119.89    4.80
   1   0  -5  134.99    5.20
   0  -1  -5  130.99    5.30
   1   0  -5  126.89    5.00
   0   1  -5  120.89    5.50
   0   1  -5  124.49    5.30
  -1   0  -5  118.49    5.30
  -1   0   5  125.79    4.70
   1  -1  -5 1976.10   60.59
  -1   1  -5 1901.01   60.59
   1   1  -5 1988.70   60.69
  -1   1   5 1931.41   60.49
   1  -1  -5 1917.81   60.39
   1   1  -5 1963.00   60.69
  -1   1  -5 1902.51   60.49
   0   2  -5 1545.35   47.80
   2   0  -5 1492.15   47.40
   2   0  -5 1500.15   47.40
   0   2   5 1501.55   47.40
  -2   0  -5 1504.05   47.40
  -2   0  -5 1466.75   47.20
  -2   0   5 1597.44   47.40
  -2   1  -5   94.89    4.30
   2  -1  -5  102.89    4.10
   1   2  -5   94.99    5.40
  -2   1  -5   95.69    4.30
   2  -1  -5   95.19    4.30
  -1   2   5   91.39    5.00
   2   1  -5   97.19    4.70
  -2   1   5   99.49    4.10
   2   1  -5   91.19    4.80
  -2  -1  -5  101.39    4.30
  -1   2  -5   87.39    4.40
  -1   2  -5   81.99    4.90
  -2   1   5   97.79    4.40
  -2   2   5  919.91   29.30
   2  -2  -5  924.31   29.00
  -2  -2   5  918.31   29.00
   2  -2  -5  937.61   29.20
  -2   2  -5  916.71   29.20
  -2   2  -5  910.21   29.20
   2   2  -5  940.61   29.70
  -3   0  -5   69.79    3.80
   0   3   5   73.49    4.40
   3   0  -5   69.89    4.00
   3   0  -5   75.49    4.10
  -3   0  -5   69.99    4.10
  -3   0   5   65.69    3.80
   0   3  -5   79.79    4.80
  -1   3   5  757.72   24.30
  -3  -1   5  742.43   24.00
  -3   1  -5  782.82   24.10
   3  -1  -5  762.92   24.10
   3  -1  -5  763.12   24.10
   1   3  -5  726.23   24.80
  -3   1  -5  743.73   24.10
  -3   1   5  779.42   24.10
   3   1  -5  750.22   24.30
  -1   3  -5  757.02   24.40
  -3   1   5  766.52   24.20
   3  -2  -5   42.30    3.20
   3  -2  -5   49.50    3.20
   2   3  -5   55.79    4.60
  -2   3   5   45.60    4.40
  -3   2  -5   47.00    3.10
  -3  -2   5   49.00    3.40
  -3   2  -5   51.79    3.40
  -3   2   5   47.80    3.70
   3   2  -5   48.60    4.00
  -3   2   5   46.70    3.00
  -2   3  -5   50.69    3.50
  -3   3   5  355.46   11.90
  -3   3   5  345.77   12.70
   3  -3  -5  357.36   12.10
  -3  -3   5  369.06   11.90
   3   3  -5  336.27   13.30
  -3   3  -5  350.76   12.30
  -4   0   5  419.06   14.40
   4   0  -5  415.56   14.30
  -4   0  -5  434.56   14.30
   0   4  -5  423.76   15.10
   4   0  -5  436.06   14.20
   0   4   5  425.16   14.40
  -4   0  -5  442.76   14.20
  -4   0   5  427.76   14.20
  -4  -1   5   43.10    3.10
  -4   1  -5   39.60    3.20
  -4   1  -5   36.20    3.20
   4  -1  -5   35.40    3.10
  -1   4   5   37.30    4.30
   4  -1  -5   40.10    3.30
   1   4  -5   40.00    5.40
  -1   4  -5   36.40    4.00
  -4   1   5   47.70    4.00
   4   1  -5   34.70    3.50
   1   4   5   41.30    3.50
  -4   1   5   37.20    3.30
   2   4  -5  272.87   12.40
   4  -2  -5  301.77   10.70
  -2   4   5  299.97   11.80
  -4  -2   5  308.87   10.50
  -4   2  -5  313.07   10.90
  -4   2  -5  295.37   10.80
   4  -2  -5  305.97   10.70
   4   2  -5  293.77   11.40
  -2   4  -5  293.47   11.10
  -4   2   5  310.67   10.70
  -4   3  -5   18.60    3.80
  -4  -3   5   18.60    3.30
   3   4  -5   20.60    5.50
   4  -3  -5   17.40    3.50
  -3   4   5   23.70    3.40
  -4   3  -5   17.90    3.60
  -3   4   5   21.30    5.10
  -4   3   5   19.30    3.40
   4   3  -5   17.40    5.10
  -3  -4   5   16.60    3.50
  -3   4  -5   25.50    4.10
  -4   4   5  119.09    6.80
   4   4  -5  101.19    7.90
  -4  -4   5  110.29    6.70
  -4   4  -5  101.19    7.70
  -5   0  -5   16.90    3.30
  -5   0  -5   19.10    3.60
  -5   0   5   21.20    3.80
   5   0  -5   19.60    3.70
   0   5  -5   15.90    4.80
   0   5   5   20.20    4.20
   5   0  -5   16.90    3.40
   1   5  -5  159.08    9.90
  -5   1  -5  179.38    8.10
  -5  -1   5  186.98    7.90
  -5   1  -5  190.28    8.20
   5  -1  -5  184.18    8.10
  -1   5   5  187.48    9.20
   5  -1  -5  194.98    7.90
  -1   5  -5  178.48    8.90
   1   5   5  189.08    8.20
   5   1  -5  184.78    8.40
  -5   1   5  185.48    8.20
  -5  -2   5   15.60    3.90
  -5   2  -5   18.00    3.80
  -5   2  -5   13.90    4.00
   2   5  -5   17.20    6.60
   5  -2  -5   13.20    3.70
   5  -2  -5   13.00    4.10
  -2   5  -5   14.10    4.50
   2   5   5   17.90    4.10
   5   2  -5   15.60    4.60
  -5   2   5   11.70    3.90
   5  -3  -5  102.49    7.00
   3   5  -5   91.69    8.30
   3   5  -5  101.99    6.60
  -5   3  -5   95.89    6.90
  -5   3  -5  103.59    6.30
  -5   3   5  102.39    7.10
   5   3  -5   79.89    7.10
  -3   5  -5  105.39    6.60
  -5   4  -5    3.00    5.70
  -5   4  -5    6.90    4.90
   4   5  -5    9.70    8.30
  -5  -4   5    1.80    4.70
   5  -4  -5    7.30    4.80
  -5   4   5    9.10    4.90
  -4   5  -5   -0.40    5.70
   5   4  -5    2.40    7.70
   5   4  -5    7.30    5.80
  -4  -5   5   10.10    5.00
  -6   0  -5   86.39    5.60
  -6   0   5   80.39    5.90
   6   0  -5   84.99    5.70
   0   6   5   71.79    6.70
   6   0  -5   82.99    5.90
   0   6  -5   73.39    6.60
   6  -1  -5   11.30    4.40
  -6   1  -5    4.70    4.60
  -6   1  -5    6.90    4.30
   1   6  -5   -2.20    6.30
   6  -1  -5    3.80    4.80
   6   1  -5    5.10    5.00
  -1   6  -5    4.80    5.30
  -6   1   5    8.80    4.80
   1   6   5   15.20    5.50
  -6   2  -5   67.59    5.90
   2   6  -5   58.89    7.60
   6  -2  -5   53.39    5.40
   6  -2  -5   61.09    6.00
  -6   2  -5   60.99    5.60
  -6  -2   5   73.59    5.90
   6   2  -5   61.89    6.40
   2   6   5   58.19    6.00
  -6   2   5   62.69    5.90
  -2   6  -5   58.19    6.40
  -6   3  -5    7.90    5.90
  -6  -3   5    1.20    5.50
   6  -3  -5    5.00    5.20
  -6   3  -5    4.70    5.20
   3   6  -5    5.60    6.20
   6  -3  -5   -1.90    5.80
  -6   3   5    8.10    5.70
  -3   6  -5   -4.00    6.10
   6   3  -5   10.70    7.30
   0   0  -6  572.34   18.30
   0   0  -6  567.94   18.50
   0   1  -6  374.96   13.00
  -1   0  -6  397.86   13.10
   1   0  -6  398.56   12.80
   1   0  -6  385.66   13.10
  -1   0  -6  381.66   12.70
   0  -1  -6  377.26   12.90
   0   1  -6  379.96   12.90
  -1   1  -6  476.05   15.40
  -1   1  -6  460.55   15.40
   1   1  -6  462.15   15.50
   1   1  -6  456.55   15.50
  -1   1   6  465.25   15.20
  -1  -1  -6  489.65   15.60
   1  -1  -6  473.05   15.40
   1  -1  -6  452.25   15.00
   2   0  -6  379.96   12.70
   0   2  -6  374.56   13.10
  -2   0   6  384.56   12.50
   2   0  -6  380.86   12.80
  -2   0  -6  387.76   12.50
  -2   0  -6  373.56   12.70
  -1   2   6  288.07   10.20
   2  -1  -6  286.67    9.90
  -2  -1   6  286.27    9.50
  -2   1  -6  282.97    9.90
   1   2  -6  272.47   10.40
  -2   1  -6  295.97    9.80
   2  -1  -6  280.07    9.70
   2   1  -6  278.27   10.10
   2   1  -6  286.77   10.20
   1  -2  -6  272.87   10.20
  -2   1   6  285.07    9.70
  -1   2  -6  284.17   10.00
  -1   2  -6  291.37   10.40
   2   2  -6  244.08    9.80
  -2   2  -6  244.68    9.10
   2  -2  -6  249.88    8.60
  -2   2  -6  246.18    9.00
   2  -2  -6  264.17    9.10
  -2   2   6  245.28    8.70
  -2   2   6  250.37    9.20
   0   3  -6  193.38    9.00
   0   3   6  200.98    8.00
   3   0  -6  202.38    7.80
  -3   0   6  206.28    7.60
  -3   0  -6  202.08    7.70
   3   0  -6  209.18    7.80
  -3  -1   6  205.08    7.40
   3  -1  -6  205.38    7.80
  -1   3   6  196.88    8.40
   1   3  -6  191.78    8.80
  -3   1  -6  204.68    7.80
  -3   1  -6  197.98    7.80
   3  -1  -6  210.58    7.60
  -3   1   6  206.88    7.70
  -3   1   6  219.88    7.70
   3   1  -6  194.38    8.10
  -1   3  -6  208.08    8.70
   3  -2  -6  141.39    6.00
  -3   2  -6  138.69    6.50
  -3   2  -6  141.59    6.30
   3  -2  -6  142.09    6.30
   2   3  -6  131.99    7.80
  -2   3   6  138.49    7.10
  -3   2   6  141.09    6.10
  -2   3  -6  135.69    6.80
   3   2  -6  133.99    7.10
  -3   2   6  130.59    6.50
  -2   3  -6  138.89    6.40
  -3  -3   6  106.49    5.30
  -3   3   6   93.29    6.50
  -3   3  -6  100.29    6.30
   3   3  -6   95.39    6.50
  -3   3  -6  100.69    6.00
   3  -3  -6   97.29    6.00
  -3   3   6  112.49    5.60
   3  -3  -6   97.99    5.50
   0   4  -6  111.19    8.30
  -4   0  -6  120.29    6.20
   4   0  -6  125.79    6.30
   0   4   6  127.59    6.80
   4   0  -6  123.99    6.20
  -4   0  -6  123.09    5.80
  -4   0   6  121.39    6.00
  -4   1  -6  105.69    5.80
   1   4  -6   95.09    6.60
   4  -1  -6   98.19    5.70
  -4   1  -6   91.79    5.70
  -1   4   6   96.49    6.70
   4  -1  -6  104.49    5.70
  -4  -1   6  100.59    5.30
   4   1  -6  104.59    6.40
  -4   1   6  104.69    6.20
  -1   4  -6   96.69    7.30
  -4   1   6   96.19    5.80
   2   4  -6   89.09    6.40
   4  -2  -6   89.19    5.70
   4  -2  -6   92.89    5.90
  -4   2  -6   87.89    6.20
  -4   2  -6   87.69    5.90
  -4  -2   6   86.79    5.20
   4   2  -6   85.19    5.90
  -2   4  -6   93.49    5.70
  -4   2   6   93.09    5.80
  -4  -3   6   57.89    4.10
  -3   4   6   50.59    5.70
  -4   3  -6   59.89    4.70
   3   4  -6   48.50    6.20
   4  -3  -6   55.99    4.60
   4  -3  -6   45.20    4.50
  -4   3  -6   57.09    5.00
  -3   4  -6   58.89    5.40
  -4   3   6   57.49    4.50
   4   3  -6   55.09    6.20
  -4   4  -6   34.70    5.60
  -4  -4   6   37.80    4.50
   4   4  -6   27.50    6.70
   4  -4  -6   27.40    4.70
   0   5  -6   51.69    6.30
   5   0  -6   50.39    4.40
   0   5   6   45.60    5.40
  -5   0  -6   55.69    4.70
  -5   0   6   62.39    4.80
   5   0  -6   57.89    4.90
  -1   5   6   48.20    5.90
   5  -1  -6   54.49    4.80
   5  -1  -6   51.89    4.50
  -5   1  -6   61.79    4.80
  -5  -1   6   52.29    4.50
  -5   1  -6   60.19    4.70
   1   5  -6   57.69    7.00
   5   1  -6   53.69    5.30
  -5   1   6   66.49    5.60
  -5   1   6   56.19    4.80
  -1   5  -6   51.99    5.90
   1   5   6   48.40    5.10
  -5   2  -6   40.10    4.90
  -5   2  -6   36.40    4.70
   5  -2  -6   35.40    4.60
   5  -2  -6   46.00    4.80
  -2   5   6   35.50    6.50
   2   5  -6   32.40    6.90
  -5  -2   6   43.00    4.50
   5   2  -6   42.30    5.60
   2   5   6   34.40    4.90
  -5   2   6   42.90    4.80
  -2   5  -6   37.80    5.50
  -3   5   6   29.80    6.80
   3   5  -6   27.30    7.10
  -5   3  -6   29.90    4.90
   5  -3  -6   27.70    5.20
  -5   3  -6   34.80    5.40
  -5  -3   6   24.40    4.60
   5  -3  -6   28.90    5.00
  -3   5  -6   22.10    5.80
   5   3  -6   28.20    6.80
  -5   3   6   27.00    5.10
  -5   4  -6   19.50    5.40
   4   5  -6   19.20    8.30
   4   5  -6   10.70    6.40
   5  -4  -6   11.60    6.50
  -5  -4   6   15.50    5.20
  -5   4  -6   16.80    6.50
  -4  -5   6   23.70    5.30
   5   4  -6   11.00    8.00
  -4   5  -6   11.20    6.50
  -5   4   6   20.00    5.80
   6   0  -6   31.80    5.60
   6   0  -6   23.00    5.10
  -6   0   6   23.20    5.50
   0   6   6   23.30    6.60
  -6   0  -6   28.30    5.00
   0   6  -6   18.00    6.90
   6  -1  -6   19.40    5.00
   6  -1  -6   27.60    5.60
  -6   1  -6   17.70    5.10
  -6   1  -6   21.50    5.10
  -1   6   6   24.10    7.20
  -6  -1   6   22.30    5.30
   1   6  -6   14.50    7.90
   1   6   6   28.40    6.20
   6   1  -6   23.20    6.00
  -1   6  -6   17.40    6.40
  -6   1   6   18.60    5.40
   6  -2  -6   25.40    5.80
  -6   2  -6   14.10    5.30
   6  -2  -6   18.00    5.50
  -6  -2   6   21.50    5.30
  -6   2  -6   26.30    5.80
   2   6  -6   12.10    8.40
  -2   6  -6   16.30    6.50
   2   6   6   22.90    6.40
  -6   2   6   20.90    5.80
   6   2  -6   15.60    6.50
   0   0  -7  241.28    9.10
   0   0  -7  256.67    8.90
   1   0  -7  545.55   17.80
   0  -1  -7  531.75   17.70
   0   1  -7  527.35   17.80
   0   1  -7  523.35   17.70
  -1   0  -7  548.55   17.60
  -1   0  -7  543.45   18.00
   1   0  -7  562.04   17.70
  -1  -1  -7  182.08    8.10
  -1   1  -7  194.78    8.10
  -1   1  -7  202.88    8.50
   1   1  -7  206.18    8.00
   1   1  -7  201.28    8.00
   1  -1  -7  215.38    8.20
   0   2  -7  155.08    7.40
   2   0  -7  165.78    6.90
   2   0  -7  168.48    7.10
  -2   0  -7  168.48    7.00
  -2   1  -7  361.46   12.90
   1   2  -7  354.46   13.10
  -2   1  -7  380.96   12.80
   2  -1  -7  365.76   12.50
   2  -1  -7  366.76   12.80
   2   1  -7  372.66   13.10
   2   1  -7  383.36   13.20
  -1   2  -7  374.56   13.10
  -1   2  -7  391.36   13.50
  -2   1   7  373.86   12.50
  -2   2  -7  111.69    6.40
   2  -2  -7  115.89    6.20
  -2   2   7  122.59    6.10
  -2   2  -7  116.49    6.20
   2   2  -7  120.79    6.80
   3   0  -7  246.68    9.70
   3   0  -7  260.57    9.60
   0   3   7  267.97    9.90
   0   3  -7  245.28   10.40
  -3   0   7  252.67    9.10
  -3   0  -7  249.97    9.60
  -3   0  -7  261.77    9.20
  -3   1  -7   95.59    5.80
   1   3  -7   87.09    6.60
   3  -1  -7   96.99    5.80
  -3  -1   7   98.39    5.10
   3  -1  -7  107.89    5.60
  -1   3   7   93.29    6.60
  -3   1  -7  103.69    5.80
   3   1  -7   97.39    6.30
   3   1  -7  103.89    6.40
  -3   1   7   93.39    5.30
  -1   3  -7  109.19    6.40
   3  -2  -7  174.88    7.20
  -2   3   7  181.18    8.10
  -3   2  -7  173.68    7.90
  -3  -2   7  174.48    6.90
   2   3  -7  179.78    9.10
  -3   2  -7  168.18    7.80
   3  -2  -7  171.78    7.90
  -2   3  -7  177.28    8.40
  -3   2   7  164.98    7.60
   3   2  -7  169.98    8.60
  -3  -3   7   47.60    3.90
  -3   3   7   48.30    4.30
   3  -3  -7   47.00    4.60
   3  -3  -7   53.39    4.50
   3   3  -7   41.30    5.50
  -3   3   7   42.10    4.70
  -3   3  -7   58.59    5.10
  -3   3  -7   49.90    4.50
   0   4  -7   53.79    6.20
   4   0  -7   54.89    4.60
   0   4   7   58.49    5.20
   4   0  -7   62.39    4.80
  -4   0  -7   60.99    4.50
  -4   0   7   61.89    4.30
  -1   4   7  122.89    8.00
   4  -1  -7  130.79    6.80
  -4   1  -7  135.09    7.10
  -4   1  -7  129.19    6.90
  -4  -1   7  123.69    6.40
   1   4  -7  114.29    7.30
   4  -1  -7  133.79    7.10
  -4   1   7  127.39    6.70
   4   1  -7  128.69    7.60
  -1   4  -7  127.89    9.20
   4   1  -7  124.09    7.40
  -4   2  -7   42.10    4.50
  -4   2  -7   44.50    4.50
   4  -2  -7   39.80    4.40
   4  -2  -7   41.70    4.30
  -4  -2   7   40.90    3.80
   2   4  -7   42.40    5.80
  -2   4   7   31.80    5.50
  -4   2   7   42.60    4.30
  -2   4  -7   45.60    5.50
  -4   2   7   34.80    4.50
   4   2  -7   42.40    5.40
  -4  -3   7   65.69    4.60
  -4   3  -7   68.99    5.40
  -4   3  -7   71.59    5.70
   4  -3  -7   63.99    5.00
   4  -3  -7   54.79    5.30
   3   4  -7   54.29    6.60
  -3   4   7   56.69    6.00
  -4   3   7   60.59    5.20
  -3   4  -7   69.69    6.30
   4   3  -7   66.59    6.80
  -4   4  -7   10.70    6.00
   4  -4  -7   12.00    5.30
   4   4  -7    8.60    7.00
  -5   0   7   73.69    5.60
   5   0  -7   56.29    5.20
   5   0  -7   70.59    5.80
   0   5  -7   65.69    7.80
  -5   0  -7   72.59    5.40
  -5   1  -7   22.80    4.70
  -5   1  -7   27.40    4.80
  -5  -1   7   28.30    4.40
   5  -1  -7   25.50    4.90
   5  -1  -7   28.30    4.60
   1   5  -7   19.80    6.50
  -1   5   7   23.00    6.10
   5   1  -7   25.40    5.40
  -5   1   7   16.30    5.10
  -1   5  -7   21.80    6.40
   5  -2  -7   48.20    5.30
  -5   2  -7   48.70    5.50
  -2   5   7   46.70    7.10
   5  -2  -7   45.40    5.30
   2   5  -7   45.60    7.00
  -5   2  -7   53.39    5.50
  -5  -2   7   46.30    4.80
  -2   5  -7   40.40    6.60
   5   2  -7   45.50    6.30
  -5   2   7   44.10    5.30
   5  -3  -7   11.30    5.40
  -3   5   7   19.60    6.90
   3   5  -7    9.20    6.90
  -5   3  -7    9.10    5.50
   5  -3  -7   17.40    5.40
  -5   3  -7   10.00    5.90
   5   3  -7   21.90    7.40
  -5   3   7   18.10    5.60
  -3   5  -7   11.10    6.70
   0   6   7   14.60    7.20
   6   0  -7   15.10    6.30
   0   6  -7   14.80    8.00
   6   0  -7    6.40    5.60
  -6   0  -7   12.70    5.60
   1   6  -7   15.40    9.30
  -1   6   7   20.20    7.80
   6  -1  -7   32.40    6.30
   6  -1  -7   23.30    5.70
  -6   1  -7   25.10    5.80
  -6  -1   7   25.30    5.60
   6   1  -7   29.30    6.50
  -1   6  -7   21.50    7.80
  -6   1   7   25.50    6.90
   1   6   7   29.30    7.00
   0   0  -8  393.16   13.80
   0   0  -8  423.26   13.80
  -1   0  -8   -7.70    3.20
   0   1  -8  -12.40    3.20
   1   0  -8   -4.90    3.00
   0   1  -8   -8.90    3.10
   1   0  -8   -4.60    3.10
   0  -1  -8   -9.10    2.90
  -1   0  -8   -6.60    3.00
  -1  -1  -8  338.67   12.30
   1  -1  -8  326.47   12.40
  -1   1  -8  353.76   12.30
   1  -1  -8  355.76   12.10
   1   1  -8  341.97   12.30
  -1   1  -8  360.26   12.70
   1   1  -8  352.86   12.40
   0   2  -8  293.67   11.20
  -2   0  -8  292.37   10.90
   2   0  -8  283.07   10.60
   0   2  -8  283.77   10.80
   0  -2  -8  289.27   10.60
   2   0  -8  263.17   10.90
   2  -1  -8   -4.50    3.50
  -2   1  -8   -3.40    3.50
   1   2  -8   -1.90    3.70
   2  -1  -8   -1.00    3.20
  -2   1  -8   -5.20    3.70
  -2  -1  -8   -6.90    3.60
   2   1  -8   -4.20    3.70
  -1   2  -8   -7.00    3.90
  -1   2  -8   -5.00    4.20
   2   1  -8  -10.80    3.80
  -2   2   8  205.18    8.40
  -2   2  -8  207.28    9.20
   2  -2  -8  197.68    9.00
   2   2  -8  205.68    9.30
  -2   2  -8  205.98    9.40
   3   0  -8   -0.40    3.80
  -3   0  -8   -2.90    3.60
   0   3  -8   -6.40    4.20
   3   0  -8    2.30    3.80
   0   3   8   -5.70    4.40
   3  -1  -8  172.18    7.70
   1   3  -8  161.88    8.50
  -3   1  -8  166.48    8.20
  -3   1  -8  175.08    8.00
  -1   3   8  169.48    8.40
   3  -1  -8  163.58    8.20
  -3  -1   8  178.78    7.20
  -1   3  -8  178.98    9.40
  -3   1   8  159.88    7.20
   3   1  -8  168.58    8.50
   3   1  -8  165.28    8.70
  -3  -1  -8  164.58    8.00
  -3   2  -8   -0.20    4.20
  -3  -2   8   -1.50    3.30
   3  -2  -8    0.50    3.80
   3  -2  -8    0.10    4.20
  -2   3   8   -2.70    4.20
  -3   2  -8   -3.30    4.10
   2   3  -8   -1.10    4.80
  -2   3  -8    0.40    4.30
   3   2  -8   -2.20    4.80
  -2   3  -8   -5.80    4.90
  -3   2   8   -0.80    3.70
  -3   3  -8   85.79    5.90
   3  -3  -8   69.29    5.80
  -3   3   8   81.69    5.70
   3   3  -8   86.49    6.70
  -3   3  -8   88.99    6.40
  -4   0   8  100.49    6.20
   0   4  -8  107.29    7.40
  -4   0  -8   99.29    7.20
   4   0  -8  109.49    7.60
   4   0  -8  106.79    7.30
  -4   1  -8    3.60    4.30
   4  -1  -8    2.00    4.30
  -1   4   8   -7.80    5.20
  -4   1  -8   -8.20    4.20
  -4  -1   8   -6.80    3.70
   1   4  -8    3.90    5.40
   4  -1  -8   -4.60    4.30
  -4   1   8   -1.60    3.70
   4   1  -8    5.50    5.00
  -4  -1  -8   -2.60    4.10
  -1   4  -8  -10.50    6.30
  -4  -2   8   82.99    5.10
   4  -2  -8   68.39    5.80
  -2   4   8   71.79    6.30
  -4   2  -8   80.49    5.90
  -4   2  -8   83.49    5.90
   4  -2  -8   75.99    5.60
   2   4  -8   68.89    6.60
  -4   2   8   70.29    5.50
   4   2  -8   69.69    6.80
  -2   4  -8   79.19    7.40
  -4   3  -8   -4.40    5.50
  -3   4   8    2.40    5.40
   3   4  -8   -2.60    6.10
   4  -3  -8    3.30    5.30
  -4   3  -8    0.40    5.20
  -4   3   8    1.00    4.90
  -3   4  -8   -4.40    6.20
   4   3  -8   -2.10    6.40
  -4   4  -8   24.00    6.40
  -4   4  -8   23.00    7.20
   4   4  -8   33.20    7.60
   5   0  -8    3.10    5.10
   0   5  -8  -15.10    7.20
  -5   0   8   -8.60    4.70
   5   0  -8    3.90    5.30
   0   5   8    1.30    6.20
  -5  -1   8   50.39    5.30
   5  -1  -8   44.10    5.80
   5  -1  -8   48.10    6.00
  -5   1  -8   50.69    6.00
   1   5  -8   40.90    7.10
  -1   5   8   40.90    7.00
  -5   1   8   39.30    5.30
   5   1  -8   45.70    6.20
   5   1  -8   51.69    6.50
  -1   5  -8   40.80    8.40
   1   5   8   42.50    6.80
  -5   2  -8   -0.80    5.60
  -2   5   8    2.10    6.90
   5  -2  -8    0.40    5.40
   2   5  -8    1.20    6.90
  -5   2  -8   -0.90    5.70
   5  -2  -8    1.80    5.70
  -5  -2   8   -4.60    4.60
  -2   5  -8   -3.10    7.60
  -5   2   8   -1.20    5.10
   5   2  -8    5.50    6.80
   0   0  -9   16.60    3.50
   0   0  -9   10.40    3.40
   0   1  -9  195.88    8.40
   1   0  -9  193.58    8.40
  -1   0  -9  197.48    8.30
   1   0  -9  203.48    8.40
   0   1  -9  193.58    8.50
  -1   0  -9  194.38    8.60
   0  -1  -9  191.68    8.20
   1   1  -9    9.40    3.70
  -1   1  -9    7.40    3.90
   1  -1  -9   12.50    3.70
   1  -1  -9   11.60    3.80
  -1   1  -9    0.00    4.10
   1   1  -9   17.50    4.10
  -1  -1  -9    0.30    3.60
   2   0  -9   11.00    4.10
   2   0  -9   14.00    4.30
  -2   0  -9    5.50    4.30
   0   2  -9    1.00    4.40
   0   2  -9    5.00    4.10
   2  -1  -9  144.59    7.40
   1   2  -9  142.69    7.90
   2  -1  -9  122.59    8.00
  -2   1  -9  142.29    7.90
   1   2  -9  137.29    7.70
  -2   1  -9  125.49    8.50
  -1   2   9  148.69    7.20
   1  -2  -9  130.49    7.70
  -1   2  -9  144.79    8.70
   2   1  -9  131.69    7.90
  -1   2  -9  136.49    8.00
   2   1  -9  138.99    7.70
  -2  -1  -9  136.99    7.80
   2  -2  -9    2.70    4.80
  -2   2  -9    0.50    4.90
   2   2  -9    5.50    4.80
   2   2  -9   10.20    4.70
  -2   2  -9   -3.80    5.10
  -2   2   9    8.90    3.90
   3   0  -9   91.29    6.20
  -3   0  -9  106.49    6.30
   0   3  -9   96.79    6.40
   3   0  -9  101.89    7.30
  -3   0   9   95.79    5.80
   3  -1  -9    7.20    4.40
   3  -1  -9    8.70    4.60
   1   3  -9    5.50    4.90
  -3  -1   9   -0.40    3.30
  -3   1  -9    0.70    4.80
  -3   1  -9   -0.80    4.60
   3   1  -9   14.50    5.30
   3   1  -9    6.20    5.10
  -3   1   9    0.80    3.50
  -1   3  -9   -5.90    5.30
   3  -2  -9   63.99    6.10
  -3   2  -9   76.99    6.20
   3  -2  -9   58.99    5.80
   2   3  -9   70.39    6.30
  -2   3   9   67.59    5.50
  -3   2  -9   75.89    6.30
  -3   2   9   61.49    5.10
  -2   3  -9   63.99    6.60
   3   2  -9   71.39    6.50
  -2   3  -9   71.29    6.40
   3  -3  -9    9.70    5.50
  -3   3  -9   -2.80    5.60
   3   3  -9    4.30    6.10
  -3   3  -9   -6.10    6.10
  -3   3   9    1.10    4.90
   4   0  -9    1.70    5.10
   4   0  -9    6.90    5.30
  -4   0   9    2.40    3.70
  -4   0  -9   -0.60    4.90
   0   4  -9   -9.60    6.00
   4  -1  -9   49.99    5.90
   4  -1  -9   47.00    5.60
  -4  -1   9   50.59    4.70
  -1   4   9   38.30    6.20
   1   4  -9   47.80    6.40
  -4   1  -9   48.90    5.90
   4   1  -9   53.09    6.30
  -4   1   9   46.70    4.70
  -1   4  -9   62.49    7.50
  -4  -1  -9   49.20    5.60
   4   1  -9   50.09    6.30
   4  -2  -9   -0.50    5.70
  -4   2  -9   -8.50    5.70
  -4  -2   9   -3.60    4.30
   2   4  -9    9.80    6.10
  -2   4   9    6.40    5.80
  -4   2  -9    3.00    5.60
   4  -2  -9   12.10    5.30
  -2   4  -9   -2.00    7.40
   4   2  -9    2.00    6.40
   4  -3  -9   23.40    6.50
  -3   4   9   27.60    6.10
  -4   3  -9   24.70    6.50
  -4   3  -9   24.00    7.00
   3   4  -9   24.90    6.90
  -4   3   9   17.80    5.50
  -3   4  -9   19.30    6.70
  -3   4  -9   14.90    7.70
   4   3  -9   21.70    7.30
  -5   0  -9   24.40    6.20
   0   5   9   25.90    7.30
  -5   0   9   22.40    5.00
   5   0  -9   29.30    6.50
   5   0  -9   29.60    6.50
   0   5  -9   26.50    8.00
  -1   5   9    3.60    7.20
   5  -1  -9    9.30    6.30
   1   5  -9   -2.30    7.10
  -5   1  -9    3.40    6.30
   5  -1  -9    7.50    6.00
  -5  -1   9   -8.00    4.80
   5   1  -9   10.50    6.80
  -1   5  -9   -6.50    8.40
  -5   1   9  -11.00    5.00
   5   1  -9    6.70    6.80
   0   0 -10   84.59    5.50
   0   0 -10  100.59    6.50
   0   1 -10   33.90    4.60
   1   0 -10   44.50    4.70
   1   0 -10   35.70    4.40
   0   1 -10   40.90    4.80
  -1   0 -10   27.80    4.50
   0  -1 -10   33.60    4.30
   1  -1 -10   71.39    5.30
   1   1 -10   77.19    5.40
  -1   1 -10   72.09    5.60
  -1   1 -10   74.39    5.50
   1   1 -10   71.39    5.10
  -1  -1 -10   67.99    5.20
   0  -2 -10   60.39    5.10
   0   2 -10   66.29    5.70
   2   0 -10   64.49    5.50
  -2   0 -10   55.19    5.50
   2   0 -10   54.89    5.30
   0   2 -10   65.79    5.50
   1   2 -10   28.00    5.10
  -2   1 -10   21.60    5.40
   1   2 -10   30.80    5.00
   2  -1 -10   27.30    5.10
  -2   1 -10   29.40    5.00
   2  -1 -10   25.10    5.10
  -2  -1 -10   20.80    4.80
   1  -2 -10   28.70    4.90
  -1   2 -10   14.20    5.30
   2   1 -10   25.00    5.10
   2   1 -10   29.20    4.90
  -1   2 -10   21.80    5.30
  -2   2 -10   40.70    5.60
  -2   2 -10   48.40    6.90
  -2   2  10   43.40    4.90
   2   2 -10   50.49    5.90
   2  -2 -10   36.80    5.80
   0   3 -10   14.90    5.40
   3   0 -10   27.50    5.70
   3   0 -10   21.80    5.70
  -3   0 -10   16.40    5.80
   1   3 -10   36.00    5.80
   3  -1 -10   33.90    5.60
  -3   1 -10   41.40    6.50
   3  -1 -10   27.10    6.00
  -3   1  10   33.30    4.40
   3   1 -10   36.30    6.20
   3   1 -10   44.40    6.10
  -3  -1 -10   32.40    6.00
  -1   3 -10   32.80    6.10
   2   3 -10   18.00    6.00
   3  -2 -10    9.90    6.10
  -3   2 -10   10.90    5.90
  -2   3  10   13.60    5.20
  -3   2 -10    6.40    6.40
  -2   3 -10    7.70    6.90
   3   2 -10   15.50    6.20
  -3   2  10   16.00    4.70
  -2   3 -10    6.10    6.00
  -3   3 -10   15.20    7.20
   3   3 -10   15.60    6.90
   3  -3 -10   17.70    6.80
  -3   3 -10   14.00    6.80
  -3   3  10   19.80    5.40
   4   0 -10   17.00    6.50
  -4   0 -10   13.90    6.20
   4   0 -10   28.10    6.40
   0   4 -10   15.30    6.80
  -4   0  10   13.60    4.40
   4  -1 -10   15.50    6.10
   4  -1 -10   16.40    6.30
  -1   4  10   11.10    6.50
   1   4 -10    8.50    6.40
  -4   1 -10    6.70    6.40
   4   1 -10   22.20    7.10
   4   1 -10   12.00    6.80
  -4   1  10    9.60    4.70
  -1   4 -10    3.80    7.10
  -4   2 -10   11.10    7.40
  -4   2 -10   14.00    6.90
   4  -2 -10   30.10    6.90
  -2   4  10   15.80    6.20
   2   4 -10   26.80    6.90
  -2   4 -10   19.20    7.70
   4   2 -10   15.60    7.40
  -4   2  10   11.90    5.20
   0   0 -11   49.90    5.00
   0   1 -11   -0.90    4.60
  -1   0 -11   -4.20    4.50
   1   0 -11   10.80    4.90
   1   0 -11    9.30    4.30
   0   1 -11    1.00    4.80
   0  -1 -11    3.80    4.50
   1   1 -11   57.99    5.40
  -1   1 -11   53.49    5.70
   1  -1 -11   48.20    5.20
  -1  -1 -11   35.40    5.20
  -1   1 -11   44.00    5.50
   1   1 -11   51.09    5.20
   0   2 -11   42.80    5.50
   0  -2 -11   39.10    5.40
   2   0 -11   41.20    5.80
   2   0 -11   39.40    5.60
   0   2 -11   40.80    5.60
  -2   0 -11   39.80    5.50
   1   2 -11   -1.50    5.20
  -2   1 -11   -5.10    5.50
   1   2 -11    9.40    5.30
   2  -1 -11    4.80    5.10
   1  -2 -11    8.80    5.10
   2   1 -11    7.30    5.60
  -1   2 -11   -3.50    5.40
  -1   2 -11   -1.90    5.50
   2   1 -11    7.20    5.20
  -2  -1 -11   -1.10    4.90
  -2   2 -11   26.40    6.00
   2   2 -11   35.00    5.70
  -2   2 -11   21.60    6.80
   2  -2 -11   35.10    6.00
   2   2 -11   31.00    6.00
   0   3 -11    0.70    6.00
   3   0 -11    5.90    6.00
  -3   0 -11    5.50    6.20
   3   0 -11   -6.10    6.30
   1   3 -11   25.10    6.30
  -3   1 -11   16.00    7.10
   3  -1 -11   30.80    6.50
  -3  -1 -11   21.50    6.30
   3   1 -11   29.70    6.30
  -1   3 -11   17.70    6.40
   3   1 -11   30.90    6.70
  -2   3  11    4.80    5.80
  -3   2 -11  -11.50    7.80
  -3   2 -11   -4.30    6.50
   2   3 -11    2.80    6.20
   3  -2 -11    2.00    6.80
   2  -3 -11    7.60    6.40
  -3   2  11    2.40    5.30
  -2   3 -11   -6.50    7.80
   3   2 -11    0.50    7.00
  -2   3 -11   -8.40    6.50
   0   0 -12   -4.50    4.90
   0   1 -12   26.40    5.40
  -1   0 -12   18.00    5.40
   0   1 -12   20.00    5.70
   0  -1 -12   25.70    5.30
   1   0 -12   26.00    5.20
   1  -1 -12    1.30    4.90
  -1  -1 -12   -3.10    5.10
   1   1 -12    8.70    5.50
   1   1 -12    1.90    5.20
  -1   1 -12   -5.20    5.40
   0   2 -12   -1.70    5.80
   2   0 -12   -2.10    5.50
  -2   0 -12   -4.50    5.60
   0  -2 -12   -1.70    5.50
   0   2 -12    1.50    5.80
   2  -1 -12   23.50    6.00
   1   2 -12   11.70    6.10
  -2   1 -12    8.20    6.20
   1   2 -12   27.10    6.20
  -2  -1 -12   11.10    5.70
   1  -2 -12   22.70    5.70
   2   1 -12   23.90    6.30
   2   1 -12   18.00    5.60
  -1   2 -12    9.10    6.20
  -1   2 -12   15.80    6.40
   0   0 -13   11.00    5.70
   0   0   0    0.00    0.00


_computing_structure_solution     'SHELXT 2018/2 (Sheldrick, 2018)'
_computing_structure_solution     'SHELXT 2018/2 (Sheldrick, 2018)'
;
_shelx_hkl_checksum              10201
_olex2_submission_special_instructions 'No special instructions were received'
loop_
_space_group_symop_operation_xyz
'x, y, z'
'-x+1/2, -y+1/2, z'
'-y+1/2, x, z'
'y, -x+1/2, z'
'-x, y+1/2, -z'
'x+1/2, -y, -z'
'y+1/2, x+1/2, -z'
'-y, -x, -z'
'-x, -y, -z'
'x-1/2, y-1/2, -z'
'y-1/2, -x, -z'
'-y, x-1/2, -z'
'x, -y-1/2, z'
'-x-1/2, y, z'
'-y-1/2, -x-1/2, z'
'y, x, z'
loop_
_atom_site_label
_atom_site_type_symbol
_atom_site_fract_x
_atom_site_fract_y
_atom_site_fract_z
_atom_site_U_iso_or_equiv
_atom_site_adp_type
_atom_site_occupancy
_atom_site_site_symmetry_order
_atom_site_calc_flag
_atom_site_refinement_flags_posn
_atom_site_refinement_flags_adp
_atom_site_refinement_flags_occupancy
_atom_site_disorder_assembly
_atom_site_disorder_group
I001 I 0.250000 0.250000 0.68959(11) 0.0485(3) Uani 1 8 d S T P . .
N002 N 0.250000 0.250000 0.2926(12) 0.044(3) Uani 1 8 d S T P . .
H00C H 0.412001 0.226137 0.325471 0.053 Uiso 0.125 1 calc GR . . A -1
H00B H 0.148333 0.121635 0.325471 0.053 Uiso 0.125 1 calc GR . . A -1
H00A H 0.189666 0.402229 0.325471 0.053 Uiso 0.125 1 calc GR . . A -1
C1 C 0.250000 0.250000 0.132(2) 0.087(7) Uani 1 8 d S T P . .
H1B H 0.113227 0.361762 0.097061 0.130 Uiso 0.125 1 calc GR . . B -1
H1A H 0.221597 0.075670 0.097061 0.130 Uiso 0.125 1 calc GR . . B -1
H1C H 0.415175 0.312568 0.097061 0.130 Uiso 0.125 1 calc GR . . B -1
loop_
_atom_site_aniso_label
_atom_site_aniso_U_11
_atom_site_aniso_U_22
_atom_site_aniso_U_33
_atom_site_aniso_U_23
_atom_site_aniso_U_13
_atom_site_aniso_U_12
I001 0.0420(4) 0.0420(4) 0.0615(6) 0.000 0.000 0.000
N002 0.043(4) 0.043(4) 0.047(6) 0.000 0.000 0.000
C1 0.107(12) 0.107(12) 0.048(8) 0.000 0.000 0.000
loop_
_atom_type_symbol
_atom_type_description
_atom_type_scat_dispersion_real
_atom_type_scat_dispersion_imag
_atom_type_scat_source
C C 0.0033 0.0016 'International Tables Vol C Tables 4.2.6.8 and 6.1.1.4'
H H 0.0000 0.0000 'International Tables Vol C Tables 4.2.6.8 and 6.1.1.4'
I I -0.4742 1.8119 'International Tables Vol C Tables 4.2.6.8 and 6.1.1.4'
N N 0.0061 0.0033 'International Tables Vol C Tables 4.2.6.8 and 6.1.1.4'
loop_
_geom_bond_atom_site_label_1
_geom_bond_atom_site_label_2
_geom_bond_distance
N002 C1 1.45(2)
