#------------------------------------------------------------------------------
#$Date: 2019-10-31 02:34:49 +0200 (Thu, 31 Oct 2019) $
#$Revision: 220570 $
#$URL: file:///home/coder/svn-repositories/cod/cif/8/00/03/8000309.cif $
#------------------------------------------------------------------------------
#
# This file is available in the Crystallography Open Database (COD),
# http://www.crystallography.net/
#
# All data on this site have been placed in the public domain by the
# contributors.
#
data_8000309
loop_
_publ_author_name
'Malaspina, Lorraine A.'
'Wieduwilt, Erna K.'
'Bergmann, Justin'
'Kleemiss, Florian'
'Meyer, Benjamin'
'Ruiz-L\'opez, Manuel F'
'Pal, Rumpa'
'Hupf, Emanuel'
'Beckmann, Jens'
'Piltz, Ross O.'
'Edwards, Alison J.'
'Grabowsky, Simon'
'Genoni, Alessandro'
_publ_section_title
;
 Fast and Accurate Quantum Crystallography: From Small to Large, from
 Light to Heavy.
;
_journal_name_full               'The journal of physical chemistry letters'
_journal_page_first              6973
_journal_page_last               6982
_journal_paper_doi               10.1021/acs.jpclett.9b02646
_journal_year                    2019
_chemical_absolute_configuration syn
_chemical_formula_moiety         'C3 H7 N O2'
_chemical_formula_sum            'C3 H7 N O2'
_chemical_formula_weight         89.0947
_chemical_name_common            L-Alanine
_space_group_IT_number           19
_space_group_name_Hall           'P 2ac 2ab'
_space_group_name_H-M_alt        'P 21 21 21'
_symmetry_cell_setting           orthorhombic
_symmetry_Int_Tables_number      19
_symmetry_space_group_name_Hall  'P 2ac 2ab'
_symmetry_space_group_name_H-M   'P 21 21 21'
_atom_sites_solution_hydrogens   difmap
_atom_sites_solution_primary     dual
_audit_creation_date             2019-01-16T11:14:44-00:00
_audit_creation_method           'WinGX routine CIF_UPDATE'
_cell_angle_alpha                90
_cell_angle_beta                 90
_cell_angle_gamma                90
_cell_formula_units_Z            4
_cell_length_a                   5.9587(2)
_cell_length_b                   12.2796(4)
_cell_length_c                   5.7876(2)
_cell_measurement_reflns_used    9931
_cell_measurement_temperature    100(2)
_cell_measurement_theta_max      53.86
_cell_measurement_theta_min      3.32
_cell_measurement_wavelength     0.71073
_cell_volume                     423.48(2)
_computing_cell_refinement       'SAINT V8.37A integration software'
_computing_data_collection       'Bruker APEX2 software'
_computing_data_reduction        'SORTAV (Blessing, 1995)'
_computing_publication_material  'WinGX publication routines (Farrugia, 2012)'
_computing_structure_refinement
'Tonto 18.12.17 github v. 2b3dd9c (Capelli, 2014)'
_computing_structure_solution    'SHELXT-2014 (Sheldrick, 2014)'
_diffrn_ambient_temperature      100(2)
_diffrn_detector                 'APEX-II CCD'
_diffrn_measured_fraction_theta_full 0.987
_diffrn_measured_fraction_theta_max 0.992
_diffrn_measurement_device       '\k-geometry diffractometer'
_diffrn_measurement_device_type  'Bruker APEX-II'
_diffrn_measurement_method       '\f or \w oscillation scans'
_diffrn_orient_matrix_UB_11      -0.11171
_diffrn_orient_matrix_UB_12      0.127264
_diffrn_orient_matrix_UB_13      0.006745
_diffrn_orient_matrix_UB_21      -0.047797
_diffrn_orient_matrix_UB_22      -0.02214
_diffrn_orient_matrix_UB_23      -0.077509
_diffrn_orient_matrix_UB_31      -0.122817
_diffrn_orient_matrix_UB_32      -0.107138
_diffrn_orient_matrix_UB_33      0.02403
_diffrn_radiation_monochromator  graphite
_diffrn_radiation_probe          x-ray
_diffrn_radiation_type           MoK\a
_diffrn_radiation_wavelength     0.71073
_diffrn_reflns_av_R_equivalents  0.0223
_diffrn_reflns_av_unetI/netI     0.0148
_diffrn_reflns_Laue_measured_fraction_full 0.987
_diffrn_reflns_Laue_measured_fraction_max 0.992
_diffrn_reflns_limit_h_max       11
_diffrn_reflns_limit_h_min       -13
_diffrn_reflns_limit_k_max       27
_diffrn_reflns_limit_k_min       -27
_diffrn_reflns_limit_l_max       12
_diffrn_reflns_limit_l_min       -12
_diffrn_reflns_number            31869
_diffrn_reflns_point_group_measured_fraction_full 0.992
_diffrn_reflns_point_group_measured_fraction_max 0.985
_diffrn_reflns_theta_full        25.242
_diffrn_reflns_theta_max         52.157
_diffrn_reflns_theta_min         3.318
_diffrn_source                   'sealed x-ray tube'
_diffrn_standards_number         0
_exptl_absorpt_coefficient_mu    0.117
_exptl_absorpt_correction_T_max  0.996
_exptl_absorpt_correction_T_min  0.943
_exptl_absorpt_correction_type   multi-scan
_exptl_absorpt_process_details
;
SADABS-2016/2 - Bruker AXS area detector scaling and absorption correction
;
_exptl_crystal_colour            colorless
_exptl_crystal_density_diffrn    1.397
_exptl_crystal_density_method    'not measured'
_exptl_crystal_description       block
_exptl_crystal_F_000             192
_exptl_crystal_size_max          0.462
_exptl_crystal_size_mid          0.264
_exptl_crystal_size_min          0.17
_refine_diff_density_max         0.2663
_refine_diff_density_min         -0.2508
_refine_diff_density_rms         0.0332
_refine_ls_abs_structure_details
;
 Flack x determined using 1888 quotients [(I+)-(I-)]/[(I+)+(I-)]
 (Parsons, Flack and Wagner, Acta Cryst. B69 (2013) 249-259).
;
_refine_ls_abs_structure_Flack   0.04(9)
_refine_ls_extinction_method     none
_refine_ls_goodness_of_fit_all   4.1247
_refine_ls_goodness_of_fit_gt    4.1247
_refine_ls_hydrogen_treatment    refxyz,refU
_refine_ls_matrix_type           full
_refine_ls_number_constraints    35
_refine_ls_number_parameters     83
_refine_ls_number_reflns         4611
_refine_ls_number_restraints     0
_refine_ls_R_factor_all          0.0269
_refine_ls_R_factor_gt           0.0269
_refine_ls_shift/su_max          0
_refine_ls_shift/su_mean         0
_refine_ls_structure_factor_coef F
_refine_ls_weighting_details     w=1/\s(F)
_refine_ls_weighting_scheme      sigma
_refine_ls_wR_factor_all         0.0295
_refine_ls_wR_factor_gt          0.0295
_refine_ls_wR_factor_ref         0.065
_reflns_Friedel_coverage         0.746
_reflns_Friedel_fraction_full    1
_reflns_Friedel_fraction_max     0.976
_reflns_number_gt                4611
_reflns_number_total             4611
_reflns_threshold_expression     'F>0 & F/u(F)>3.0 & |F_calc|>10^-3'
_iucr_refine_instructions_details
;
!!!!!!!!!!!!!!!!!!!!!!!!!!!!!!!!!!!!!!!!!!!!!!!!!!!!!!!!!!!!!!!!!!!!!!!!!!!!!!!
!!!                                                                         !!!
!!!                        This stdin was written with lamaGOET             !!!
!!!                                                                         !!!
!!!                    script written by Lorraine Andrade Malaspina         !!!
!!!                        contact: lorraine.malaspina@gmail.com            !!!
!!!                                                                         !!!
!!!!!!!!!!!!!!!!!!!!!!!!!!!!!!!!!!!!!!!!!!!!!!!!!!!!!!!!!!!!!!!!!!!!!!!!!!!!!!!
{ 

   keyword_echo_on

   name= L-Ala_100K_IAM

   ! Process the CIF
   CIF= {
       file_name= ccdc_deposit.cif
    }

   process_CIF

   name= L-Ala_100K_IAM

   crystal= {    
      xray_data= {   
         optimise_extinction= false
         correct_dispersion= no
         wavelength= 0.71073 Angstrom
         REDIRECT tonto.data.hkl
         f_sigma_cutoff= 3
         tol_for_shift_on_esd= 0.010000
         refine_H_U_iso= yes

         show_fit_output= true
         show_fit_results= true

      }  
   }  

   ! Geometry    
   put

   IAM_refinement

}
;
_cod_data_source_file            L-Ala_100K.cif
_cod_data_source_block           L-Ala_100K_tonto_IAM
_cod_depositor_comments
;
The following automatic conversions were performed:

'_symmetry_cell_setting' value 'Orthorhombic' changed to
'orthorhombic' according to
/home/data/users/saulius/crontab/automatic-downloads/rss-feeds/ACS/lib/dictionaries/cif_core.dic
dictionary named 'cif_core.dic' version 2.4.2 from 2011-04-26.

Automatic conversion script
Id: cif_fix_values 4973 2017-02-22 13:04:09Z antanas 
;
_cod_original_sg_symbol_Hall     'p 2ac 2ab'
_cod_original_sg_symbol_H-M      'p 21 21 21'
_cod_database_code               8000309
_refine_ls_coordinate_system     cartesian
_refine_ls_svd_threshold         0.1E-02
loop_
_symmetry_equiv_pos_as_xyz
'+x, +y, +z'
'-x+1/2, -y, +z+1/2'
'+x+1/2, -y+1/2, -z'
'-x, +y+1/2, -z+1/2'
loop_
_atom_site_label
_atom_site_fract_x
_atom_site_fract_y
_atom_site_fract_z
_atom_site_U_iso_or_equiv
_atom_site_adp_type
_atom_site_occupancy
_atom_site_disorder_group
N1 0.35006(5) 0.36227(2) 0.18395(5) 0.01149(10) Uani 1 0
H1 0.3039(11) 0.4334(6) 0.1916(12) 0.0258(16) Uiso 1 0
H2 0.2312(10) 0.3163(5) 0.2054(10) 0.0180(14) Uiso 1 0
H3 0.4093(10) 0.3533(5) 0.0323(11) 0.0279(15) Uiso 1 0
C1 0.53067(6) 0.33879(3) 0.35505(5) 0.01038(11) Uani 1 0
H4 0.5674(10) 0.2633(4) 0.3415(10) 0.0137(12) Uiso 1 0
C2 0.73505(7) 0.40913(3) 0.30334(7) 0.01625(14) Uani 1 0
H5 0.7926(10) 0.3918(5) 0.1510(11) 0.0254(15) Uiso 1 0
H6 0.8531(9) 0.3948(4) 0.4171(11) 0.0207(14) Uiso 1 0
H7 0.6916(10) 0.4893(5) 0.3054(11) 0.0259(16) Uiso 1 0
C3 0.44366(6) 0.35900(2) 0.60056(5) 0.01016(10) Uani 1 0
O1 0.27238(5) 0.41616(2) 0.62551(5) 0.01536(11) Uani 1 0
O2 0.55574(5) 0.31555(2) 0.76127(4) 0.01521(11) Uani 1 0
loop_
_atom_site_aniso_label
_atom_site_aniso_U_11
_atom_site_aniso_U_22
_atom_site_aniso_U_33
_atom_site_aniso_U_23
_atom_site_aniso_U_13
_atom_site_aniso_U_12
N1 0.01350(12) 0.01293(11) 0.00804(8) 0.00003(8) -0.00053(9) 0.00102(10)
C1 0.01299(13) 0.01079(10) 0.00737(9) 0.00010(8) 0.00028(10) 0.00155(10)
C2 0.01509(15) 0.02095(16) 0.01272(13) 0.00057(11) 0.00164(12) -0.00313(13)
C3 0.01360(13) 0.00898(10) 0.00790(9) -0.00022(8) 0.00109(10) -0.00057(10)
O1 0.01736(12) 0.01573(10) 0.01298(10) -0.00150(8) 0.00208(9) 0.00535(9)
O2 0.01970(13) 0.01789(11) 0.00802(8) 0.00125(7) -0.00109(9) 0.00415(10)
loop_
_atom_type_symbol
_atom_type_description
_atom_type_scat_dispersion_real
_atom_type_scat_dispersion_imag
_atom_type_scat_source
C C 0.0033 0.0016 'International Tables Vol C Tables 4.2.6.8 and 6.1.1.4'
H H 0 0 'International Tables Vol C Tables 4.2.6.8 and 6.1.1.4'
N N 0.0061 0.0033 'International Tables Vol C Tables 4.2.6.8 and 6.1.1.4'
O O 0.0106 0.006 'International Tables Vol C Tables 4.2.6.8 and 6.1.1.4'
loop_
_geom_angle_atom_site_label_1
_geom_angle_atom_site_label_2
_geom_angle_atom_site_label_3
_geom_angle
_geom_angle_publ_flag
O1 C3 O2 125.81(3) yes
O1 C3 C1 118.38(3) yes
O2 C3 C1 115.80(3) yes
N1 C1 C2 109.70(3) yes
N1 C1 C3 109.89(3) yes
N1 C1 H4 107.4(3) yes
C1 N1 H1 111.6(4) yes
C1 N1 H2 110.5(4) yes
C1 N1 H3 108.8(4) yes
C2 C1 C3 111.15(3) yes
C1 C2 H5 109.7(4) yes
C1 C2 H6 109.9(3) yes
C1 C2 H7 110.1(3) yes
C2 C1 H4 110.5(3) yes
C3 C1 H4 108.1(3) yes
H1 N1 H2 110.4(5) yes
H1 N1 H3 105.4(5) yes
H2 N1 H3 109.9(5) yes
H5 C2 H6 108.5(5) yes
H5 C2 H7 108.2(5) yes
H6 C2 H7 110.4(5) yes
loop_
_geom_bond_atom_site_label_1
_geom_bond_atom_site_label_2
_geom_bond_distance
_geom_bond_publ_flag
O1 C3 1.2470(4) yes
O2 C3 1.2633(4) yes
N1 C1 1.4906(4) yes
N1 H1 0.916(7) yes
N1 H2 0.914(6) yes
N1 H3 0.952(6) yes
C1 C2 1.5228(5) yes
C1 C3 1.5328(4) yes
C1 H4 0.956(5) yes
C2 H5 0.970(6) yes
C2 H6 0.979(6) yes
C2 H7 1.018(7) yes
