#------------------------------------------------------------------------------
#$Date: 2021-07-04 04:50:45 +0300 (Sun, 04 Jul 2021) $
#$Revision: 266974 $
#$URL: file:///home/coder/svn-repositories/cod/cif/8/00/05/8000507.cif $
#------------------------------------------------------------------------------
#
# This file is available in the Crystallography Open Database (COD),
# http://www.crystallography.net/
#
# All data on this site have been placed in the public domain by the
# contributors.
#
data_8000507
loop_
_publ_author_name
'Chen, Wenbin'
'Sun, Shanshan'
'Huang, Guanheng'
'Ni, Shaofei'
'Xu, Liang'
'Dang, Li'
'Phillips, David Lee'
'Li, Ming-De'
_publ_section_title
;
 Unprecedented Improvement of Near-Infrared Photothermal Conversion
 Efficiency to 87.2% by Ultrafast Non-radiative Decay of Excited States of
 Self-Assembly Cocrystal.
;
_journal_issue                   24
_journal_name_full               'The journal of physical chemistry letters'
_journal_page_first              5796
_journal_page_last               5801
_journal_paper_doi               10.1021/acs.jpclett.1c01021
_journal_volume                  12
_journal_year                    2021
_chemical_formula_moiety         'C10 H2 O6, C10 H16 N2'
_chemical_formula_sum            'C20 H18 N2 O6'
_chemical_formula_weight         382.36
_chemical_name_systematic        TMPD-PMDA
_space_group_crystal_system      triclinic
_space_group_IT_number           2
_space_group_name_Hall           '-P 1'
_space_group_name_H-M_alt        'P -1'
_atom_sites_solution_hydrogens   geom
_atom_sites_solution_primary     dual
_audit_creation_date             2019-11-07
_audit_creation_method
;
Olex2 1.2
(compiled 2018.05.29 svn.r3508 for OlexSys, GUI svn.r5506)
;
_cell_angle_alpha                76.673(4)
_cell_angle_beta                 83.598(4)
_cell_angle_gamma                88.515(4)
_cell_formula_units_Z            1
_cell_length_a                   7.2332(4)
_cell_length_b                   7.8762(4)
_cell_length_c                   8.0903(4)
_cell_measurement_reflns_used    2629
_cell_measurement_temperature    293(2)
_cell_measurement_theta_max      73.7640
_cell_measurement_theta_min      5.7490
_cell_volume                     445.70(4)
_computing_cell_refinement       'CrysAlisPro 1.171.39.28b (Rigaku OD, 2015)'
_computing_data_collection       'CrysAlisPro 1.171.39.28b (Rigaku OD, 2015)'
_computing_data_reduction        'CrysAlisPro 1.171.39.28b (Rigaku OD, 2015)'
_computing_molecular_graphics    'Olex2 (Dolomanov et al., 2009)'
_computing_publication_material  'Olex2 (Dolomanov et al., 2009)'
_computing_structure_refinement  'ShelXL (Sheldrick, 2015)'
_computing_structure_solution    'ShelXT (Sheldrick, 2015)'
_diffrn_ambient_temperature      293(2)
_diffrn_detector                 'CCD plate'
_diffrn_measured_fraction_theta_full 0.994
_diffrn_measured_fraction_theta_max 0.955
_diffrn_measurement_details
;
List of Runs (angles in degrees, time in seconds):

  # Type    Start    End  Width  t~exp~   \w     \q     \k     \f   Frames
--------------------------------------------------------------------------
  1  \w     42.00  85.00   0.50    0.50    --    0.00  38.00  60.00   86
  2  \w    -16.00  37.00   0.50    0.50    --    0.00  38.00  60.00  106
  3  \w     54.00  80.00   0.50    0.50    --    0.00  38.00 -90.00   52
  4  \w    -18.00  42.00   0.50    0.50    --    0.00  19.00   0.00  120
  5  \w    -10.00  23.00   0.50    0.50    --    0.00  38.00 -90.00   66
  6  \w     27.00  89.00   0.50    2.50    --   95.80 -82.00 -60.00  124
  7  \w     14.00 101.00   0.50    2.50    --   95.80 -61.00   0.00  174
  8  \w      9.00  35.00   0.50    2.50    --   95.80 -82.00-180.00   52
  9  \w      6.00  80.00   0.50    2.50    --   95.80 -30.00  90.00  148
 10  \w     96.00 122.00   0.50    2.50    --   95.80 -82.00-180.00   52
 11  \w      7.00 106.00   0.50    2.50    --   95.80 -30.00-180.00  198
 12  \w     12.00  49.00   0.50    2.50    --   95.80 -82.00  90.00   74
 13  \w     67.00 125.00   0.50    2.50    --   95.80 -82.00  90.00  116
 14  \w     18.00  48.00   0.50    2.50    --   95.80 -77.00   0.00   60
 15  \w     86.00 124.00   0.50    2.50    --   95.80 -77.00-120.00   76
 16  \w     25.00  50.00   0.50    2.50    --   95.80 -77.00-120.00   50
 17  \w     94.00 120.00   0.50    2.50    --   95.80 -82.00 -60.00   52
 18  \w     85.00 121.00   0.50    2.50    --   95.80 -77.00   0.00   72
 19  \w     65.00  92.00   0.50    2.50    --   95.80 -82.00-180.00   54
 20  \w     85.00 175.00   0.50    2.50    --   95.80   0.00 150.00  180
 21  \w     13.00  38.00   0.50    2.50    --   95.80 -61.00  60.00   50
 22  \w     89.00 115.00   0.50    2.50    --   95.80 -61.00  60.00   52
 23  \w      7.00  50.00   0.50    2.50    --   95.80 -61.00-180.00   86
 24  \w     63.00  88.00   0.50    2.50    --   95.80 -61.00-180.00   50
 25  \w     30.00  61.00   0.50    2.50    --   95.80   0.00 150.00   62
;
_diffrn_measurement_device       'four-circle diffractometer'
_diffrn_measurement_device_type  'XtaLAB AFC12 (RINC): Kappa single'
_diffrn_measurement_method       '\w scans'
_diffrn_orient_matrix_type
'CrysAlisPro convention (1999,Acta A55,543-557)'
_diffrn_orient_matrix_UB_11      0.0717067000
_diffrn_orient_matrix_UB_12      -0.0067564000
_diffrn_orient_matrix_UB_13      -0.1849641000
_diffrn_orient_matrix_UB_21      -0.0379599000
_diffrn_orient_matrix_UB_22      0.1968618000
_diffrn_orient_matrix_UB_23      -0.0590163000
_diffrn_orient_matrix_UB_31      0.1983706000
_diffrn_orient_matrix_UB_32      0.0400655000
_diffrn_orient_matrix_UB_33      0.0324949000
_diffrn_radiation_monochromator  graphite
_diffrn_radiation_probe          x-ray
_diffrn_radiation_type           CuK\a
_diffrn_radiation_wavelength     1.54184
_diffrn_reflns_av_R_equivalents  0.0150
_diffrn_reflns_av_unetI/netI     0.0222
_diffrn_reflns_Laue_measured_fraction_full 0.994
_diffrn_reflns_Laue_measured_fraction_max 0.955
_diffrn_reflns_limit_h_max       8
_diffrn_reflns_limit_h_min       -4
_diffrn_reflns_limit_k_max       9
_diffrn_reflns_limit_k_min       -9
_diffrn_reflns_limit_l_max       10
_diffrn_reflns_limit_l_min       -9
_diffrn_reflns_number            3909
_diffrn_reflns_point_group_measured_fraction_full 0.994
_diffrn_reflns_point_group_measured_fraction_max 0.955
_diffrn_reflns_theta_full        67.684
_diffrn_reflns_theta_max         74.278
_diffrn_reflns_theta_min         5.653
_diffrn_source                   'fine-focus sealed X-ray tube'
_diffrn_source_type              'Enhance (Cu) X-ray Source'
_exptl_absorpt_coefficient_mu    0.893
_exptl_absorpt_correction_T_max  1.00000
_exptl_absorpt_correction_T_min  0.94767
_exptl_absorpt_correction_type   multi-scan
_exptl_absorpt_process_details
;
CrysAlisPro 1.171.39.28b (Rigaku Oxford Diffraction, 2015)
Empirical absorption correction using spherical harmonics,
 implemented in SCALE3 ABSPACK scaling algorithm.
;
_exptl_crystal_colour            'clear dark black'
_exptl_crystal_colour_lustre     clear
_exptl_crystal_colour_modifier   dark
_exptl_crystal_colour_primary    black
_exptl_crystal_density_diffrn    1.425
_exptl_crystal_description       needle
_exptl_crystal_F_000             200
_exptl_crystal_size_max          0.4
_exptl_crystal_size_mid          0.1
_exptl_crystal_size_min          0.05
_refine_diff_density_max         0.235
_refine_diff_density_min         -0.424
_refine_diff_density_rms         0.132
_refine_ls_extinction_method     none
_refine_ls_goodness_of_fit_ref   1.095
_refine_ls_hydrogen_treatment    constr
_refine_ls_matrix_type           full
_refine_ls_number_parameters     129
_refine_ls_number_reflns         1733
_refine_ls_number_restraints     0
_refine_ls_restrained_S_all      1.095
_refine_ls_R_factor_all          0.0462
_refine_ls_R_factor_gt           0.0438
_refine_ls_shift/su_max          0.000
_refine_ls_shift/su_mean         0.000
_refine_ls_structure_factor_coef Fsqd
_refine_ls_weighting_details
'w=1/[\s^2^(Fo^2^)+(0.0687P)^2^+0.0447P] where P=(Fo^2^+2Fc^2^)/3'
_refine_ls_weighting_scheme      calc
_refine_ls_wR_factor_gt          0.1105
_refine_ls_wR_factor_ref         0.1137
_reflns_Friedel_coverage         0.000
_reflns_number_gt                1583
_reflns_number_total             1733
_reflns_threshold_expression     'I > 2\s(I)'
_iucr_refine_instructions_details
;

    181130g.res created by SHELXL-2014/7

TITL 181130g_a.res in P-1
REM Old TITL 181130g_a.res in P-1
REM SHELXT solution in P-1
REM R1 0.148, Rweak 0.011, Alpha 0.057, Orientation as input
REM Formula found by SHELXT: C10 N O3
CELL 1.54184 7.2332 7.8762 8.0903 76.673 83.598 88.515
ZERR 1 0.0004 0.0004 0.0004 0.004 0.004 0.004
LATT 1
SFAC C H N O
UNIT 20 18 2 6
 
L.S. 4 0 0
PLAN  20
BOND $H
list 4
fmap 2 53
acta
REM <olex2.extras>
REM <HklSrc "%.\\181130G.hkl">
REM </olex2.extras>
 
WGHT    0.068700    0.044700
FVAR       1.20581
O001  4    0.337685    0.154620    0.806892    11.00000    0.06773    0.04528 =
         0.04467   -0.00109    0.00290   -0.01632
O002  4    0.312167    0.041398    0.580000    11.00000    0.07277    0.04637 =
         0.06671   -0.01576    0.00069   -0.01776
O003  4    0.382708    0.335687    0.976726    11.00000    0.08693    0.06797 =
         0.03700   -0.00831    0.00460   -0.01815
N004  3    0.827875    0.252486    0.783414    11.00000    0.05585    0.04361 =
         0.04075    0.00204   -0.00446   -0.00811
C005  1    0.433308    0.335233    0.543607    11.00000    0.03591    0.03832 =
         0.04037   -0.00688   -0.00317   -0.00516
C006  1    0.455334    0.427007    0.667816    11.00000    0.03817    0.04278 =
         0.03518   -0.00506   -0.00253   -0.00456
C007  1    0.918006    0.373107    0.644091    11.00000    0.03822    0.03958 =
         0.03915   -0.00076   -0.00647   -0.00219
C008  1    0.477113    0.404103    0.370958    11.00000    0.04303    0.04301 =
         0.03852   -0.01008   -0.00391   -0.00699
AFIX  43
H008  2    0.462504    0.342436    0.288107    11.00000   -1.20000
AFIX   0
C009  1    0.946352    0.339844    0.480837    11.00000    0.04735    0.03763 =
         0.04293   -0.00592   -0.00602   -0.00587
AFIX  43
H009  2    0.911487    0.232180    0.465454    11.00000   -1.20000
AFIX   0
C00A  1    1.025188    0.463200    0.340891    11.00000    0.04920    0.04467 =
         0.03698   -0.00708   -0.00524   -0.00513
AFIX  43
H00A  2    1.040648    0.436214    0.234176    11.00000   -1.20000
AFIX   0
C00B  1    0.356250    0.161870    0.632419    11.00000    0.04462    0.04181 =
         0.04629   -0.00613   -0.00028   -0.00740
C00C  1    0.393431    0.312172    0.836044    11.00000    0.05256    0.04843 =
         0.03971   -0.00462    0.00089   -0.00967
C00D  1    0.821787    0.071618    0.771010    11.00000    0.07522    0.04405 =
         0.05831    0.00292   -0.00080   -0.01445
AFIX 137
H00B  2    0.761452    0.064535    0.672966    11.00000   -1.50000
H00C  2    0.753663    0.003717    0.872270    11.00000   -1.50000
H00D  2    0.946225    0.027109    0.759599    11.00000   -1.50000
AFIX   0
C00E  1    0.844882    0.275892    0.953788    11.00000    0.06792    0.06476 =
         0.04030    0.00077   -0.00312   -0.00861
AFIX 137
H00E  2    0.973777    0.271383    0.972727    11.00000   -1.50000
H00F  2    0.778259    0.184746    1.036731    11.00000   -1.50000
H00G  2    0.793861    0.387032    0.964635    11.00000   -1.50000
AFIX   0
HKLF 4
 
REM  181130g_a.res in P-1
REM R1 =  0.0438 for    1583 Fo > 4sig(Fo)  and  0.0462 for all    1733 data
REM    129 parameters refined using      0 restraints
 
END  
     
WGHT      0.0687      0.0447 

REM Highest difference peak  0.235,  deepest hole -0.424,  1-sigma level  0.132
Q1    1   1.0454  0.1004  1.0032  11.00000  0.05    0.23
Q2    1   0.9880 -0.0449  0.8894  11.00000  0.05    0.23
Q3    1   1.0106 -0.0161  0.9948  11.00000  0.05    0.23
Q4    1   0.5256  0.1031  1.0489  11.00000  0.05    0.22
Q5    1   0.7381  0.3385  0.4182  11.00000  0.05    0.22
Q6    1   0.5000  0.0000  1.0000  10.50000  0.05    0.22
Q7    1   0.5198  0.1186  1.1444  11.00000  0.05    0.21
Q8    1   0.7414  0.4052  0.5446  11.00000  0.05    0.21
Q9    1   0.5629  0.1555  1.1742  11.00000  0.05    0.21
Q10   1   0.4997 -0.0165  0.8835  11.00000  0.05    0.21
Q11   1   1.0282  0.1640  1.1292  11.00000  0.05    0.21
Q12   1   0.2372  0.3534  0.4051  11.00000  0.05    0.21
Q13   1   1.0460  0.0519  0.8594  11.00000  0.05    0.20
Q14   1   0.2369  0.4366  0.5452  11.00000  0.05    0.19
Q15   1   1.1185  0.2877  1.0427  11.00000  0.05    0.19
Q16   1   1.2308  0.4649  0.3743  11.00000  0.05    0.19
Q17   1   1.1397  0.2996  0.2144  11.00000  0.05    0.19
Q18   1   0.9038 -0.1939  0.7818  11.00000  0.05    0.18
Q19   1   0.2698  0.5585  0.6833  11.00000  0.05    0.18
Q20   1   1.0923  0.1974  0.8512  11.00000  0.05    0.18

  REM The information below was added by Olex2.
  REM
  REM R1 = 0.0438 for 1583 Fo > 4sig(Fo) and 0.0462 for all 3909 data
  REM n/a parameters refined using n/a restraints
  REM Highest difference peak 0.23, deepest hole -0.42
  REM Mean Shift 0, Max Shift 0.000.

  REM +++ Tabular Listing of Refinement Information +++
  REM R1_all = 0.0462
  REM R1_gt = 0.0438
  REM wR_ref = 0.1137
  REM GOOF = 1.095
  REM Shift_max = 0.000
  REM Shift_mean = 0
  REM Reflections_all = 3909
  REM Reflections_gt = 1583
  REM Parameters = n/a
  REM Hole = -0.42
  REM Peak = 0.23
  REM Flack = n/a

  
;
_cod_data_source_file            jz1c01021_si_002.cif
_cod_data_source_block           181130g
_cod_depositor_comments          'Adding full bibliography for 8000507.cif.'
_cod_database_code               8000507
_shelx_shelxl_version_number     2014/7
_chemical_oxdiff_formula         'C H O N'
_shelx_space_group_comment
;
The symmetry employed for this shelxl refinement is uniquely defined
by the following loop, which should always be used as a source of
symmetry information in preference to the above space-group names.
They are only intended as comments.
;
_reflns_odcompleteness_completeness 99.44
_reflns_odcompleteness_iscentric 1
_reflns_odcompleteness_theta     66.97
_olex2_refinement_description
;
1. Fixed Uiso
 At 1.2 times of:
  All C(H) groups
 At 1.5 times of:
  All C(H,H,H) groups
2.a Aromatic/amide H refined with riding coordinates:
 C008(H008), C009(H009), C00A(H00A)
2.b Idealised Me refined as rotating group:
 C00D(H00B,H00C,H00D), C00E(H00E,H00F,H00G)
;
_olex2_submission_special_instructions 'No special instructions were received'
_oxdiff_exptl_absorpt_empirical_details
;
Empirical correction (ABSPACK) includes:
- Absorption correction using spherical harmonics
- Frame scaling
;
_oxdiff_exptl_absorpt_empirical_full_max 1.296
_oxdiff_exptl_absorpt_empirical_full_min 0.581
loop_
_space_group_symop_operation_xyz
'x, y, z'
'-x, -y, -z'
loop_
_atom_site_label
_atom_site_type_symbol
_atom_site_fract_x
_atom_site_fract_y
_atom_site_fract_z
_atom_site_U_iso_or_equiv
_atom_site_adp_type
_atom_site_occupancy
_atom_site_site_symmetry_order
_atom_site_calc_flag
_atom_site_refinement_flags_posn
_atom_site_refinement_flags_adp
_atom_site_refinement_flags_occupancy
_atom_site_disorder_assembly
_atom_site_disorder_group
O001 O 0.33769(13) 0.15462(11) 0.80689(12) 0.0545(3) Uani 1 1 d . . . . .
O002 O 0.31217(14) 0.04140(12) 0.58000(13) 0.0618(3) Uani 1 1 d . . . . .
O003 O 0.38271(16) 0.33569(14) 0.97673(12) 0.0651(3) Uani 1 1 d . . . . .
N004 N 0.82788(15) 0.25249(14) 0.78341(13) 0.0486(3) Uani 1 1 d . . . . .
C005 C 0.43331(15) 0.33523(14) 0.54361(15) 0.0385(3) Uani 1 1 d . . . . .
C006 C 0.45533(15) 0.42701(16) 0.66782(14) 0.0394(3) Uani 1 1 d . . . . .
C007 C 0.91801(15) 0.37311(15) 0.64409(15) 0.0401(3) Uani 1 1 d . . . . .
C008 C 0.47711(15) 0.40410(15) 0.37096(15) 0.0413(3) Uani 1 1 d . . . . .
H008 H 0.4625 0.3424 0.2881 0.050 Uiso 1 1 calc R . . . .
C009 C 0.94635(17) 0.33984(16) 0.48084(16) 0.0430(3) Uani 1 1 d . . . . .
H009 H 0.9115 0.2322 0.4655 0.052 Uiso 1 1 calc R . . . .
C00A C 1.02519(17) 0.46320(16) 0.34089(16) 0.0438(3) Uani 1 1 d . . . . .
H00A H 1.0406 0.4362 0.2342 0.053 Uiso 1 1 calc R . . . .
C00B C 0.35625(17) 0.16187(16) 0.63242(16) 0.0451(3) Uani 1 1 d . . . . .
C00C C 0.39343(18) 0.31217(17) 0.83604(16) 0.0481(3) Uani 1 1 d . . . . .
C00D C 0.8218(2) 0.07162(18) 0.7710(2) 0.0618(4) Uani 1 1 d . . . . .
H00B H 0.7615 0.0645 0.6730 0.093 Uiso 1 1 calc GR . . . .
H00C H 0.7537 0.0037 0.8723 0.093 Uiso 1 1 calc GR . . . .
H00D H 0.9462 0.0271 0.7596 0.093 Uiso 1 1 calc GR . . . .
C00E C 0.8449(2) 0.2759(2) 0.95379(17) 0.0598(4) Uani 1 1 d . . . . .
H00E H 0.9738 0.2714 0.9727 0.090 Uiso 1 1 calc GR . . . .
H00F H 0.7783 0.1847 1.0367 0.090 Uiso 1 1 calc GR . . . .
H00G H 0.7939 0.3870 0.9646 0.090 Uiso 1 1 calc GR . . . .
loop_
_atom_site_aniso_label
_atom_site_aniso_U_11
_atom_site_aniso_U_22
_atom_site_aniso_U_33
_atom_site_aniso_U_23
_atom_site_aniso_U_13
_atom_site_aniso_U_12
O001 0.0677(6) 0.0453(5) 0.0447(5) -0.0011(4) 0.0029(4) -0.0163(4)
O002 0.0728(7) 0.0464(6) 0.0667(7) -0.0158(5) 0.0007(5) -0.0178(5)
O003 0.0869(8) 0.0680(7) 0.0370(5) -0.0083(4) 0.0046(5) -0.0182(5)
N004 0.0558(6) 0.0436(6) 0.0408(6) 0.0020(4) -0.0045(5) -0.0081(4)
C005 0.0359(5) 0.0383(6) 0.0404(6) -0.0069(5) -0.0032(4) -0.0052(4)
C006 0.0382(6) 0.0428(6) 0.0352(6) -0.0051(4) -0.0025(4) -0.0046(4)
C007 0.0382(6) 0.0396(6) 0.0391(6) -0.0008(5) -0.0065(4) -0.0022(4)
C008 0.0430(6) 0.0430(6) 0.0385(6) -0.0101(5) -0.0039(5) -0.0070(5)
C009 0.0474(6) 0.0376(6) 0.0429(6) -0.0059(5) -0.0060(5) -0.0059(5)
C00A 0.0492(6) 0.0447(6) 0.0370(6) -0.0071(5) -0.0052(5) -0.0051(5)
C00B 0.0446(6) 0.0418(6) 0.0463(7) -0.0061(5) -0.0003(5) -0.0074(5)
C00C 0.0526(7) 0.0484(7) 0.0397(7) -0.0046(5) 0.0009(5) -0.0097(5)
C00D 0.0752(10) 0.0441(7) 0.0583(9) 0.0029(6) -0.0008(7) -0.0145(6)
C00E 0.0679(9) 0.0648(9) 0.0403(7) 0.0008(6) -0.0031(6) -0.0086(7)
loop_
_atom_type_symbol
_atom_type_description
_atom_type_scat_dispersion_real
_atom_type_scat_dispersion_imag
_atom_type_scat_source
C C 0.0181 0.0091 'International Tables Vol C Tables 4.2.6.8 and 6.1.1.4'
H H 0.0000 0.0000 'International Tables Vol C Tables 4.2.6.8 and 6.1.1.4'
N N 0.0311 0.0180 'International Tables Vol C Tables 4.2.6.8 and 6.1.1.4'
O O 0.0492 0.0322 'International Tables Vol C Tables 4.2.6.8 and 6.1.1.4'
loop_
_geom_angle_atom_site_label_1
_geom_angle_atom_site_label_2
_geom_angle_atom_site_label_3
_geom_angle
_geom_angle_site_symmetry_1
_geom_angle_site_symmetry_3
_geom_angle_publ_flag
C00B O001 C00C 110.03(10) . . ?
C007 N004 C00D 117.67(11) . . ?
C007 N004 C00E 117.90(11) . . ?
C00E N004 C00D 114.55(11) . . ?
C006 C005 C00B 107.42(10) . . ?
C008 C005 C006 123.12(11) . . ?
C008 C005 C00B 129.45(11) . . ?
C005 C006 C00C 107.59(11) . . ?
C008 C006 C005 122.86(11) 2_666 . ?
C008 C006 C00C 129.55(11) 2_666 . ?
C009 C007 N004 121.71(11) . . ?
C009 C007 C00A 116.36(11) . 2_766 ?
C00A C007 N004 121.84(11) 2_766 . ?
C005 C008 C006 114.02(11) . 2_666 ?
C005 C008 H008 123.0 . . ?
C006 C008 H008 123.0 2_666 . ?
C007 C009 H009 119.1 . . ?
C00A C009 C007 121.78(11) . . ?
C00A C009 H009 119.1 . . ?
C007 C00A H00A 119.1 2_766 . ?
C009 C00A C007 121.86(12) . 2_766 ?
C009 C00A H00A 119.1 . . ?
O001 C00B C005 107.54(10) . . ?
O002 C00B O001 120.73(12) . . ?
O002 C00B C005 131.73(12) . . ?
O001 C00C C006 107.40(10) . . ?
O003 C00C O001 120.94(12) . . ?
O003 C00C C006 131.64(12) . . ?
N004 C00D H00B 109.5 . . ?
N004 C00D H00C 109.5 . . ?
N004 C00D H00D 109.5 . . ?
H00B C00D H00C 109.5 . . ?
H00B C00D H00D 109.5 . . ?
H00C C00D H00D 109.5 . . ?
N004 C00E H00E 109.5 . . ?
N004 C00E H00F 109.5 . . ?
N004 C00E H00G 109.5 . . ?
H00E C00E H00F 109.5 . . ?
H00E C00E H00G 109.5 . . ?
H00F C00E H00G 109.5 . . ?
loop_
_geom_bond_atom_site_label_1
_geom_bond_atom_site_label_2
_geom_bond_distance
_geom_bond_site_symmetry_2
_geom_bond_publ_flag
O001 C00B 1.3909(15) . ?
O001 C00C 1.3929(16) . ?
O002 C00B 1.1888(15) . ?
O003 C00C 1.1885(16) . ?
N004 C007 1.4045(15) . ?
N004 C00D 1.4531(19) . ?
N004 C00E 1.4509(17) . ?
C005 C006 1.3908(15) . ?
C005 C008 1.3808(16) . ?
C005 C00B 1.4796(16) . ?
C006 C008 1.3834(16) 2_666 ?
C006 C00C 1.4794(16) . ?
C007 C009 1.3969(17) . ?
C007 C00A 1.3988(16) 2_766 ?
C008 C006 1.3834(16) 2_666 ?
C008 H008 0.9300 . ?
C009 H009 0.9300 . ?
C009 C00A 1.3887(17) . ?
C00A C007 1.3988(16) 2_766 ?
C00A H00A 0.9300 . ?
C00D H00B 0.9600 . ?
C00D H00C 0.9600 . ?
C00D H00D 0.9600 . ?
C00E H00E 0.9600 . ?
C00E H00F 0.9600 . ?
C00E H00G 0.9600 . ?
loop_
_refln_index_h
_refln_index_k
_refln_index_l
_refln_F_squared_meas
_refln_F_squared_sigma
0 0 1 702.43 18.72
0 0 -1 688.86 18.73
0 0 -1 689.83 18.77
0 0 2 -0.03 0.11
0 0 -2 0.24 0.15
0 0 -2 -0.1 0.11
0 0 3 191.03 5.44
0 0 -3 183.94 5.49
0 0 -3 186.44 5.65
0 0 -4 2.61 0.39
0 0 4 2.93 0.24
0 0 -4 3.26 0.27
0 0 4 2.93 0.22
0 0 -4 3.79 0.41
0 0 4 2.82 0.34
0 0 5 552.26 15.74
0 0 5 548.47 15.12
0 0 5 564.03 15.22
0 0 -5 561.25 15.31
0 0 -5 554.49 15.89
0 0 5 561.47 15.19
0 0 6 172.15 5.02
0 0 6 177.27 5.08
0 0 7 123.18 3.74
0 0 7 120.36 3.62
0 0 8 0.96 0.23
0 0 9 8.06 0.42
0 -1 9 8.08 0.44
0 -1 9 8.14 0.41
0 -1 8 4.67 0.41
0 -1 8 4.41 0.35
0 -1 7 18.5 0.85
0 -1 6 731.99 20.02
0 -1 5 22.51 0.9
0 -1 4 160.9 5.07
0 1 -4 159.86 5.12
0 -1 4 162.3 4.59
0 -1 3 859.42 23.57
0 1 -3 858.8 23.61
0 1 -2 751.35 20.29
0 -1 2 751.93 20.27
0 -1 2 718.26 20.4
0 -1 1 1585.1 42.7
0 1 0 579.9 16.06
0 -1 0 586.3 16.07
0 1 0 614.65 16.07
0 -1 -1 3693.14 99.06
0 1 2 1.99 0.2
0 -1 -3 637.83 17.34
0 1 3 643.31 17.3
0 -1 -3 604.27 17.51
0 -1 -4 21.56 0.81
0 1 4 20.51 0.73
0 -1 -4 22.88 1.22
0 1 4 20.32 0.75
0 1 4 20.71 0.96
0 1 5 220.39 6
0 1 5 211.55 5.93
0 1 5 210.77 6.03
0 -1 -5 217.83 6.12
0 1 5 210.55 6.41
0 -1 -6 1.03 0.26
0 1 6 0.81 0.2
0 -1 -7 176.93 5.2
0 1 7 172.8 5.08
0 1 7 171.6 5.09
0 1 8 1.18 0.27
0 1 8 1.51 0.23
0 1 9 0.42 0.17
0 -2 9 18.99 0.67
0 -2 9 19.28 0.66
0 -2 8 18.77 0.83
0 -2 7 51.41 1.85
0 -2 6 39.51 1.42
0 -2 5 12.51 0.61
0 -2 4 0.04 0.1
0 -2 3 547.28 15.64
0 2 -3 556.44 15.62
0 -2 3 560.63 15.75
0 -2 2 10.13 0.66
0 2 -2 10.17 0.63
0 -2 2 10.61 0.7
0 2 -1 2023.83 54.7
0 2 0 269.57 7.41
0 -2 0 255.88 7.44
0 2 0 262.46 7.39
0 2 1 177.06 5.15
0 -2 -1 183.86 5.18
0 -2 -2 550.98 15.17
0 -2 -3 55.49 2.03
0 2 3 56.43 1.9
0 2 4 1281.56 34.49
0 -2 -4 1267.46 34.57
0 2 4 1299.12 34.81
0 -2 -5 92.94 2.83
0 2 5 89.22 2.69
0 2 5 92.8 2.75
0 2 6 0.4 0.18
0 -2 -6 0.58 0.22
0 2 6 0.48 0.19
0 2 7 45 1.62
0 -2 -7 43.18 1.68
0 2 7 45.77 1.62
0 2 8 7.58 0.51
0 2 8 7.67 0.51
0 2 9 0.82 0.2
0 2 10 9.9 0.41
0 -3 8 5.31 0.34
0 -3 8 5.08 0.33
0 -3 7 25.39 1.05
0 -3 7 25.62 1.06
0 -3 6 13.4 0.75
0 -3 5 0.1 0.2
0 -3 4 96.55 2.98
0 -3 3 10.59 0.89
0 -3 3 10.58 0.53
0 3 -3 10.79 0.89
0 3 -2 1484.49 40.65
0 -3 2 1470.64 39.97
0 3 -2 1508.45 40.67
0 -3 2 1509.57 40.68
0 3 -1 32.48 1.37
0 3 -1 34.21 1.49
0 3 -1 32.89 1.45
0 3 0 992.93 27.15
0 3 0 1011.47 27.21
0 -3 0 976.64 27.25
0 3 1 2.8 0.31
0 -3 -1 2.46 0.32
0 -3 -1 2.46 0.35
0 -3 -2 419.96 11.84
0 3 3 1.69 0.15
0 -3 -3 1.9 0.21
0 3 3 1.72 0.18
0 -3 -3 1.64 0.29
0 3 3 1.38 0.23
0 3 4 106.73 3.1
0 -3 -4 100.97 3.63
0 -3 -4 105.91 3.17
0 3 4 108.68 3.42
0 -3 -5 0.04 0.18
0 3 5 0.06 0.15
0 3 5 -0.04 0.13
0 3 6 29.94 1.09
0 -3 -6 27.37 1.21
0 3 6 31.02 1.16
0 3 7 44.85 1.51
0 -3 -7 41.15 1.64
0 3 7 44.17 1.59
0 3 8 0.07 0.21
0 -3 -8 0.13 0.21
0 3 8 0.1 0.19
0 3 9 8.07 0.49
0 3 9 7.66 0.44
0 3 9 7.64 0.45
0 -4 7 1.39 0.22
0 -4 7 1.26 0.22
0 -4 6 51.71 1.81
0 -4 5 52.19 1.85
0 -4 4 27.18 1.13
0 -4 3 97.62 3.21
0 -4 3 117.49 3.28
0 -4 2 8.15 0.46
0 -4 2 8.39 0.47
0 -4 1 3.02 0.25
0 -4 1 3.51 0.28
0 4 -1 3.29 0.45
0 4 -1 3.33 0.23
0 4 -1 3.66 0.44
0 4 0 184.4 5.7
0 4 0 182.96 5.1
0 -4 0 181.79 5.19
0 4 0 190.65 5.64
0 4 1 400.64 10.94
0 4 1 393.51 11.47
0 4 1 397.88 11.01
0 4 1 402.92 10.91
0 -4 -1 413.53 11.71
0 4 1 416.39 11.49
0 -4 -2 23.15 0.89
0 -4 -2 21.78 1.26
0 4 2 22.34 0.76
0 4 2 23.7 0.79
0 -4 -2 22.29 1.19
0 -4 -3 67.63 2.11
0 4 3 66.59 1.96
0 4 3 66.73 2.4
0 -4 -3 67.47 2.58
0 -4 -3 64.8 2.05
0 4 4 1.94 0.24
0 -4 -4 1.59 0.26
0 4 5 48.9 1.64
0 -4 -5 48.15 1.73
0 4 6 21.76 0.86
0 -4 -6 20.56 0.99
0 4 6 21.45 0.93
0 4 7 17.56 0.82
0 4 7 16.12 0.73
0 -4 -7 16.12 0.86
0 -4 -8 0.54 0.22
0 4 8 0.36 0.19
0 4 8 0.25 0.22
0 4 9 11.45 0.57
0 4 9 11.57 0.54
0 4 9 11.95 0.59
0 -5 7 0.04 0.11
0 -5 6 2.94 0.27
0 -5 5 45.13 1.6
0 -5 4 39.42 1.47
0 -5 3 114.6 3.5
0 -5 3 111.59 3.45
0 -5 2 21.01 0.93
0 -5 2 21.34 0.9
0 -5 1 50.95 1.76
0 5 -1 54 1.63
0 -5 1 50.46 1.71
0 5 0 0.61 0.14
0 5 0 0.74 0.12
0 -5 0 0.7 0.17
0 5 0 0.67 0.19
0 5 1 160.6 4.48
0 5 1 162.22 4.43
0 5 1 163.38 4.58
0 5 2 9.36 0.43
0 5 2 10.53 0.47
0 5 2 9.35 0.73
0 5 2 9.59 0.5
0 -5 -2 10.01 0.56
0 -5 -2 9.64 0.5
0 -5 -3 28.62 1.14
0 5 3 28.57 0.97
0 -5 -3 28.14 1.06
0 5 3 28.08 1.02
0 -5 -4 175.77 5.18
0 -5 -5 102.2 3.17
0 5 5 96.38 3.06
0 -5 -6 23.44 1.1
0 5 6 23.04 0.91
0 5 6 23.83 1.02
0 5 7 47.43 1.56
0 5 7 47.53 1.68
0 -5 -7 46.62 1.74
0 5 8 5.06 0.38
0 -5 -8 4.89 0.4
0 5 9 6.67 0.36
0 5 9 6.15 0.38
0 5 9 6.5 0.38
0 6 -6 15.76 0.61
0 -6 5 0.13 0.18
0 -6 4 -0.05 0.2
0 -6 4 -0.04 0.15
0 -6 3 38.18 1.41
0 -6 3 39.21 1.5
0 -6 2 261.56 7.55
0 -6 2 272.81 7.67
0 6 -1 8.84 0.43
0 -6 1 9.01 0.53
0 6 -1 8.38 0.56
0 6 0 38.16 1.25
0 -6 0 35.01 1.33
0 6 0 38.91 1.41
0 6 1 0.57 0.16
0 6 1 0.34 0.12
0 -6 -1 0.28 0.15
0 6 1 0.54 0.22
0 6 1 0.48 0.22
0 6 2 0.1 0.17
0 -6 -2 0.03 0.2
0 -6 -2 0.17 0.14
0 6 2 0.01 0.12
0 -6 -3 10.29 0.57
0 -6 -3 9.52 0.63
0 6 3 10.79 0.55
0 -6 -4 6.97 0.54
0 -6 -5 0.28 0.24
0 -6 -6 19.49 0.96
0 6 6 18.55 0.76
0 6 6 18.35 0.87
0 6 7 0.95 0.23
0 -6 -7 0.4 0.22
0 6 7 0.92 0.15
0 6 8 4 0.31
0 6 8 3.71 0.33
0 -6 -8 3.54 0.3
0 6 9 2.52 0.2
0 6 9 2.33 0.18
0 7 -4 0.16 0.14
0 7 -3 5.85 0.44
0 7 -2 8.32 0.54
0 7 -1 2.98 0.34
0 7 0 0.38 0.22
0 7 0 0.62 0.23
0 7 1 31.2 1.25
0 -7 -2 50.68 1.85
0 7 2 47.6 1.68
0 -7 -3 78.03 2.64
0 -7 -4 118.25 3.72
0 -7 -5 5.25 0.48
0 -7 -6 5.16 0.44
0 7 6 5.59 0.42
0 -7 -7 3.37 0.31
0 7 7 2.92 0.28
0 7 7 3.39 0.3
0 7 8 5.03 0.29
0 7 8 4.57 0.29
0 8 -3 0.11 0.14
0 8 -2 0.31 0.18
0 8 -2 0.26 0.14
0 8 -1 9.44 0.56
0 8 0 12.38 0.66
0 -8 0 12.42 0.72
0 8 1 32.25 1.22
0 -8 -1 32.91 1.34
0 -8 -2 6.74 0.52
0 8 3 2.42 0.32
0 -8 -3 2.35 0.35
0 -8 -4 0.38 0.21
0 -8 -5 1.06 0.23
0 -8 -6 0.28 0.15
0 8 7 0.02 0.11
0 -9 1 2.52 0.23
0 -9 0 2.22 0.24
0 -9 -1 0.03 0.15
0 -9 -2 4.17 0.34
0 9 2 4.11 0.32
0 -9 -3 0.1 0.15
0 9 3 0.06 0.14
0 9 4 1.64 0.2
0 -9 -4 1.32 0.2
0 -9 -5 7.26 0.35
-1 9 5 1.26 0.15
1 -9 -5 1.08 0.16
-1 9 4 2.52 0.22
1 -9 -4 2.28 0.25
1 -9 -3 1.7 0.25
-1 9 3 1.48 0.2
1 -9 -2 0.37 0.18
-1 9 2 0.13 0.13
1 -9 -1 4.8 0.38
1 -9 0 -0.03 0.14
1 -9 1 4.99 0.32
1 -8 -7 2.58 0.2
-1 8 7 2.73 0.18
-1 8 6 3.05 0.25
1 -8 -6 2.67 0.28
-1 8 6 2.58 0.21
1 -8 -5 12.47 0.66
-1 8 5 11.16 0.56
-1 8 4 17.95 0.8
1 -8 -4 17.05 0.87
1 -8 -3 21.05 0.98
-1 8 3 19.28 0.87
1 -8 -2 26.6 1.05
1 -8 -2 28.14 1.21
1 -8 -1 1.66 0.24
1 -8 -1 2.07 0.34
1 -8 0 60.69 1.95
-1 8 0 57.43 1.93
-1 8 -1 38.06 1.34
-1 8 -2 0.17 0.15
-1 8 -3 12.92 0.55
-1 7 8 2.04 0.18
-1 7 8 2.17 0.16
1 -7 -8 1.95 0.18
-1 7 7 0.92 0.18
1 -7 -7 1.13 0.23
-1 7 6 60.1 1.93
1 -7 -6 57.25 2.04
-1 7 5 99.81 3.09
1 -7 -5 99.38 3.22
1 -7 -4 35.95 1.48
-1 7 4 34.67 1.36
1 -7 -3 7.94 0.54
1 -7 -3 8.25 0.63
1 -7 -2 76.87 2.51
1 -7 -2 76.11 2.64
-1 7 1 96.14 2.97
1 -7 -1 94.09 3.04
1 -7 -1 101.37 3.21
-1 7 0 17.19 0.82
1 -7 0 16.02 0.82
-1 7 -1 229.06 6.63
1 -7 1 241.15 6.75
1 -7 2 3.27 0.34
-1 7 -2 3.2 0.3
-1 7 -3 0.45 0.16
1 -7 3 0.4 0.17
1 -7 4 0.39 0.13
-1 6 8 1.1 0.21
-1 6 8 0.78 0.16
1 -6 -8 0.79 0.18
-1 6 7 0.8 0.21
1 -6 -7 0.39 0.23
-1 6 6 22.53 0.96
1 -6 -6 22.15 1.07
1 -6 -5 228.42 6.77
-1 6 5 232.61 6.62
1 -6 -4 13.82 0.8
-1 6 4 13.09 0.7
1 -6 -3 26.07 1.1
1 -6 -3 26.82 1.2
1 -6 -2 1.24 0.3
1 -6 -2 0.94 0.24
1 -6 -1 122.75 3.77
-1 6 1 125.35 3.7
1 -6 0 39.64 1.48
-1 6 0 39.29 1.38
1 -6 1 18.9 0.91
-1 6 -1 20.92 0.88
1 -6 2 149.82 4.51
1 -6 3 15.59 0.8
1 -6 3 15.07 0.82
1 -6 4 63.4 2.16
1 -6 4 67.25 2.21
1 -6 5 13.41 0.63
-1 5 9 4.34 0.25
-1 5 9 5.04 0.3
-1 5 9 5.35 0.32
-1 5 8 0.42 0.21
1 -5 -8 0.4 0.22
-1 5 8 0.39 0.17
-1 5 7 111.55 3.39
1 -5 -7 112.19 3.54
-1 5 6 5.27 0.42
1 -5 -6 4.86 0.51
-1 5 5 0.1 0.18
1 -5 -5 0.4 0.27
1 -5 -4 163.77 4.84
-1 5 4 159.57 4.7
1 -5 -3 1.65 0.25
1 -5 -3 1.85 0.31
1 -5 -2 453.78 12.32
1 -5 -2 435.69 12.36
1 -5 -1 35.4 1.29
1 -5 0 272.23 7.56
-1 5 0 264.43 7.47
1 -5 1 37.18 1.37
1 -5 2 1.35 0.26
1 -5 2 2.62 0.32
1 -5 3 4.44 0.42
1 -5 3 4.14 0.41
1 -5 4 18.94 0.91
1 -5 4 16.76 0.87
1 -5 5 88.24 2.92
1 -5 5 97.03 2.95
1 -5 6 0.16 0.19
1 -5 6 0.05 0.16
1 -5 7 9.35 0.42
1 -5 7 9.34 0.4
-1 4 9 0.92 0.2
-1 4 9 1.09 0.16
-1 4 9 0.96 0.17
-1 4 8 35.14 1.28
-1 4 8 36.08 1.34
1 -4 -8 36.84 1.41
1 -4 -7 68.08 2.33
-1 4 7 64.86 2.18
-1 4 6 77.9 2.38
1 -4 -6 80.49 2.67
-1 4 6 79.19 2.51
1 -4 -5 5.3 0.47
-1 4 5 5.63 0.4
-1 4 5 4.86 0.31
1 -4 -4 56.35 1.98
-1 4 4 60.87 1.9
1 -4 -3 108.16 3.84
-1 4 3 105.94 3.7
1 -4 -3 100.46 3.2
1 -4 -3 111.03 3.2
1 -4 -2 307.71 9.25
1 -4 -2 307.81 8.54
1 -4 -2 305.6 9.19
1 -4 -1 462.63 12.69
1 -4 -1 435.53 12.66
-1 4 1 430.26 12.57
1 -4 -1 431.06 11.97
1 -4 0 140.23 4.08
-1 4 0 142.2 4.65
-1 4 0 145.35 4.62
1 -4 1 148.89 4.24
1 -4 1 145.9 4.22
1 -4 1 147.56 4.16
-1 4 -1 151.22 4.95
1 -4 2 10 0.55
1 -4 2 10.61 0.55
1 -4 3 184.12 5.18
1 -4 3 171.9 5.21
1 -4 4 30.68 1.27
1 -4 4 32.02 1.26
1 -4 5 31.84 1.32
1 -4 5 32.69 1.29
1 -4 6 50.17 1.81
1 -4 6 50.59 1.78
1 -4 7 3.42 0.33
1 -4 7 3.47 0.31
-1 3 9 0.14 0.15
-1 3 9 0.03 0.1
1 -3 -8 3.78 0.41
-1 3 8 4.49 0.36
-1 3 8 4.55 0.39
-1 3 7 177.02 5.26
1 -3 -7 185.69 5.42
1 -3 -6 28.27 1.23
-1 3 6 25.5 1.07
-1 3 6 29.54 1.02
-1 3 5 54.55 1.75
-1 3 5 54.33 1.67
1 -3 -5 50.5 1.85
-1 3 4 1.95 0.33
-1 3 4 2.52 0.24
-1 3 3 124.75 3.57
1 -3 -3 127.35 3.63
1 -3 -3 120.5 4.12
-1 3 3 123.6 4.06
1 -3 -2 -0.04 0.16
1 -3 -1 7.2 0.59
-1 3 1 7.71 0.58
1 -3 -1 8.01 0.62
-1 3 0 127.96 4.07
-1 3 0 128.29 4.05
-1 3 -1 113.79 3.79
1 -3 2 24.29 1.36
-1 3 -2 24.37 1.22
-1 3 -2 24.72 1.34
-1 3 -2 23.46 1.34
1 -3 2 23.96 0.91
1 -3 2 25.55 0.9
1 -3 3 7.17 0.41
1 -3 3 7.12 0.44
1 -3 4 1.21 0.21
1 -3 4 1.21 0.24
1 -3 5 91.41 2.88
1 -3 5 86.13 2.75
1 -3 6 51.23 1.86
1 -3 6 49.76 1.72
1 -3 6 50.94 1.79
1 -3 7 2.21 0.33
1 -3 7 2.45 0.3
1 -3 8 0.09 0.15
1 -3 8 0.2 0.12
-1 2 9 3.86 0.31
1 -2 -8 3.49 0.4
-1 2 8 2.73 0.29
-1 2 8 3.02 0.31
-1 2 7 58.11 1.94
1 -2 -7 57.16 2.07
-1 2 6 44.96 1.53
1 -2 -6 42.52 1.64
-1 2 5 65.24 1.98
-1 2 5 64.72 2.03
-1 2 4 90.38 2.61
1 -2 -4 84.91 3.25
-1 2 4 91.7 3.14
-1 2 4 92.83 2.66
1 -2 -3 120.73 4.05
-1 2 3 132.29 4.02
-1 2 2 28.4 1.19
1 -2 -1 93.9 2.98
1 -2 0 81.04 2.62
-1 2 -1 33.93 1.31
-1 2 -2 458.11 12.8
1 -2 3 2.56 0.22
1 -2 3 2.14 0.38
1 -2 4 82.66 2.53
1 -2 5 1.77 0.26
1 -2 6 162.95 4.97
1 -2 6 168.55 4.91
1 -2 7 84.01 2.67
1 -2 7 84.24 2.76
1 -2 8 0.04 0.2
1 -2 8 0.05 0.15
1 -2 9 8.76 0.41
-1 1 9 0.04 0.11
-1 1 8 1.65 0.26
1 -1 -7 0.43 0.3
-1 1 7 0.91 0.24
-1 1 7 0.71 0.2
-1 1 6 59.04 1.93
-1 1 5 61.98 1.94
1 -1 -4 142.79 3.92
-1 1 4 138.96 4.4
-1 1 4 135.21 3.92
1 -1 -4 136.09 4.5
-1 1 4 137.41 3.88
-1 1 3 374.88 10.62
-1 1 2 315.49 8.88
1 -1 -1 63.21 2
1 -1 0 59.77 1.87
-1 1 0 59.47 1.86
-1 1 0 62.58 1.87
1 -1 0 57.77 1.86
-1 1 -1 423.17 11.63
-1 1 -2 150.31 4.38
1 -1 3 455.87 13.04
-1 1 -3 475.5 13
1 -1 4 361.3 10.68
1 -1 4 370.7 10.19
1 -1 4 376.59 10.23
1 -1 4 374.67 10.15
-1 1 -4 368.01 10.67
1 -1 4 367.1 10.2
1 -1 5 9.97 0.5
1 -1 5 9.62 0.54
1 -1 6 5.49 0.44
1 -1 7 175.11 5.19
1 -1 8 0.16 0.16
1 -1 9 0.97 0.15
-1 0 9 2.11 0.24
1 0 -8 5.49 0.4
-1 0 8 5.89 0.4
-1 0 7 130.53 3.93
-1 0 6 0.04 0.17
-1 0 5 47.26 1.48
1 0 -5 39.69 1.53
-1 0 4 535.86 14.51
1 0 -4 529.49 14.61
1 0 -4 538.79 15.22
1 0 -4 528.07 15.16
-1 0 4 536.51 15.05
1 0 -3 613.49 16.95
1 0 -3 603.02 16.88
1 0 -2 31.8 1.18
-1 0 2 32.84 1.21
1 0 -2 29.99 1.22
1 0 -1 5.59 0.26
1 0 0 400.08 11.05
1 0 0 413.91 11.09
-1 0 0 403.55 11.14
-1 0 0 406.34 11.09
-1 0 0 422.3 11.05
-1 0 -1 12.74 0.56
-1 0 -1 12.89 0.44
1 0 1 11.77 0.53
1 0 2 305.89 8.18
-1 0 -2 279.8 8.4
1 0 3 360.01 10.13
-1 0 -3 369.92 10.14
-1 0 -4 16.38 1.07
-1 0 -4 16.06 0.65
1 0 4 15.69 0.6
1 0 4 14.67 0.61
-1 0 -4 16.48 0.84
1 0 4 16.55 0.83
1 0 4 15.61 0.6
1 0 4 16.01 0.63
1 0 5 179.71 5.03
-1 0 -5 178.04 5.06
1 0 5 170.53 4.97
1 0 5 175.85 4.96
1 0 6 42.8 1.52
1 0 6 43.66 1.57
1 0 6 43.19 1.44
1 0 7 2.33 0.34
1 0 8 32.77 1.3
1 0 9 -0.07 0.16
1 0 9 -0.09 0.15
-1 -1 9 13.35 0.55
-1 -1 9 13.7 0.55
-1 -1 8 0.48 0.22
1 1 -7 39.47 1.43
-1 -1 7 38.27 1.37
-1 -1 6 180.84 5.22
1 1 -4 69.75 2.19
1 1 -4 69.69 2.73
-1 -1 4 68.82 2.61
1 1 -3 0.22 0.16
-1 -1 3 0.19 0.15
-1 -1 2 133.45 3.96
-1 -1 1 327.69 9.07
-1 -1 1 330.7 9
1 1 -1 322.5 9.1
-1 -1 0 71.09 2.01
-1 -1 0 66.64 1.98
1 1 0 69.67 2.02
-1 -1 -1 227.19 6.18
1 1 2 462.06 12.45
-1 -1 -3 85.48 2.47
1 1 3 84.73 2.42
1 1 4 328.95 9.06
1 1 4 325.9 9.21
1 1 4 333.55 9.04
1 1 5 101.35 2.97
1 1 5 104.14 3.05
1 1 5 99.65 3.02
-1 -1 -5 103.7 3.07
-1 -1 -6 9.08 0.55
1 1 6 8.39 0.46
1 1 6 8.61 0.53
1 1 7 130.95 3.85
1 1 7 134.66 4.02
1 1 7 132.27 4.07
1 1 8 1.55 0.31
1 1 9 1.78 0.27
1 1 9 1.93 0.27
-1 -2 8 1.29 0.2
-1 -2 7 0.05 0.18
1 2 -6 81.4 2.6
1 2 -5 206.35 5.96
1 2 -4 41.27 1.47
1 2 -4 42.57 1.31
1 2 -3 0.86 0.13
1 2 -3 1.28 0.27
1 2 -3 0.88 0.18
-1 -2 3 1.13 0.26
-1 -2 3 0.76 0.23
1 2 -2 58.24 2.02
1 2 -2 56.68 2.07
-1 -2 2 58.04 2.02
-1 -2 1 507.87 13.89
1 2 -1 496.36 13.89
1 2 -1 500.48 13.85
-1 -2 0 17.84 0.77
1 2 0 17.13 0.7
1 2 0 17.14 0.71
-1 -2 0 18.11 0.75
-1 -2 -1 244.25 6.53
1 2 1 227.62 6.47
-1 -2 -2 6.08 0.37
1 2 2 5.9 0.29
1 2 3 44.48 1.37
1 2 4 40.71 1.31
1 2 4 41.86 1.36
1 2 4 39.93 1.29
-1 -2 -4 41.15 1.35
1 2 5 215.77 6.04
1 2 5 216.57 6.03
1 2 5 211.54 6.07
-1 -2 -5 217.95 6.12
-1 -2 -6 10.09 0.59
1 2 6 10.5 0.54
1 2 6 9.74 0.5
1 2 6 10.3 0.59
1 2 7 152.41 4.35
-1 -2 -7 139.57 4.42
1 2 7 147.83 4.24
1 2 7 150.23 4.46
1 2 8 0.17 0.22
1 2 9 1.76 0.27
1 2 10 6.26 0.32
-1 -3 8 0.12 0.09
-1 -3 7 3.53 0.33
-1 -3 7 3.83 0.35
-1 -3 6 38.65 1.45
1 3 -5 54.77 1.85
-1 -3 5 54.03 1.87
1 3 -4 9.91 0.57
-1 -3 4 10.99 0.57
-1 -3 3 159.46 4.43
1 3 -3 152.81 5.07
1 3 -3 147.48 4.45
-1 -3 3 151.02 5.05
1 3 -3 155.41 4.35
1 3 -2 51.82 1.68
1 3 -2 53.58 1.61
-1 -3 2 54.9 2.18
-1 -3 2 52.04 2.09
1 3 -2 50.31 2.09
1 3 -2 53.57 2.09
-1 -3 1 124.98 3.96
1 3 -1 125.69 3.91
1 3 -1 120.96 3.44
-1 -3 0 449.6 12.89
1 3 0 461.81 12.8
1 3 0 468.6 12.82
-1 -3 -1 396.08 10.78
1 3 1 386.95 10.53
1 3 1 361.76 10.53
-1 -3 -2 338.28 9.53
1 3 2 338.72 9.38
1 3 3 49.88 1.42
-1 -3 -3 43.99 1.72
1 3 3 45.89 1.45
1 3 3 46.19 1.39
1 3 3 43.71 1.51
1 3 4 71.83 2.04
-1 -3 -4 64.05 2.49
-1 -3 -4 69.25 2.15
1 3 4 69.42 2.12
1 3 5 16.53 0.73
-1 -3 -5 17.65 0.77
1 3 5 16.57 0.69
1 3 6 13.35 0.69
1 3 6 13.42 0.65
-1 -3 -6 13.11 0.7
1 3 6 14.2 0.63
-1 -3 -7 84.38 2.75
1 3 7 90.69 2.68
1 3 7 87.72 2.8
1 3 7 81.32 2.54
1 3 8 78.56 2.57
-1 -3 -8 74.54 2.49
1 3 8 79.97 2.56
1 3 9 0.56 0.19
-1 -4 7 10.95 0.54
-1 -4 6 5.06 0.42
-1 -4 6 4.55 0.37
-1 -4 5 117.65 3.72
-1 -4 5 131.29 3.81
-1 -4 4 53.51 1.82
-1 -4 4 54.61 1.88
1 4 -4 53.12 1.78
-1 -4 3 64.19 2.05
1 4 -3 63.57 2.06
-1 -4 3 64.75 2.1
-1 -4 2 12.49 0.94
-1 -4 2 11.76 0.57
1 4 -2 10.99 0.55
1 4 -1 68.79 2.55
-1 -4 1 65.55 2.04
1 4 -1 65.95 2.04
1 4 0 408.14 11.21
-1 -4 0 411.65 11.22
1 4 0 409.62 11.65
1 4 0 407.3 11.65
-1 -4 -1 11.87 0.84
1 4 1 12.05 0.7
1 4 1 12.2 0.56
1 4 1 12.02 0.72
1 4 1 11.97 0.49
1 4 1 12.53 0.52
-1 -4 -2 1106.96 31.07
1 4 2 1130.63 30.4
-1 -4 -2 1100.65 30.78
1 4 2 1127 30.3
1 4 2 1127.29 30.6
-1 -4 -2 1125.47 30.39
1 4 2 1129.48 30.4
1 4 3 0.67 0.17
1 4 3 1.06 0.15
-1 -4 -3 0.92 0.17
-1 -4 -3 0.97 0.23
1 4 4 189.6 5.36
1 4 4 189.91 5.25
-1 -4 -4 183.84 5.38
1 4 5 34.03 1.22
-1 -4 -5 32.19 1.25
1 4 5 32.63 1.16
1 4 6 4.94 0.35
-1 -4 -6 4.86 0.43
1 4 6 5.4 0.42
1 4 6 4.63 0.38
1 4 7 203.93 5.86
-1 -4 -7 205.79 5.97
1 4 8 5.17 0.38
1 4 8 6.36 0.49
-1 -4 -8 5.1 0.41
1 4 8 5.24 0.47
1 4 9 3.1 0.3
1 4 9 2.98 0.3
-1 -5 7 0.58 0.1
-1 -5 6 4.81 0.36
-1 -5 5 8.18 0.54
-1 -5 4 168.02 4.88
-1 -5 4 160.48 4.75
-1 -5 3 47.99 1.68
1 5 -3 45.82 1.56
1 5 -2 178.5 5.14
-1 -5 2 180.54 5.24
1 5 -1 118.89 3.43
1 5 -1 113.06 3.32
-1 -5 1 119.09 3.5
1 5 0 84.06 2.49
1 5 0 82.46 2.42
1 5 0 79.53 2.57
1 5 1 539.57 14.82
1 5 1 546.21 14.7
1 5 1 544.02 14.8
1 5 1 528.48 14.64
1 5 2 7.29 0.46
1 5 2 7.3 0.41
-1 -5 -2 7.65 0.47
1 5 2 7.58 0.38
1 5 2 7.78 0.47
1 5 3 143.3 4.24
1 5 3 147.96 4.13
-1 -5 -3 142.48 4.27
-1 -5 -4 5.7 0.44
1 5 4 6.91 0.45
-1 -5 -5 329.28 9.32
1 5 5 326.99 9.18
1 5 5 337.02 9.28
-1 -5 -6 36.5 1.43
1 5 6 37.73 1.4
1 5 7 3.41 0.4
1 5 7 4.29 0.4
-1 -5 -7 3.73 0.37
1 5 7 4.55 0.36
1 5 8 0.71 0.17
-1 -5 -8 0.74 0.18
1 5 8 0.71 0.26
1 5 8 1.07 0.24
1 5 9 1.05 0.17
1 6 -6 5.96 0.32
-1 -6 5 1.14 0.21
-1 -6 4 0.57 0.21
-1 -6 3 24.32 1.06
1 6 -2 15.85 0.68
-1 -6 2 15.39 0.79
1 6 -1 564.17 15.53
1 6 -1 557.75 15.32
1 6 0 27.07 0.95
1 6 0 27.2 1.02
1 6 0 27.24 1.15
1 6 1 196.19 5.91
1 6 1 202.81 5.71
1 6 1 209.53 5.77
1 6 1 203.06 5.95
1 6 2 45.16 1.63
-1 -6 -2 47.58 1.67
1 6 2 46.2 1.53
1 6 2 45.01 1.47
-1 -6 -3 0.17 0.17
1 6 3 0.4 0.21
1 6 3 0.32 0.17
1 6 4 62.08 2.04
-1 -6 -4 59.2 2.07
1 6 5 157.74 4.54
1 6 5 148.29 4.39
-1 -6 -5 151.45 4.56
-1 -6 -6 209.98 6.2
1 6 6 206.02 6.19
1 6 6 226.93 6.22
-1 -6 -7 1.96 0.26
1 6 7 1.57 0.22
1 6 7 2.15 0.28
1 6 7 2.17 0.3
1 6 8 1.18 0.16
1 6 8 1.09 0.18
1 6 8 1.27 0.22
1 6 8 1.13 0.23
1 7 -4 9.42 0.51
1 7 -4 10.85 0.56
1 7 -3 48.89 1.71
1 7 -2 1.35 0.3
1 7 -1 61.13 1.87
1 7 -1 58.4 2.09
1 7 -1 59.15 2.14
1 7 0 303.27 8.38
1 7 0 306.11 8.6
1 7 0 302.35 8.65
1 7 0 297.46 8.27
1 7 1 1.05 0.2
-1 -7 -1 0.99 0.27
1 7 1 1.1 0.3
1 7 1 1.31 0.18
1 7 1 0.87 0.27
1 7 2 93.24 2.93
-1 -7 -2 92.95 2.97
1 7 2 90.03 2.72
1 7 3 92.15 2.9
-1 -7 -3 92.17 2.96
-1 -7 -4 23.91 1.08
1 7 4 26.65 1.08
1 7 5 59.99 1.97
-1 -7 -5 54.95 1.97
1 7 5 58.98 1.89
-1 -7 -6 18.21 0.84
1 7 6 21.12 0.88
1 7 6 20.48 0.85
1 7 7 0.1 0.11
1 7 7 -0.02 0.16
1 7 7 -0.03 0.13
1 7 8 0.31 0.12
1 7 8 0.31 0.13
1 8 -3 2.67 0.21
1 8 -3 2.07 0.22
1 8 -2 7.5 0.43
1 8 -2 7.81 0.48
1 8 -1 29.16 1.16
1 8 -1 28.95 1.12
1 8 0 0.84 0.24
-1 -8 0 1.04 0.25
-1 -8 -1 0.16 0.21
1 8 1 0.29 0.19
-1 -8 -2 2.22 0.3
1 8 2 2.7 0.31
-1 -8 -3 12.99 0.69
1 8 3 13.42 0.68
1 8 4 6.58 0.45
-1 -8 -4 6.26 0.44
-1 -8 -5 1.02 0.2
1 8 5 0.92 0.2
1 8 6 0.96 0.13
1 8 6 1.15 0.19
1 8 7 2.94 0.23
1 9 -1 1.88 0.17
-1 -9 0 0.22 0.12
1 9 0 0.12 0.11
1 9 1 2.32 0.23
1 9 1 2.96 0.25
-1 -9 -1 2.78 0.24
-1 -9 -2 2.35 0.23
1 9 2 2.79 0.25
1 9 3 3.11 0.26
1 9 4 0.04 0.12
1 9 5 0.06 0.11
2 -9 -4 2.86 0.24
-2 9 4 2.33 0.18
2 -9 -3 1.4 0.22
-2 9 3 1.41 0.16
-2 9 2 2 0.2
-2 9 1 14.32 0.58
2 -9 0 4.36 0.31
2 -9 1 5.38 0.31
2 -8 -6 2.28 0.24
-2 8 6 2.11 0.17
2 -8 -5 4.83 0.4
-2 8 5 4.26 0.29
-2 8 4 41.49 1.41
-2 8 3 23.1 0.93
2 -8 -2 13.37 0.68
2 -8 -1 3.26 0.41
2 -8 -1 3.36 0.34
2 -8 0 11.14 0.61
2 -8 0 12.27 0.7
2 -8 1 0.78 0.2
2 -8 1 1.31 0.27
2 -8 2 7.97 0.48
2 -8 2 7.33 0.4
2 -8 3 0.86 0.17
2 -7 -7 2.12 0.25
-2 7 7 2.53 0.19
2 -7 -6 0.07 0.24
-2 7 6 0.04 0.13
-2 7 5 2.27 0.27
-2 7 4 10.46 0.59
-2 7 3 19.29 0.89
2 -7 -3 19.72 0.95
2 -7 -2 6.09 0.55
2 -7 -2 6.17 0.5
2 -7 -1 7 0.6
2 -7 -1 8.01 0.57
2 -7 0 20.84 1
2 -7 1 0.54 0.25
2 -7 2 92 2.92
2 -7 3 28.07 1.1
2 -7 4 -0.01 0.13
-2 6 8 1.14 0.18
2 -6 -8 1.09 0.2
2 -6 -7 14.94 0.77
-2 6 7 16.07 0.66
-2 6 6 7.77 0.47
-2 6 5 39.29 1.41
-2 6 4 78.57 2.51
2 -6 -3 38.47 1.56
2 -6 -3 38.09 1.5
2 -6 -2 1.55 0.33
2 -6 -2 1.8 0.32
2 -6 -1 78.67 2.58
2 -6 -1 72.78 2.5
2 -6 0 -0.19 0.23
2 -6 1 10.45 0.67
2 -6 2 6.09 0.51
2 -6 3 119.07 3.64
2 -6 3 114.19 3.52
2 -6 4 30.77 1.19
2 -6 4 27.13 1.09
2 -6 5 13.31 0.63
2 -6 5 12.01 0.57
2 -6 6 2.23 0.18
-2 5 9 3.2 0.21
2 -5 -8 1.27 0.25
-2 5 8 1.14 0.15
-2 5 7 21.44 0.86
-2 5 6 22.53 0.94
-2 5 5 7.97 0.49
2 -5 -4 0.09 0.27
-2 5 4 0.28 0.18
2 -5 -3 6.13 0.48
2 -5 -3 5.59 0.48
2 -5 -2 4.67 0.42
2 -5 -2 4.46 0.42
2 -5 -1 82.97 2.65
2 -5 0 113.83 3.29
2 -5 0 108.14 3.42
2 -5 1 11.45 0.61
2 -5 1 11.1 0.59
2 -5 1 11.98 0.67
2 -5 2 10.64 0.6
2 -5 2 10.51 0.65
2 -5 2 10.81 0.62
2 -5 3 46.49 1.7
2 -5 3 45.96 1.62
2 -5 3 49.41 1.77
2 -5 4 46.27 1.71
2 -5 4 44.02 1.65
2 -5 5 30.67 1.23
2 -5 5 28.17 1.16
2 -5 6 48.76 1.63
2 -5 6 51.01 1.69
2 -5 7 2.01 0.18
2 -5 7 1.95 0.18
-2 4 9 0.06 0.1
2 -4 -9 0.06 0.09
-2 4 8 0.42 0.14
-2 4 7 17.01 0.75
2 -4 -6 3.13 0.43
-2 4 6 3.48 0.33
2 -4 -5 5.71 0.52
-2 4 5 6.93 0.44
2 -4 -4 72.44 2.47
-2 4 4 77.83 2.34
2 -4 -3 14.3 0.71
2 -4 -3 13.82 0.71
2 -4 -2 126.74 4.52
2 -4 -2 130.35 3.89
2 -4 -2 134.62 3.91
2 -4 -1 6.02 0.41
2 -4 -1 5.55 0.35
2 -4 0 616.53 16.64
2 -4 0 613.05 16.61
2 -4 0 606.73 16.56
2 -4 0 599.11 16.54
2 -4 1 40.39 1.41
2 -4 1 44.23 1.43
2 -4 1 41.97 1.46
2 -4 1 39.53 1.35
2 -4 2 250.48 7.07
2 -4 2 245.13 7.06
2 -4 2 255.1 7.11
2 -4 3 15.73 0.82
2 -4 3 17.4 0.79
2 -4 4 25.1 1.12
2 -4 4 24.96 1.05
2 -4 5 8 0.59
2 -4 5 7.17 0.51
2 -4 6 0.35 0.26
2 -4 6 0.14 0.18
2 -4 7 0.1 0.13
2 -4 7 -0.14 0.18
-2 3 9 1.51 0.18
-2 3 8 8.4 0.44
-2 3 8 8.9 0.49
-2 3 7 22.33 0.9
2 -3 -7 20.41 1.05
2 -3 -6 0.03 0.26
-2 3 6 0.05 0.15
2 -3 -5 49.01 1.82
-2 3 5 51.44 1.66
-2 3 4 237.69 6.45
2 -3 -4 236.38 6.62
2 -3 -4 221.52 6.42
-2 3 3 91.9 2.65
-2 3 3 92.5 3.34
2 -3 -3 91.99 2.78
2 -3 -2 190.28 5.88
2 -3 -2 187.6 5.38
2 -3 -2 190.54 5.97
2 -3 -2 191.36 5.33
2 -3 -1 32.47 1.5
2 -3 -1 31.06 1.43
2 -3 -1 29.87 1.03
-2 3 1 30.85 1.44
2 -3 0 9.01 0.45
-2 3 0 9.3 0.7
2 -3 1 159.26 4.56
-2 3 -1 164.42 5.1
-2 3 -1 162.95 5.22
-2 3 -1 163.08 5.19
2 -3 1 162.66 4.6
2 -3 2 5.2 0.33
-2 3 -2 5.19 0.59
-2 3 -2 5.21 0.61
2 -3 2 5.59 0.64
2 -3 2 5.16 0.32
-2 3 -2 5.11 0.52
2 -3 3 280.52 7.75
2 -3 3 274.77 7.7
2 -3 4 12.93 0.67
2 -3 4 13.08 0.64
2 -3 5 27.95 1.12
2 -3 5 27.17 1.14
2 -3 6 8.39 0.53
2 -3 7 25.1 0.99
2 -3 8 8.44 0.39
-2 2 9 2.46 0.2
2 -2 -9 3.11 0.26
-2 2 8 0.32 0.13
-2 2 7 83.99 2.64
2 -2 -7 88.6 2.87
2 -2 -6 20.09 0.96
-2 2 6 17.68 0.78
2 -2 -5 44.19 1.61
2 -2 -5 44.57 1.46
-2 2 5 43.25 1.45
2 -2 -4 46.21 1.63
-2 2 4 47.7 1.5
2 -2 -4 48.67 1.54
2 -2 -3 503.35 13.48
2 -2 -3 468.5 13.98
2 -2 -3 486.6 13.4
-2 2 3 503.74 14.06
-2 2 2 89.08 3.04
2 -2 -2 87.85 3
2 -2 -1 134.17 4.11
2 -2 -1 133.93 4.19
-2 2 0 340.65 9.9
2 -2 0 359.73 9.98
-2 2 -1 712.64 19.97
-2 2 -1 727.2 19.94
-2 2 -2 439.21 12.36
2 -2 2 434 12
-2 2 -2 426.62 12.55
2 -2 2 444.94 12.01
2 -2 2 441.47 12.63
-2 2 -2 444.85 12.55
2 -2 3 286.34 8.18
-2 2 -3 280.17 8.53
2 -2 3 298.92 8.18
2 -2 3 289.45 8.94
2 -2 3 301.17 8.07
-2 2 -3 286.96 8.84
2 -2 4 48.89 1.69
2 -2 4 49.57 1.69
2 -2 4 50.3 1.59
2 -2 5 4.14 0.41
2 -2 5 4.13 0.39
2 -2 6 276.88 7.69
2 -2 6 256.84 7.65
2 -2 7 3.62 0.41
2 -2 7 3.52 0.33
2 -2 7 3.69 0.38
2 -2 8 1.01 0.17
2 -2 8 1.25 0.25
2 -2 9 2.02 0.18
-2 1 8 2.54 0.27
2 -1 -8 2.12 0.26
2 -1 -7 28.42 1.26
2 -1 -6 234.07 6.83
-2 1 6 233.98 6.61
-2 1 5 242.21 6.9
2 -1 -5 256.59 7.11
2 -1 -4 33.61 1.22
-2 1 4 32.66 1.09
2 -1 -4 33.13 1.14
2 -1 -4 34.14 1.54
2 -1 -3 42.05 1.64
2 -1 -3 45.01 1.44
2 -1 -3 42.79 1.4
-2 1 3 45.37 1.83
2 -1 -2 4.37 0.41
2 -1 -1 193.19 5.48
-2 1 1 198.6 5.69
2 -1 -1 188.87 5.6
-2 1 0 9999 266.63
2 -1 0 9888.92 266.69
2 -1 1 953.32 25.66
-2 1 -1 928.03 25.59
-2 1 -2 16.94 0.78
2 -1 2 18.12 0.97
-2 1 -2 18.47 0.91
2 -1 3 62.89 1.95
-2 1 -3 60.47 2.11
2 -1 3 61.54 2.42
2 -1 3 64.55 1.88
-2 1 -4 97.77 3.2
2 -1 4 96.13 2.92
2 -1 5 259.65 7.57
2 -1 5 271.52 7.45
2 -1 6 53.2 1.93
2 -1 6 53.83 1.93
2 -1 6 56.79 1.81
2 -1 7 179.12 5.36
2 -1 7 181.44 5.36
2 -1 8 0.25 0.22
2 -1 8 0.17 0.2
2 -1 8 0.28 0.15
2 -1 9 0.34 0.15
-2 0 9 9.95 0.43
2 0 -8 4.16 0.36
-2 0 7 25.54 1
2 0 -7 24.77 1.05
2 0 -6 641.35 17.73
-2 0 5 67.68 2.09
2 0 -5 67.34 2.24
2 0 -4 238.23 6.68
-2 0 4 229.81 6.54
2 0 -4 243.35 6.62
2 0 -3 539.48 14.64
2 0 -3 524.08 14.37
-2 0 3 516.84 14.85
2 0 -3 527.15 14.35
2 0 -2 47.81 1.85
2 0 -2 50.42 1.58
-2 0 2 46.03 1.78
2 0 -1 1107.48 29.89
2 0 -1 1114.03 29.9
2 0 -1 1133.12 30.17
-2 0 1 1137.29 30.28
-2 0 0 254.01 7.47
2 0 0 269.63 7.29
2 0 0 274.88 7.4
-2 0 -1 6096.07 164.08
2 0 1 6156.05 164.16
-2 0 -2 69.77 2.06
-2 0 -3 83.73 2.52
2 0 4 1.19 0.16
-2 0 -4 0.84 0.17
2 0 4 1.58 0.19
2 0 4 0.95 0.17
2 0 4 1.35 0.21
2 0 5 174.62 5.08
2 0 5 176.05 5.03
2 0 5 179.18 5.15
2 0 5 180.98 5.05
2 0 6 17.47 0.85
2 0 6 17.74 0.8
2 0 6 16.44 0.75
2 0 7 128.87 4.09
2 0 7 135.23 3.91
2 0 8 10.93 0.64
2 0 8 10.04 0.64
2 0 9 0.87 0.2
2 0 9 0.44 0.18
-2 -1 8 6.37 0.4
2 1 -7 31.15 1.26
2 1 -6 66.53 2.34
2 1 -6 68.11 2.24
2 1 -5 196.65 5.72
2 1 -4 13.52 0.56
2 1 -4 15.84 0.71
2 1 -3 280.22 7.59
2 1 -3 267.67 7.54
2 1 -3 271.74 7.55
2 1 -2 83.27 2.86
-2 -1 2 81.76 2.77
2 1 -2 84.63 2.51
2 1 -1 2407.84 64.96
2 1 0 674.69 18.04
2 1 0 668.92 17.8
-2 -1 0 629.24 17.98
-2 -1 -1 141.93 4.07
-2 -1 -2 93.15 2.97
-2 -1 -3 25.53 1.24
2 1 4 1286.3 34.65
2 1 4 1290.35 34.63
-2 -1 -4 1297.56 35.48
2 1 4 1273.39 34.69
2 1 5 23.95 0.93
2 1 5 26.13 1
2 1 5 25.35 0.91
-2 -1 -5 23.06 0.91
2 1 5 24.73 0.93
2 1 5 24.33 0.98
2 1 6 20.18 0.83
2 1 6 20.31 0.84
2 1 6 18.33 0.9
2 1 6 20.7 0.87
2 1 6 19.5 0.92
2 1 7 39.86 1.46
2 1 7 38.1 1.37
2 1 7 40.71 1.53
2 1 8 -0.05 0.23
2 1 9 -0.1 0.19
2 1 9 0.11 0.15
-2 -2 8 15.47 0.65
-2 -2 7 71.4 2.24
2 2 -7 68.55 2.23
2 2 -6 59.08 2.06
2 2 -5 10.63 0.67
2 2 -5 10.99 0.61
2 2 -4 91.16 2.88
2 2 -4 92 2.69
2 2 -4 89.39 2.82
2 2 -3 0.14 0.15
2 2 -3 -0.02 0.17
2 2 -3 0.09 0.12
2 2 -2 2134.69 59.2
2 2 -2 2177.63 58.8
2 2 -2 2167.36 58.66
2 2 -2 2193.81 58.61
2 2 -2 2173 58.69
2 2 -2 2181.34 58.57
-2 -2 2 2232.75 59.1
-2 -2 1 24.73 0.9
2 2 -1 23.31 1.09
-2 -2 1 21.64 1.01
2 2 0 63.86 2.08
2 2 0 65.09 1.9
-2 -2 0 62.14 2.05
2 2 1 2.08 0.17
-2 -2 -2 395.17 10.73
-2 -2 -3 4.58 0.34
-2 -2 -3 4.28 0.46
2 2 4 14.49 0.51
2 2 4 14.64 0.59
2 2 4 14.11 0.63
2 2 4 14.61 0.61
2 2 5 61.77 1.97
2 2 5 63.1 1.97
2 2 6 32.29 1.24
-2 -2 -6 30.89 1.15
2 2 6 30.4 1.17
2 2 6 28.37 1.13
2 2 6 31.34 1.15
2 2 6 31.48 1.25
2 2 7 49 1.76
2 2 7 48.39 1.67
2 2 7 46.56 1.58
2 2 7 43.7 1.72
2 2 8 1.43 0.28
2 2 8 1.78 0.34
2 2 8 1.2 0.27
2 2 8 1.42 0.21
2 2 9 22.26 0.87
2 2 10 0.68 0.11
-2 -3 8 36.93 1.15
-2 -3 7 1.73 0.24
2 3 -6 5.55 0.42
-2 -3 6 6.21 0.41
-2 -3 5 42.53 1.5
2 3 -5 42.28 1.58
-2 -3 4 4.9 0.36
2 3 -4 4.43 0.43
2 3 -4 4.8 0.33
2 3 -3 103.2 3.19
2 3 -3 104.03 3.14
2 3 -3 102.72 3.03
2 3 -2 3.26 0.45
-2 -3 2 2.84 0.43
2 3 -2 3.07 0.26
2 3 -2 2.92 0.29
2 3 -2 3.3 0.31
-2 -3 1 144.02 4.3
2 3 -1 137.42 4.06
2 3 -1 138.69 4.46
-2 -3 1 145.01 4.48
2 3 -1 139.79 4.31
2 3 0 246.74 7
2 3 0 238.98 6.65
-2 -3 0 236.61 7.03
2 3 0 244.83 6.81
-2 -3 -1 548.14 14.73
2 3 1 527.81 14.36
2 3 1 518.95 14.4
2 3 1 530.7 14.5
2 3 2 64.14 1.95
2 3 2 63.72 1.89
2 3 2 62.96 1.83
2 3 3 519.28 13.72
2 3 3 505.6 13.61
2 3 3 505.47 13.61
2 3 3 495.64 13.64
-2 -3 -3 473.35 13.81
2 3 4 6.41 0.32
2 3 4 5.83 0.35
2 3 4 6.11 0.39
2 3 5 55.04 1.76
2 3 5 53.95 1.82
2 3 5 52.52 1.76
-2 -3 -6 9.68 0.53
2 3 6 9.15 0.55
2 3 6 10.64 0.56
2 3 6 8.28 0.6
2 3 7 4.81 0.44
-2 -3 -7 4.63 0.37
2 3 7 5.22 0.43
2 3 7 5.54 0.4
2 3 8 10.13 0.56
2 3 8 10.2 0.59
2 3 8 10.46 0.63
2 3 8 9 0.47
2 3 8 10.44 0.66
2 3 9 10.44 0.58
2 3 9 10.81 0.49
2 3 10 0.14 0.08
-2 -4 7 7.53 0.39
-2 -4 6 4.75 0.38
-2 -4 5 66.05 2.12
2 4 -5 59.92 2.04
2 4 -4 55.2 1.92
-2 -4 4 56.28 1.91
2 4 -3 24.03 1.03
2 4 -3 24.5 0.93
-2 -4 3 23.92 0.99
-2 -4 2 61.13 1.96
2 4 -2 61.01 2.03
2 4 -2 62.59 1.94
-2 -4 1 44.22 1.46
2 4 -1 45.32 1.53
2 4 0 17.67 0.73
2 4 0 17.09 0.96
2 4 0 17.2 0.67
-2 -4 0 17.5 0.68
-2 -4 -1 242.52 7.37
2 4 1 235.02 7.1
2 4 1 250.94 6.79
2 4 2 32.39 1.19
-2 -4 -2 32.24 1.57
2 4 2 32.07 1.11
2 4 2 34.45 1.06
2 4 3 6.1 0.41
2 4 3 6.69 0.36
2 4 3 5.93 0.34
2 4 3 6.77 0.38
2 4 4 98.38 2.81
2 4 4 93.71 2.88
2 4 5 89.43 2.73
2 4 5 87.66 2.78
2 4 5 88.61 2.74
2 4 6 26.47 1.04
2 4 6 25.35 1
2 4 6 23.19 1.09
2 4 7 63.11 2.18
2 4 7 63.27 2.11
2 4 7 65.43 2.15
2 4 7 64.5 2.05
2 4 7 68.24 2.27
2 4 8 10.98 0.63
2 4 8 10.69 0.59
2 4 8 11.37 0.57
2 4 8 10.23 0.47
2 4 9 9.34 0.5
2 4 9 8.98 0.47
-2 -5 6 25.76 0.9
2 5 -6 23.39 0.85
-2 -5 5 0.02 0.16
-2 -5 4 0.02 0.19
2 5 -4 0.2 0.17
-2 -5 3 36.37 1.36
2 5 -3 35.91 1.34
2 5 -2 310.86 8.63
-2 -5 2 302 8.61
2 5 -1 11.11 0.59
-2 -5 1 9.61 0.54
2 5 0 32.42 1.19
2 5 1 28.94 1.14
2 5 1 26.1 1.1
2 5 1 28.12 1.01
2 5 1 28.08 1.04
2 5 2 17.1 0.8
2 5 2 18.36 0.72
2 5 2 17.3 0.81
2 5 3 2.49 0.3
2 5 3 2.36 0.25
2 5 3 2.08 0.25
2 5 4 1.12 0.2
2 5 4 1.63 0.22
2 5 4 1.29 0.23
2 5 5 2.21 0.31
2 5 5 3.05 0.32
2 5 6 90.63 2.88
2 5 6 95.79 2.98
2 5 6 90.53 2.83
2 5 7 2.67 0.31
2 5 7 2.29 0.29
2 5 7 3.17 0.34
2 5 7 2.36 0.26
2 5 7 2.23 0.34
2 5 8 8.8 0.51
2 5 8 8.74 0.5
2 5 8 8.59 0.47
2 5 8 9.19 0.57
2 5 9 1.12 0.16
2 5 9 1.39 0.17
2 6 -5 5.03 0.35
-2 -6 4 0.29 0.18
-2 -6 3 9.97 0.59
2 6 -3 10.54 0.53
-2 -6 2 6.06 0.46
2 6 -2 5.97 0.42
2 6 -1 36.02 1.47
2 6 -1 35.98 1.23
2 6 -1 36.95 1.33
2 6 0 20.02 1.02
2 6 0 21.22 0.83
2 6 0 22.03 1.03
2 6 0 21.25 0.89
2 6 1 110.97 3.48
2 6 1 109.55 3.32
2 6 1 111.98 3.47
2 6 1 110.36 3.26
2 6 2 59.57 2.03
2 6 2 59.33 1.86
2 6 2 55.77 1.88
-2 -6 -2 57.22 1.92
2 6 3 135.87 4.16
2 6 3 139.63 3.99
2 6 3 136.56 4.08
2 6 4 161.66 4.74
2 6 5 0.83 0.22
2 6 5 0.95 0.21
2 6 6 9.76 0.6
2 6 6 11.26 0.61
2 6 6 10.32 0.54
2 6 7 0.05 0.15
2 6 7 0.04 0.16
2 6 7 -0.06 0.18
2 6 8 9.2 0.44
2 6 8 9.3 0.47
2 6 8 8.5 0.49
2 6 9 2.82 0.18
2 7 -4 -0.01 0.14
2 7 -4 0.08 0.14
2 7 -3 0.63 0.23
2 7 -3 0.66 0.22
2 7 -2 -0.1 0.24
2 7 -2 0.15 0.13
2 7 -2 -0.05 0.21
2 7 -1 2.93 0.28
2 7 -1 3.19 0.39
2 7 0 24.52 0.9
2 7 0 24.98 1.16
2 7 0 26.44 1
2 7 0 26.2 1.15
2 7 1 22.04 1.04
2 7 1 22.75 0.9
2 7 1 22.27 1.04
-2 -7 -1 19.48 0.92
2 7 1 22.75 0.84
2 7 2 7.56 0.57
-2 -7 -2 6.17 0.46
2 7 2 7.43 0.43
2 7 3 0.25 0.22
2 7 3 0.38 0.18
2 7 3 0.41 0.2
2 7 4 4.92 0.4
2 7 5 30.28 1.16
2 7 5 29.96 1.12
2 7 6 0.71 0.19
2 7 7 0.46 0.13
2 7 7 0.39 0.16
2 7 7 0.41 0.14
2 7 8 0.04 0.07
2 7 8 -0.01 0.1
2 8 -3 12.77 0.52
2 8 -2 12.4 0.58
2 8 -1 0.38 0.21
2 8 -1 0.47 0.11
2 8 -1 0.78 0.22
2 8 0 4.13 0.28
2 8 0 3.86 0.39
2 8 1 0.3 0.22
2 8 1 0.67 0.17
2 8 1 0.79 0.14
2 8 2 5.25 0.42
2 8 2 5.36 0.32
2 8 2 5.51 0.39
2 8 3 0.49 0.18
2 8 4 12.16 0.6
2 8 5 9.33 0.49
2 8 6 28.5 0.97
2 8 6 30.34 1.02
2 8 7 1.66 0.15
2 9 0 40.09 1.3
2 9 1 6.8 0.38
2 9 1 6.47 0.31
2 9 2 2.14 0.18
2 9 3 4.22 0.26
2 9 4 2.63 0.2
2 9 5 0.97 0.12
3 -9 -3 2.39 0.2
3 -9 -2 3.78 0.26
3 -9 -1 0.19 0.12
3 -8 -6 5.21 0.29
3 -8 -5 26.79 1
3 -8 -4 7.69 0.48
-3 8 4 7.52 0.36
3 -8 -3 9.86 0.58
-3 8 3 9.66 0.46
3 -8 -2 37.51 1.42
3 -8 -2 38.33 1.38
-3 8 2 37.56 1.27
3 -8 -1 28.87 1.13
3 -8 -1 29.34 1.18
3 -8 0 2.22 0.27
3 -8 0 2.34 0.31
3 -8 1 51.58 1.72
3 -8 1 54.27 1.76
3 -8 2 11.24 0.51
3 -8 2 11.49 0.53
3 -7 -7 0.07 0.11
3 -7 -6 2.78 0.31
-3 7 5 60.36 1.89
3 -7 -5 65.65 2.13
3 -7 -4 29.73 1.24
-3 7 4 28.44 1.04
3 -7 -3 3.26 0.39
3 -7 -3 2.56 0.38
-3 7 3 3 0.29
3 -7 -2 0.17 0.25
3 -7 -2 0.51 0.27
3 -7 -1 2.49 0.37
3 -7 -1 2.38 0.36
3 -7 0 10.34 0.68
3 -7 0 10.19 0.67
3 -7 1 0.1 0.25
3 -7 1 0.39 0.25
3 -7 2 55.03 1.91
3 -7 3 0.66 0.22
3 -7 4 7.38 0.4
3 -7 4 7.56 0.38
3 -6 -7 22.28 0.91
3 -6 -6 2.65 0.34
3 -6 -5 2.44 0.39
-3 6 5 3.25 0.27
3 -6 -4 68.5 2.34
-3 6 4 66.07 2.1
3 -6 -4 64.49 2.17
3 -6 -3 -0.09 0.27
3 -6 -3 0.09 0.25
-3 6 3 0.15 0.17
3 -6 -2 63.32 2.26
3 -6 -2 64.84 2.26
3 -6 -1 15.14 0.83
3 -6 -1 13.71 0.82
3 -6 0 68.56 2.42
3 -6 0 71.59 2.43
3 -6 1 3.05 0.41
3 -6 2 2.22 0.37
3 -6 2 2.62 0.3
3 -6 3 0.24 0.26
3 -6 3 0.97 0.23
3 -6 4 5.36 0.44
3 -6 4 4.96 0.38
3 -6 5 28.19 1.03
3 -6 5 27.11 0.97
3 -5 -8 4.28 0.31
-3 5 8 4.84 0.29
3 -5 -7 21.73 0.96
3 -5 -6 57.49 2.06
3 -5 -5 0.09 0.25
-3 5 5 0.21 0.14
3 -5 -4 19.85 0.99
-3 5 4 20.52 0.82
3 -5 -4 19.23 0.89
3 -5 -3 51.42 1.85
-3 5 3 49.03 1.64
3 -5 -2 66.9 2.28
3 -5 -1 108.95 3.4
3 -5 0 1.98 0.28
3 -5 1 48.5 1.65
3 -5 1 49.13 1.72
3 -5 1 50.02 1.75
3 -5 2 0.75 0.25
3 -5 2 0.64 0.22
3 -5 3 44.95 1.64
3 -5 3 45.25 1.69
3 -5 4 30.13 1.17
3 -5 4 28.69 1.23
3 -5 5 8.66 0.48
3 -5 5 9.27 0.59
3 -5 6 26.71 1.02
3 -5 6 26.81 1.01
3 -4 -8 2.94 0.29
-3 4 8 2.82 0.23
3 -4 -7 107.04 3.35
3 -4 -6 39.19 1.58
3 -4 -5 3.66 0.45
-3 4 5 4.29 0.31
3 -4 -4 0.19 0.17
3 -4 -4 -0.03 0.22
-3 4 4 0.14 0.13
3 -4 -3 19.99 0.9
-3 4 3 18.02 0.73
3 -4 -3 18.02 0.88
3 -4 -2 1.33 0.27
3 -4 -2 2.45 0.31
3 -4 -1 9.26 0.56
3 -4 -1 8.87 0.53
3 -4 -1 8.51 0.51
3 -4 0 49.8 1.72
3 -4 0 49.92 1.66
3 -4 0 48.07 1.71
3 -4 0 49.53 1.67
3 -4 1 6.12 0.46
3 -4 1 5.75 0.41
3 -4 1 6.15 0.45
3 -4 1 6.06 0.44
3 -4 2 28.23 1.16
3 -4 2 27.4 1.18
3 -4 2 28.44 1.15
3 -4 3 11.99 0.66
3 -4 3 13.46 0.66
3 -4 3 14.51 0.76
3 -4 3 14.38 0.77
3 -4 4 14.69 0.75
3 -4 4 16.83 0.84
3 -4 4 16.77 0.88
3 -4 5 5.05 0.4
3 -4 5 5.83 0.47
3 -4 5 5.22 0.5
3 -4 6 15.97 0.69
3 -4 6 15.59 0.72
3 -4 6 14.33 0.77
3 -4 7 3.15 0.29
3 -4 7 3.52 0.31
3 -3 -8 2.31 0.28
-3 3 8 1.81 0.19
3 -3 -7 10.43 0.65
3 -3 -6 58.73 2.1
3 -3 -5 29.1 1.24
3 -3 -5 28.95 1.08
3 -3 -4 13.87 0.74
3 -3 -4 13.65 0.65
3 -3 -4 14.48 0.68
3 -3 -3 44.03 1.54
3 -3 -3 43.14 1.53
3 -3 -3 43.04 1.47
3 -3 -3 43.1 1.51
3 -3 -2 6.3 0.42
3 -3 -2 5.82 0.56
3 -3 -2 6.18 0.41
3 -3 -1 14.31 0.64
3 -3 -1 13.94 0.65
3 -3 -1 13.92 0.62
3 -3 -1 13.01 0.95
3 -3 0 14.7 0.67
-3 3 0 15.14 1
3 -3 0 15.48 0.68
3 -3 0 15.29 0.69
3 -3 1 6.34 0.42
3 -3 1 7.84 0.73
3 -3 1 6.79 0.42
3 -3 1 5.36 0.39
-3 3 -1 6.72 0.66
-3 3 -1 6.2 0.61
3 -3 1 6.22 0.41
3 -3 2 191.64 5.41
3 -3 2 188.62 5.36
3 -3 2 183.33 5.3
3 -3 3 0.05 0.12
3 -3 3 0.07 0.2
3 -3 4 14.43 0.68
3 -3 4 14.32 0.71
3 -3 4 15.5 0.8
3 -3 5 4.32 0.36
3 -3 5 4.7 0.47
3 -3 5 4.3 0.37
3 -3 6 73.21 2.29
3 -3 6 71.3 2.45
3 -3 7 72.96 2.36
3 -3 8 0.17 0.12
3 -3 8 0.26 0.13
3 -2 -8 3.7 0.34
3 -2 -7 1.1 0.28
3 -2 -6 35.78 1.45
3 -2 -5 3.95 0.41
3 -2 -5 4.26 0.36
3 -2 -4 115.92 3.52
3 -2 -4 116.89 3.44
3 -2 -4 113.64 3.43
3 -2 -3 58.06 1.88
3 -2 -3 59.85 1.9
3 -2 -3 57.01 1.89
-3 2 2 71.13 2.86
3 -2 -2 75.57 2.6
3 -2 -2 80.68 2.33
3 -2 -2 76.12 2.35
3 -2 -2 73.9 2.81
3 -2 -2 77.31 2.33
3 -2 -1 53.59 1.67
-3 2 1 52.78 2.12
3 -2 -1 50.86 1.65
3 -2 -1 54.54 2.09
3 -2 0 6.09 0.54
3 -2 0 6.24 0.36
3 -2 0 5.73 0.34
-3 2 0 5.69 0.51
3 -2 0 5.46 0.35
3 -2 1 488.41 13.37
-3 2 -1 476.35 13.89
3 -2 1 511.02 13.96
3 -2 1 488.41 13.39
3 -2 1 494.18 13.41
-3 2 -1 478.49 13.84
-3 2 -2 41.81 1.7
3 -2 2 41.03 1.39
-3 2 -2 40.58 1.86
3 -2 2 40.68 1.89
-3 2 -2 40.12 1.81
3 -2 2 41.84 1.28
3 -2 2 40.93 1.4
3 -2 3 66.54 2.1
-3 2 -3 63.38 2.38
3 -2 3 65.15 2.12
3 -2 3 65.6 1.99
3 -2 4 76.59 2.4
3 -2 4 80.42 2.54
3 -2 4 80.51 2.57
3 -2 4 80.9 2.42
3 -2 5 0.76 0.27
3 -2 5 0.18 0.24
3 -2 5 0.19 0.15
3 -2 6 10.11 0.67
3 -2 6 10.5 0.67
3 -2 6 9.57 0.57
3 -2 6 9.69 0.53
3 -2 7 109.47 3.41
3 -2 8 6.68 0.42
3 -2 8 6.19 0.42
3 -1 -8 4.35 0.39
3 -1 -8 5.02 0.35
3 -1 -7 29.64 1.25
3 -1 -6 0.05 0.23
3 -1 -5 55.12 1.97
3 -1 -5 59.06 1.91
3 -1 -4 214.75 6.17
3 -1 -4 220.08 6.14
3 -1 -4 212.06 6.1
3 -1 -3 123.43 3.63
3 -1 -3 115.15 4.1
3 -1 -3 125.03 3.64
3 -1 -3 125.74 3.64
3 -1 -2 1.31 0.26
3 -1 -2 1.04 0.18
3 -1 -2 1.29 0.17
3 -1 -2 1.45 0.18
-3 1 2 1.07 0.27
-3 1 1 11.86 0.77
3 -1 -1 11.92 0.71
3 -1 0 756.77 20.31
-3 1 0 721.76 20.5
3 -1 0 744.3 20.43
3 -1 1 12.5 0.71
-3 1 -1 11.83 0.67
-3 1 -1 11.89 0.7
-3 1 -2 1.1 0.23
3 -1 2 0.75 0.16
3 -1 2 0.99 0.24
-3 1 -2 0.6 0.16
3 -1 3 38.45 1.37
3 -1 3 39.82 1.34
-3 1 -3 40.6 1.5
3 -1 3 41.01 1.29
-3 1 -3 37.3 1.7
3 -1 4 1.37 0.22
3 -1 4 1.2 0.22
3 -1 5 131.22 4.09
3 -1 5 137.56 4.05
3 -1 5 135.73 3.96
3 -1 6 10.74 0.65
3 -1 6 10.31 0.7
3 -1 7 0.49 0.29
3 -1 7 0.42 0.24
3 -1 8 49.87 1.72
3 -1 8 48.8 1.68
3 -1 9 0.22 0.11
3 0 -8 1.09 0.22
3 0 -7 7.77 0.6
3 0 -7 8.21 0.54
3 0 -6 72.15 2.47
3 0 -5 0.79 0.23
3 0 -4 0.03 0.15
3 0 -4 -0.02 0.17
3 0 -4 -0.07 0.2
3 0 -3 25.33 0.94
3 0 -3 26.74 0.99
3 0 -2 0.32 0.14
3 0 -2 0.25 0.15
-3 0 2 0.16 0.16
3 0 -1 160.05 4.78
-3 0 1 167.24 4.98
-3 0 0 110.4 3.42
3 0 0 110.51 3.28
-3 0 -1 7.09 0.43
-3 0 -1 6.56 0.37
-3 0 -2 386.77 10.39
-3 0 -2 362.98 10.26
3 0 3 5.02 0.33
3 0 3 5.02 0.31
3 0 4 190.69 5.35
3 0 4 191.62 5.31
3 0 4 187.45 5.27
3 0 4 185.31 5.42
3 0 4 188.2 5.34
3 0 5 97.38 2.88
3 0 5 99.29 2.97
3 0 5 96.09 2.93
3 0 5 95.46 3.03
3 0 6 1.71 0.27
3 0 6 1.67 0.31
3 0 7 115.65 3.58
3 0 7 116.82 3.49
3 0 8 0.2 0.19
3 0 8 -0.02 0.23
3 0 9 -0.03 0.15
3 0 9 0.04 0.11
3 1 -8 2.44 0.22
3 1 -7 1.54 0.29
3 1 -7 1.43 0.22
3 1 -6 85.37 2.8
3 1 -6 79.97 2.68
3 1 -5 160.38 4.83
3 1 -5 156.44 4.77
3 1 -4 84.7 2.57
3 1 -4 85.63 2.61
3 1 -4 79.35 2.7
3 1 -3 4.27 0.34
3 1 -3 5.07 0.37
3 1 -3 4.4 0.39
3 1 -2 84.6 3.06
3 1 -2 82.62 2.52
3 1 -2 86.48 2.55
3 1 -2 82.04 2.58
3 1 -1 592.54 15.84
-3 -1 1 606.25 15.77
3 1 -1 570.74 15.49
3 1 -1 568.98 15.43
-3 -1 0 10.37 0.58
3 1 0 10.75 0.36
-3 -1 -1 272.62 7.55
-3 -1 -2 20.78 0.97
3 1 3 3.68 0.27
-3 -1 -3 3.98 0.45
3 1 3 3.56 0.27
-3 -1 -3 3.4 0.28
3 1 4 79.55 2.33
-3 -1 -4 76.24 2.98
3 1 4 77.5 2.23
3 1 4 68.24 2.33
3 1 4 71.33 2.27
3 1 5 267.2 7.27
3 1 5 266.55 7.13
3 1 5 262.22 7.15
3 1 5 258.86 7.29
3 1 6 8.2 0.58
3 1 6 8.36 0.5
3 1 6 7.76 0.5
3 1 6 7.88 0.52
3 1 7 64.26 2.28
3 1 7 65 2.18
3 1 7 68.32 2.14
3 1 8 5.35 0.48
3 1 8 5.38 0.4
3 1 8 5.04 0.36
3 1 9 2.9 0.23
3 2 -7 4.22 0.35
3 2 -6 6.98 0.55
3 2 -6 7.9 0.5
3 2 -5 28.48 1.26
3 2 -5 28.47 1
3 2 -5 28.42 1.2
3 2 -4 1.28 0.31
3 2 -4 1.27 0.22
3 2 -4 1.46 0.3
3 2 -3 12.77 0.7
3 2 -3 12.56 0.6
3 2 -3 10.9 0.65
3 2 -2 76.31 2.99
3 2 -2 80.25 2.45
3 2 -2 80.29 2.4
-3 -2 2 78.84 2.88
3 2 -2 79.12 2.5
3 2 -1 0.23 0.17
3 2 -1 0.04 0.11
-3 -2 1 -0.03 0.11
3 2 -1 -0.01 0.12
3 2 -1 0.02 0.15
3 2 0 288.12 8.19
3 2 0 280.9 7.93
3 2 0 285.26 7.92
3 2 0 290.17 7.96
-3 -2 0 287.9 8.11
-3 -2 -1 25.88 0.96
-3 -2 -1 30.78 1.03
3 2 2 17.21 0.7
-3 -2 -2 19.8 0.92
3 2 3 -0.01 0.1
-3 -2 -3 0.13 0.15
3 2 3 0.11 0.09
3 2 3 0.04 0.12
3 2 4 36.01 1.25
-3 -2 -4 34.78 1.78
3 2 4 36.51 1.19
3 2 4 36.12 1.31
3 2 5 2.96 0.31
3 2 5 3.07 0.27
3 2 5 2.11 0.31
3 2 5 2.79 0.31
3 2 6 21.21 0.93
3 2 6 19.18 0.83
3 2 6 18.7 0.84
3 2 6 19.48 0.88
3 2 7 54.72 1.89
3 2 7 51.47 1.75
3 2 7 50.42 1.76
3 2 7 49.35 1.73
3 2 8 73.31 2.41
3 2 8 71.84 2.27
3 2 8 72.4 2.24
3 2 9 0.05 0.17
-3 -3 7 3.1 0.24
-3 -3 6 7.92 0.48
3 3 -6 7.54 0.5
3 3 -5 69.74 2.38
3 3 -4 103.24 3.31
3 3 -4 101.97 3.06
3 3 -3 157.77 4.63
3 3 -3 150.91 4.43
3 3 -3 152.01 4.57
3 3 -2 29.31 1.16
3 3 -2 26.46 1.03
3 3 -2 28.35 1.13
-3 -3 1 15.8 0.96
3 3 -1 16.26 0.62
3 3 -1 14.38 0.96
3 3 0 107.31 3.18
3 3 0 103.54 3.15
3 3 0 106.72 3.18
-3 -3 0 113.04 3.48
3 3 0 107.62 3.48
3 3 1 27.04 1
3 3 1 24.55 1.02
3 3 1 26.97 0.97
3 3 1 27.11 0.98
-3 -3 -1 28.28 1.11
3 3 2 629.28 17.03
3 3 2 620.14 16.94
3 3 3 9.89 0.44
-3 -3 -3 10.66 0.78
3 3 3 10.17 0.46
3 3 3 10.8 0.52
3 3 4 45.39 1.52
3 3 4 46.32 1.45
3 3 4 46.51 1.49
3 3 4 48.87 1.61
3 3 5 105.01 3.31
3 3 5 111.99 3.15
3 3 5 111.79 3.28
3 3 5 108.71 3.4
3 3 5 112.01 3.35
3 3 6 4.2 0.4
3 3 6 4.07 0.36
3 3 6 4.15 0.38
3 3 6 4.4 0.4
3 3 6 4.33 0.44
3 3 7 141.82 4.3
3 3 7 144.63 4.22
3 3 7 141.24 4.21
3 3 7 132 4.32
3 3 7 147.85 4.2
3 3 8 13.45 0.72
3 3 8 12.85 0.64
3 3 8 13.12 0.65
3 3 8 13.56 0.61
3 3 9 0.16 0.15
-3 -4 6 2.26 0.22
3 4 -6 2.1 0.2
-3 -4 5 0.31 0.16
3 4 -5 0.31 0.2
3 4 -5 0.32 0.18
-3 -4 4 158.93 4.62
3 4 -4 155.68 4.73
-3 -4 3 63.35 2.08
3 4 -3 67.14 2.08
3 4 -3 63.64 2.22
3 4 -2 29.9 1.21
3 4 -2 28.53 1.12
-3 -4 2 29.74 1.07
3 4 -1 194.13 5.54
3 4 -1 186.56 5.52
3 4 0 31.45 1.23
3 4 0 33.38 1.15
3 4 0 30.94 1.21
3 4 1 547.64 14.95
3 4 1 546.63 14.88
3 4 1 538.16 14.82
3 4 1 543.86 14.94
3 4 2 33.48 1.16
3 4 2 33.34 1.1
3 4 3 214.63 6.39
3 4 3 227.6 6.26
3 4 3 226.64 6.27
3 4 3 221.36 6.24
3 4 3 226.1 6.3
3 4 4 44.96 1.44
3 4 4 45.52 1.44
3 4 4 43.29 1.46
3 4 4 42.79 1.53
3 4 5 196.92 5.71
3 4 5 204.19 5.62
3 4 5 198.39 5.72
3 4 5 195.32 5.82
3 4 5 205.28 5.8
3 4 6 9.49 0.56
3 4 6 9.23 0.55
3 4 6 9.44 0.63
3 4 6 8.57 0.57
3 4 7 10.41 0.6
3 4 7 9.51 0.58
3 4 7 10.28 0.58
3 4 7 11.05 0.69
3 4 7 11.11 0.6
3 4 8 13.23 0.65
3 4 8 12.38 0.61
3 4 8 12.66 0.56
3 4 9 0.65 0.15
3 5 -6 6.6 0.34
3 5 -5 3.41 0.27
-3 -5 5 2.91 0.25
3 5 -5 2.78 0.23
-3 -5 4 9.22 0.5
3 5 -4 8.34 0.54
3 5 -4 8.82 0.52
-3 -5 3 67.61 2.19
3 5 -3 65.41 2.3
3 5 -3 71.56 2.27
-3 -5 2 75.5 2.53
3 5 -2 84.69 2.73
3 5 -2 80.14 2.66
3 5 -2 90.09 2.59
3 5 -1 500.17 14.08
3 5 -1 516.27 14
3 5 -1 508.98 14.08
3 5 -1 497.94 13.88
3 5 0 1.07 0.29
3 5 0 1.34 0.3
3 5 0 1.17 0.26
3 5 0 1.52 0.26
3 5 1 161.39 4.58
3 5 1 154.15 4.55
3 5 1 163.79 4.39
3 5 2 -0.09 0.18
3 5 2 0.14 0.12
3 5 3 0.19 0.22
3 5 3 0.02 0.16
3 5 3 0.49 0.18
3 5 3 0.51 0.16
3 5 4 48.83 1.65
3 5 4 50.82 1.63
3 5 4 50.68 1.66
3 5 4 50.47 1.7
3 5 5 93.37 2.77
3 5 5 94.28 2.85
3 5 5 89.98 2.91
3 5 6 305.78 8.46
3 5 6 289.86 8.56
3 5 6 305.8 8.49
3 5 7 1.94 0.26
3 5 7 2.2 0.32
3 5 7 2.71 0.3
3 5 8 0.17 0.18
3 5 8 0.04 0.13
3 5 8 0.05 0.12
3 6 -5 10.79 0.48
3 6 -4 4.77 0.35
3 6 -4 4.32 0.27
3 6 -4 5.03 0.39
3 6 -3 50.11 1.75
3 6 -3 47.02 1.61
3 6 -3 49.7 1.78
3 6 -2 2.28 0.36
3 6 -2 2.72 0.39
3 6 -2 1.74 0.27
3 6 -2 1.88 0.22
3 6 -1 29.61 1.33
3 6 -1 34.81 1.26
3 6 -1 32.91 1.36
3 6 -1 30.36 1.13
3 6 0 576.06 16.1
3 6 0 581.85 16.08
3 6 0 588.91 15.94
3 6 0 571.75 15.85
3 6 1 0.3 0.28
3 6 1 0.47 0.2
3 6 2 171.78 4.9
3 6 2 168.7 4.68
3 6 2 160.37 4.66
3 6 3 179.83 5.32
3 6 3 179.64 5.14
3 6 3 176.54 5.13
3 6 4 24.63 0.93
3 6 4 22.61 0.93
3 6 5 98.33 2.83
3 6 5 89.96 2.89
3 6 6 44.31 1.52
3 6 6 44.27 1.56
3 6 6 44.57 1.54
3 6 7 13.55 0.63
3 6 7 13.93 0.62
3 6 7 12.99 0.59
3 6 8 1.35 0.17
3 6 8 1.62 0.17
3 7 -4 8.69 0.39
3 7 -3 13.01 0.61
3 7 -3 13.04 0.49
3 7 -2 33.27 1.27
3 7 -2 33.73 1.12
3 7 -1 47.7 1.72
3 7 -1 48.25 1.55
3 7 -1 44.45 1.44
3 7 0 8.82 0.5
3 7 0 8.21 0.44
3 7 1 23.12 1.11
3 7 1 25.01 0.99
3 7 1 24.42 0.93
3 7 2 16.59 0.89
3 7 2 17.08 0.73
3 7 2 18.49 0.75
3 7 3 35.42 1.3
3 7 3 36.68 1.27
3 7 3 36.33 1.28
3 7 4 0.67 0.18
3 7 5 0.22 0.15
3 7 5 0.3 0.2
3 7 6 0.01 0.13
3 7 6 0.1 0.15
3 7 7 2.18 0.21
3 7 7 2.1 0.19
3 7 8 5.21 0.24
3 8 -2 8.5 0.42
3 8 -1 0.84 0.2
3 8 -1 0.79 0.12
3 8 0 4.05 0.27
3 8 0 3.48 0.21
3 8 1 14.05 0.72
3 8 1 14.33 0.62
3 8 1 14.62 0.57
3 8 2 8.4 0.56
3 8 2 9.79 0.44
3 8 3 3.2 0.25
3 8 4 5.31 0.31
3 8 5 0.65 0.13
3 8 5 0.72 0.16
3 8 6 0.09 0.1
4 -8 -4 5.87 0.33
4 -8 -3 15.29 0.62
4 -8 -3 12.7 0.54
4 -8 -2 5.8 0.38
4 -8 -2 5.94 0.38
4 -8 -1 4.04 0.33
4 -8 -1 4.58 0.33
4 -8 0 5.37 0.33
4 -8 0 5.26 0.36
4 -8 1 0.41 0.15
4 -7 -6 0.77 0.13
4 -7 -5 3.65 0.32
4 -7 -4 14.94 0.73
4 -7 -3 19.85 0.89
4 -7 -3 18.44 0.85
4 -7 -2 2.46 0.37
4 -7 -2 2.69 0.34
4 -7 -1 12.19 0.68
4 -7 -1 12.79 0.72
4 -7 0 0.02 0.22
4 -7 0 0.13 0.2
4 -7 1 0.77 0.27
4 -7 1 0.42 0.19
4 -7 2 1.67 0.27
4 -7 2 1.71 0.23
4 -7 3 49.66 1.62
4 -6 -7 11.21 0.47
4 -6 -6 11.71 0.58
4 -6 -5 0.49 0.21
4 -6 -4 1.08 0.24
4 -6 -4 1.5 0.3
4 -6 -3 20.84 1
4 -6 -3 22.01 1.01
4 -6 -2 13.91 0.77
4 -6 -1 10.49 0.66
4 -6 0 47.88 1.75
4 -6 1 2.06 0.31
4 -6 2 5.87 0.45
4 -6 3 12.35 0.61
4 -6 3 12.35 0.63
4 -6 4 28.02 1.03
4 -5 -7 2.57 0.26
4 -5 -6 1.47 0.26
4 -5 -5 1.11 0.29
4 -5 -4 22.09 1.04
4 -5 -4 21.46 0.97
4 -5 -3 10.59 0.67
4 -5 -3 11 0.71
4 -5 -3 11.14 0.69
4 -5 -2 16.68 0.87
4 -5 -2 18.05 0.93
4 -5 -1 -0.14 0.26
4 -5 -1 -0.05 0.21
4 -5 -1 -0.14 0.27
4 -5 0 168.13 5.19
4 -5 0 179.09 5.09
4 -5 0 170.38 5.11
4 -5 1 34.61 1.42
4 -5 1 33.5 1.33
4 -5 1 34.42 1.3
4 -5 1 33.58 1.34
4 -5 2 20.92 1
4 -5 2 20.03 0.89
4 -5 2 20.56 1.02
4 -5 2 20.69 0.98
4 -5 3 6.03 0.5
4 -5 3 5.42 0.51
4 -5 3 5.95 0.5
4 -5 4 2 0.31
4 -5 4 1.72 0.31
4 -5 4 2.35 0.33
4 -5 5 6.72 0.41
4 -5 5 6.63 0.46
4 -5 5 6.33 0.45
4 -5 6 2.01 0.22
4 -5 6 2 0.21
4 -4 -8 2.59 0.23
4 -4 -8 2.72 0.23
4 -4 -7 9.89 0.54
4 -4 -6 0.19 0.21
4 -4 -5 9.55 0.63
4 -4 -4 9.93 0.66
4 -4 -4 9.87 0.54
4 -4 -4 9.53 0.59
4 -4 -3 35.86 1.41
4 -4 -3 34.33 1.36
4 -4 -3 34.15 1.3
4 -4 -3 35.01 1.41
4 -4 -2 56.75 1.99
4 -4 -2 57.2 1.96
4 -4 -1 -0.02 0.22
4 -4 -1 0.26 0.18
4 -4 -1 0.11 0.21
4 -4 0 0.87 0.28
4 -4 0 0.69 0.2
4 -4 0 0.44 0.27
4 -4 1 3.57 0.43
4 -4 1 3.37 0.39
4 -4 1 3.23 0.37
4 -4 1 3.34 0.38
4 -4 2 0.16 0.26
4 -4 2 -0.16 0.25
4 -4 2 -0.08 0.27
4 -4 3 70.09 2.37
4 -4 3 66.89 2.35
4 -4 3 67.7 2.37
4 -4 4 9.61 0.65
4 -4 4 9.59 0.67
4 -4 4 10.04 0.66
4 -4 5 34.54 1.35
4 -4 5 36.27 1.39
4 -4 5 33.58 1.39
4 -4 6 0.77 0.2
4 -4 6 0.57 0.21
4 -4 6 0.73 0.23
4 -4 7 3.46 0.26
4 -3 -8 1.17 0.2
4 -3 -7 18.57 0.82
4 -3 -6 29.32 1.22
4 -3 -5 3.8 0.41
4 -3 -5 3.72 0.34
4 -3 -4 12.91 0.72
4 -3 -4 12.93 0.68
4 -3 -4 12.47 0.69
4 -3 -3 129.57 3.84
4 -3 -3 125.15 3.82
4 -3 -3 126.01 3.89
4 -3 -2 52.28 1.8
4 -3 -2 50.87 1.75
4 -3 -2 53.95 1.79
4 -3 -1 13.62 0.69
4 -3 -1 13.58 0.64
4 -3 0 69.09 2.22
4 -3 0 66.26 2.23
4 -3 0 68.01 2.2
4 -3 1 52.84 1.81
4 -3 1 53.06 1.83
4 -3 1 54.68 1.86
4 -3 2 77.71 2.64
4 -3 2 83.32 2.62
4 -3 2 83 2.61
4 -3 2 81.79 2.66
4 -3 3 38.42 1.42
4 -3 3 35.61 1.38
4 -3 3 34.15 1.43
4 -3 4 14.02 0.78
4 -3 4 14.55 0.76
4 -3 5 0.03 0.22
4 -3 5 0.15 0.21
4 -3 6 20.55 1
4 -3 6 22.23 0.98
4 -3 7 -0.02 0.16
4 -3 7 0.02 0.18
4 -3 7 0.06 0.16
4 -2 -8 1.73 0.25
4 -2 -8 2.1 0.23
4 -2 -7 1.07 0.3
4 -2 -6 130.5 3.97
4 -2 -5 17.21 0.86
4 -2 -5 18.26 0.83
4 -2 -4 14.07 0.72
4 -2 -4 13.22 0.71
4 -2 -4 13.19 0.71
4 -2 -3 1.94 0.3
4 -2 -3 1.21 0.22
4 -2 -3 1.17 0.28
4 -2 -2 0.24 0.19
4 -2 -2 -0.05 0.15
4 -2 -2 0.05 0.2
4 -2 -1 17.98 0.75
4 -2 -1 16.96 0.76
4 -2 -1 17.24 1.08
4 -2 0 1840.25 49.61
4 -2 0 1850.02 49.56
-4 2 0 1814.01 50.3
4 -2 0 1835.71 49.62
4 -2 1 335.58 9.32
4 -2 1 342.1 9.39
-4 2 -1 318.76 9.85
4 -2 1 337.88 9.41
4 -2 2 7.92 0.5
4 -2 2 8.35 0.42
4 -2 3 6.62 0.46
4 -2 3 6.42 0.5
4 -2 3 7.47 0.4
4 -2 4 108.97 3.43
4 -2 4 111.72 3.46
4 -2 4 113.5 3.31
4 -2 5 51.63 1.85
4 -2 5 52.17 1.85
4 -2 6 9.28 0.58
4 -2 6 8.07 0.54
4 -2 6 7.56 0.59
4 -2 7 83.46 2.58
4 -2 7 78.57 2.47
4 -2 7 84.92 2.65
4 -2 8 1.84 0.23
4 -2 8 1.86 0.2
4 -2 8 2 0.21
4 -1 -8 0.37 0.17
4 -1 -8 0.4 0.12
4 -1 -7 11.18 0.7
4 -1 -7 11.7 0.67
4 -1 -6 170.66 5.19
4 -1 -5 81.87 2.7
4 -1 -5 86.32 2.68
4 -1 -4 110.31 3.36
4 -1 -4 111.88 3.4
4 -1 -4 108.92 3.38
4 -1 -3 130.13 3.83
4 -1 -3 128.97 3.93
4 -1 -3 133.89 3.95
4 -1 -2 8.97 0.48
4 -1 -2 8.44 0.52
4 -1 -1 104.47 3.01
4 -1 -1 103.85 3.41
-4 1 1 107.41 3.61
-4 1 0 62.41 2.45
4 -1 0 64.64 2.04
4 -1 0 65.76 2.05
4 -1 0 65.88 2.1
4 -1 1 2638.71 71.21
-4 1 -1 2651.02 71.65
4 -1 1 2664.29 71.21
-4 1 -1 2636.81 71.51
4 -1 1 2641.74 71.25
4 -1 1 2651.57 71.25
4 -1 2 174.66 5.02
-4 1 -2 168.23 5.54
4 -1 2 180.97 5.14
4 -1 2 180.63 4.96
4 -1 2 176.38 5.09
4 -1 3 1.48 0.26
4 -1 3 1.63 0.22
4 -1 3 1.62 0.27
4 -1 3 1.8 0.23
4 -1 4 13.56 0.73
4 -1 4 12.5 0.65
4 -1 4 13.74 0.63
4 -1 5 12.44 0.76
4 -1 5 11.83 0.66
4 -1 5 13.71 0.66
4 -1 6 7.41 0.52
4 -1 6 7.17 0.48
4 -1 7 44.04 1.73
4 -1 7 50.36 1.68
4 -1 7 46.23 1.66
4 -1 7 49.22 1.72
4 -1 8 15.21 0.63
4 -1 8 14.2 0.59
4 -1 8 14.44 0.65
4 0 -8 0.16 0.11
4 0 -7 6.5 0.49
4 0 -7 6.02 0.44
4 0 -6 53.96 1.96
4 0 -5 219.1 6.51
4 0 -4 36.29 1.32
4 0 -4 36.53 1.34
4 0 -4 34.06 1.47
4 0 -3 45.96 1.63
4 0 -2 65.78 2.21
4 0 -2 73.32 2.26
4 0 -2 67.84 2.26
4 0 -1 434.6 12.04
4 0 -1 437.78 11.97
-4 0 1 434.72 12.56
4 0 -1 442.49 12.09
4 0 0 213.89 5.95
4 0 0 207.11 5.91
-4 0 0 210.76 6.33
4 0 0 211.74 5.97
4 0 0 217.4 6.03
4 0 1 25.95 0.98
4 0 1 27.98 0.97
-4 0 -1 24.95 1.12
4 0 1 26.98 1.01
-4 0 -2 30.92 1.36
4 0 2 33.75 1.19
4 0 2 31.47 1.14
4 0 2 33.1 1.08
4 0 3 6.93 0.45
4 0 3 6.99 0.45
4 0 3 7.05 0.41
4 0 4 275.66 7.76
4 0 4 268.17 7.54
4 0 4 275 7.75
4 0 4 277.11 7.64
4 0 5 1.25 0.3
4 0 5 0.77 0.16
4 0 5 0.76 0.21
4 0 5 0.68 0.23
4 0 5 1.06 0.29
4 0 6 31.4 1.32
4 0 6 30.34 1.19
4 0 6 31.97 1.27
4 0 6 30.2 1.18
4 0 7 18.22 0.93
4 0 7 18.02 0.82
4 0 7 18.87 0.87
4 0 8 3.94 0.29
4 0 8 3.62 0.29
4 1 -7 43.23 1.51
4 1 -6 53.27 1.96
4 1 -6 54.88 1.92
4 1 -5 33.21 1.19
4 1 -5 36.32 1.46
4 1 -4 15.34 0.89
4 1 -4 15.73 0.75
4 1 -4 17.09 0.8
4 1 -4 14.3 0.85
4 1 -3 0.63 0.24
4 1 -3 0.5 0.27
4 1 -3 0.63 0.25
4 1 -3 0.51 0.26
4 1 -2 713.74 19.42
4 1 -2 720.05 19.39
4 1 -2 715.11 19.35
4 1 -2 681.92 19.42
4 1 -1 19.62 0.84
4 1 -1 18.39 0.81
4 1 0 55.9 1.83
-4 -1 0 59.49 2.1
4 1 0 59.33 1.91
4 1 0 59.64 1.89
4 1 1 7.32 0.42
4 1 1 8.83 0.47
4 1 2 58.23 1.76
4 1 2 51.84 1.7
4 1 3 16.69 0.71
4 1 3 15.73 0.69
4 1 3 15.57 0.68
4 1 4 0.99 0.22
4 1 4 0.72 0.15
4 1 4 1.17 0.21
4 1 4 0.83 0.21
4 1 5 84.96 2.72
4 1 5 84.37 2.55
4 1 5 83.43 2.55
4 1 5 84.24 2.65
4 1 5 85.88 2.65
4 1 6 5.5 0.5
4 1 6 5.37 0.39
4 1 6 6.77 0.45
4 1 7 30.55 1.28
4 1 7 29.86 1.15
4 1 8 5.82 0.45
4 1 8 5.31 0.37
4 1 9 13.97 0.57
4 2 -7 3.7 0.29
4 2 -6 5.95 0.48
4 2 -5 6.31 0.57
4 2 -5 6.76 0.39
4 2 -5 6.95 0.54
4 2 -4 0.65 0.22
4 2 -4 0.73 0.29
4 2 -3 15.62 0.85
4 2 -3 15.19 0.76
4 2 -3 15.92 0.74
4 2 -3 15.44 0.84
4 2 -2 7.87 0.55
4 2 -2 8.65 0.54
4 2 -2 8.7 0.51
4 2 -2 7.68 0.56
4 2 -1 373.31 10.2
4 2 -1 361.8 10.09
4 2 -1 360.38 10.21
4 2 0 151.18 4.14
4 2 0 143.26 4.2
4 2 0 145.61 4.22
4 2 0 136.45 4.14
4 2 1 174.08 4.89
4 2 1 167.51 4.86
4 2 1 174.28 4.93
4 2 2 46.4 1.51
4 2 3 391.45 10.68
4 2 4 18.25 0.79
4 2 4 17.96 0.8
4 2 5 7.15 0.44
4 2 5 7.22 0.5
4 2 5 6.89 0.4
4 2 5 6.74 0.51
4 2 6 7.27 0.53
4 2 6 6.77 0.45
4 2 6 7.68 0.45
4 2 7 0.18 0.22
4 2 7 0.23 0.18
4 2 7 0.06 0.25
4 2 8 13.06 0.7
4 2 8 13.66 0.61
4 2 9 2.59 0.24
4 3 -6 5.38 0.38
4 3 -5 30.83 1.27
4 3 -4 48.68 1.82
4 3 -4 46.75 1.6
4 3 -3 1.03 0.29
4 3 -2 63.52 2.12
4 3 -2 66.41 2.28
4 3 -2 69.2 2.1
4 3 -1 0.6 0.19
4 3 -1 0.41 0.18
4 3 -1 0.42 0.24
4 3 -1 0.82 0.18
4 3 0 0.89 0.21
4 3 0 0.65 0.18
4 3 0 0.22 0.2
4 3 1 160.58 4.72
4 3 1 157.89 4.67
4 3 1 163.18 4.68
4 3 1 168.86 4.7
4 3 2 14.49 0.61
4 3 2 13.6 0.68
4 3 3 1.63 0.18
4 3 3 1.77 0.21
4 3 4 0.11 0.13
4 3 4 -0.08 0.25
4 3 5 24.75 1.01
4 3 6 10.03 0.6
4 3 6 9.7 0.55
4 3 6 10.79 0.54
4 3 6 10.51 0.63
4 3 7 38.26 1.45
4 3 7 38.1 1.37
4 3 7 39.55 1.36
4 3 7 39.35 1.4
4 3 8 11.54 0.61
4 3 8 12.42 0.57
4 3 9 4.58 0.29
4 4 -6 9.91 0.41
4 4 -5 0.67 0.19
4 4 -5 0.71 0.2
4 4 -4 0.56 0.27
4 4 -3 34.2 1.3
4 4 -3 36.51 1.42
4 4 -3 33.98 1.28
4 4 -2 93.91 2.9
4 4 -2 91.17 2.93
4 4 -2 89.12 2.86
4 4 -1 7.07 0.51
4 4 -1 8.52 0.58
4 4 -1 7.52 0.52
4 4 -1 6.06 0.5
4 4 0 21.81 0.95
4 4 0 21.96 0.94
4 4 0 21.33 0.94
4 4 0 20.61 0.89
4 4 1 19.27 0.9
4 4 1 21.05 0.87
4 4 1 21.43 0.91
4 4 1 20.12 0.83
4 4 2 62.72 2.14
4 4 2 64.22 1.99
4 4 2 65.14 2.04
4 4 3 3.84 0.3
4 4 3 3.46 0.3
4 4 4 1.91 0.21
4 4 4 1.37 0.2
4 4 5 5.2 0.33
4 4 5 5.05 0.47
4 4 6 107.67 3.21
4 4 6 108.74 3.34
4 4 7 12.95 0.63
4 4 7 13.21 0.64
4 4 7 12.55 0.59
4 4 7 13.32 0.66
4 4 8 8.12 0.44
4 4 8 8.19 0.44
4 4 8 8.87 0.43
4 5 -5 9.1 0.39
4 5 -5 8.81 0.42
4 5 -4 -0.07 0.17
4 5 -4 0.08 0.16
4 5 -3 2.22 0.28
4 5 -3 2.73 0.34
4 5 -3 2.44 0.33
4 5 -2 6.96 0.52
4 5 -2 6.68 0.52
4 5 -2 6.53 0.54
4 5 -2 7.23 0.47
4 5 -1 52.47 1.91
4 5 -1 53.57 1.93
4 5 -1 55.15 1.82
4 5 0 46.12 1.76
4 5 0 48.52 1.72
4 5 0 47.49 1.75
4 5 0 49.38 1.65
4 5 1 154.06 4.88
4 5 1 165.78 4.79
4 5 1 159.84 4.86
4 5 1 168.53 4.7
4 5 2 35.54 1.39
4 5 2 34.07 1.25
4 5 2 31.15 1.22
4 5 2 35.09 1.18
4 5 3 79.65 2.46
4 5 3 79.25 2.46
4 5 4 87.11 2.7
4 5 4 91.02 2.69
4 5 5 0.68 0.17
4 5 5 0.42 0.27
4 5 6 12 0.56
4 5 6 11.3 0.65
4 5 7 6.09 0.41
4 5 7 6.28 0.35
4 5 7 5.67 0.41
4 5 8 3.93 0.28
4 5 8 3.61 0.25
4 6 -4 0.25 0.14
4 6 -4 0.17 0.1
4 6 -3 0.27 0.16
4 6 -3 0.84 0.2
4 6 -3 0.49 0.16
4 6 -2 1.64 0.27
4 6 -2 1.56 0.29
4 6 -2 1.66 0.26
4 6 -2 1.35 0.21
4 6 -1 0.15 0.23
4 6 -1 0.03 0.24
4 6 -1 0.29 0.22
4 6 0 25.2 1.12
4 6 0 25.76 1.11
4 6 1 1.4 0.33
4 6 1 1 0.26
4 6 1 1.27 0.25
4 6 2 -0.03 0.25
4 6 2 -0.08 0.17
4 6 3 1.49 0.25
4 6 3 1.21 0.23
4 6 4 26.82 1
4 6 5 82.98 2.45
4 6 5 79.72 2.6
4 6 6 1.24 0.25
4 6 7 0.21 0.15
4 6 7 0.14 0.15
4 6 8 0.21 0.1
4 7 -2 4.88 0.34
4 7 -2 4.78 0.29
4 7 -2 4.77 0.35
4 7 -1 8.67 0.53
4 7 -1 9.49 0.47
4 7 -1 8.32 0.4
4 7 0 2.01 0.32
4 7 0 2.89 0.28
4 7 0 2.34 0.23
4 7 1 0.12 0.23
4 7 1 -0.17 0.16
4 7 2 2.46 0.29
4 7 2 3.08 0.28
4 7 3 1.53 0.23
4 7 4 31.23 1.08
4 7 5 5.25 0.39
4 7 6 12.27 0.55
4 7 7 4.04 0.22
4 8 -1 15.63 0.61
4 8 -1 15.58 0.54
4 8 0 23.68 0.89
4 8 0 24.75 0.8
4 8 0 22.05 0.73
4 8 1 10.23 0.46
4 8 1 9.82 0.41
4 8 2 2.39 0.2
4 8 3 1.52 0.18
4 8 4 0.59 0.17
4 8 5 0.23 0.13
4 8 6 2.71 0.18
5 -8 -1 2.33 0.19
5 -7 -3 1.43 0.2
5 -7 -2 3.22 0.32
5 -7 -1 0.94 0.26
5 -7 -1 1.2 0.24
5 -7 0 5 0.39
5 -7 1 0.19 0.19
5 -7 1 0.05 0.16
5 -7 2 0.24 0.13
5 -7 2 0.49 0.16
5 -6 -5 1.1 0.16
5 -6 -4 2.53 0.25
5 -6 -4 2.97 0.27
5 -6 -3 16.71 0.75
5 -6 -3 17.24 0.82
5 -6 -2 5.6 0.47
5 -6 -2 4.98 0.38
5 -6 -2 5.53 0.5
5 -6 -1 10 0.64
5 -6 -1 10.49 0.56
5 -6 0 0.86 0.27
5 -6 1 11.2 0.66
5 -6 2 0.26 0.23
5 -6 3 5.31 0.39
5 -6 3 4.77 0.33
5 -6 4 9.27 0.46
5 -5 -6 20.11 0.81
5 -5 -5 0.13 0.14
5 -5 -4 0.04 0.17
5 -5 -4 0.08 0.16
5 -5 -3 -0.03 0.23
5 -5 -3 0.06 0.17
5 -5 -2 1.3 0.33
5 -5 -2 1.38 0.31
5 -5 -2 1.57 0.25
5 -5 -2 1.43 0.25
5 -5 -1 9.34 0.63
5 -5 0 7.54 0.58
5 -5 0 8.34 0.57
5 -5 1 2.22 0.36
5 -5 1 2.23 0.34
5 -5 2 8 0.58
5 -5 2 7.85 0.52
5 -5 3 4.67 0.43
5 -5 3 4.3 0.35
5 -5 4 7.27 0.48
5 -5 5 1.49 0.21
5 -4 -7 0.92 0.16
5 -4 -7 1.13 0.18
5 -4 -6 35.95 1.18
5 -4 -6 31.12 1.28
5 -4 -5 17.52 0.77
5 -4 -5 17.15 0.69
5 -4 -4 3.28 0.36
5 -4 -4 3.19 0.32
5 -4 -4 2.84 0.31
5 -4 -3 7.77 0.51
5 -4 -3 8.76 0.56
5 -4 -3 7.48 0.59
5 -4 -2 4.05 0.47
5 -4 -2 3.31 0.4
5 -4 -1 0.13 0.32
5 -4 -1 0.24 0.23
5 -4 0 5.62 0.49
5 -4 0 5.98 0.53
5 -4 1 3.57 0.41
5 -4 1 4.5 0.45
5 -4 2 34.5 1.44
5 -4 2 34.98 1.39
5 -4 2 34.2 1.36
5 -4 2 33.93 1.43
5 -4 3 -0.08 0.3
5 -4 3 -0.05 0.23
5 -4 3 -0.14 0.22
5 -4 3 -0.23 0.26
5 -4 4 -0.05 0.22
5 -4 4 0.36 0.22
5 -4 4 0.08 0.27
5 -4 4 -0.22 0.25
5 -4 5 4.01 0.36
5 -4 5 4.4 0.4
5 -4 6 12.85 0.56
5 -4 6 12.69 0.56
5 -3 -7 3.64 0.31
5 -3 -6 11.46 0.54
5 -3 -6 10.87 0.67
5 -3 -5 0.77 0.2
5 -3 -5 1.01 0.22
5 -3 -4 29.02 1.13
5 -3 -4 29.83 1.18
5 -3 -4 27.51 1.18
5 -3 -3 11.31 0.67
5 -3 -3 10.34 0.69
5 -3 -2 1.87 0.37
5 -3 -2 1.69 0.29
5 -3 -2 1.47 0.34
5 -3 -1 18.45 0.92
5 -3 -1 20.37 0.91
5 -3 0 1.33 0.27
5 -3 1 102.44 3.25
5 -3 1 100.4 3.16
5 -3 2 13.04 0.73
5 -3 2 14.66 0.81
5 -3 2 13.37 0.8
5 -3 2 13.41 0.81
5 -3 3 1.72 0.3
5 -3 3 1.8 0.3
5 -3 3 1.55 0.36
5 -3 4 5.89 0.58
5 -3 4 6.94 0.53
5 -3 5 -0.18 0.26
5 -3 5 -0.04 0.18
5 -3 5 0.17 0.24
5 -3 5 0.03 0.26
5 -3 6 5.85 0.45
5 -3 6 6.34 0.42
5 -3 6 5.88 0.45
5 -3 7 32.53 1.07
5 -3 7 29.7 1
5 -3 7 32.18 1.08
5 -2 -7 0.8 0.22
5 -2 -7 0.66 0.19
5 -2 -6 0.2 0.27
5 -2 -5 15.64 0.71
5 -2 -5 16.45 0.77
5 -2 -5 15.02 0.89
5 -2 -4 62.11 2.13
5 -2 -4 63.37 2.16
5 -2 -3 4.43 0.48
5 -2 -3 4.96 0.48
5 -2 -2 3.84 0.44
5 -2 -2 3.41 0.38
5 -2 -1 18.21 0.81
5 -2 -1 20.6 0.89
5 -2 -1 18.54 0.84
5 -2 0 226.47 6.52
5 -2 0 234.36 6.6
5 -2 0 228.5 6.69
5 -2 1 8.44 0.56
5 -2 1 7.36 0.48
5 -2 1 8.11 0.58
5 -2 1 8.02 0.58
5 -2 2 22.16 1.04
5 -2 2 22.55 0.94
5 -2 2 20.19 1.02
5 -2 2 24.14 1.03
5 -2 3 0.57 0.22
5 -2 3 0.34 0.21
5 -2 3 0.16 0.3
5 -2 3 0.52 0.32
5 -2 3 0.2 0.27
5 -2 3 0.38 0.17
5 -2 4 3.08 0.34
5 -2 4 3.37 0.42
5 -2 4 3.27 0.44
5 -2 5 40.39 1.47
5 -2 5 39.71 1.52
5 -2 5 38.54 1.57
5 -2 6 1.61 0.25
5 -2 6 1.27 0.3
5 -2 7 0.21 0.22
5 -2 7 0.22 0.12
5 -2 7 0.4 0.16
5 -2 7 0.17 0.17
5 -1 -7 0.81 0.21
5 -1 -7 1.35 0.22
5 -1 -6 15.39 0.82
5 -1 -6 14.78 0.8
5 -1 -5 1.8 0.25
5 -1 -5 1.64 0.35
5 -1 -5 1.41 0.28
5 -1 -4 21.75 0.99
5 -1 -4 19.23 0.93
5 -1 -4 20.97 1.08
5 -1 -3 30.05 1.31
5 -1 -3 31.19 1.38
5 -1 -2 4.44 0.46
5 -1 -2 4.98 0.38
5 -1 -2 4.59 0.44
5 -1 -1 36.57 1.3
5 -1 -1 34.1 1.33
5 -1 0 16.8 0.85
5 -1 1 25.87 1.05
5 -1 1 24.9 1.07
5 -1 1 26.08 1.11
5 -1 2 78.03 2.55
5 -1 2 80.77 2.57
5 -1 2 80.56 2.6
5 -1 2 77.32 2.55
5 -1 3 3.64 0.42
5 -1 3 4.06 0.36
5 -1 3 4.17 0.31
5 -1 4 41.12 1.6
5 -1 4 43.35 1.63
5 -1 4 40.18 1.41
5 -1 5 32.01 1.22
5 -1 5 34.68 1.41
5 -1 5 31.29 1.36
5 -1 5 33.91 1.21
5 -1 6 2.4 0.27
5 -1 6 2.78 0.38
5 -1 6 3.4 0.38
5 -1 6 3.31 0.31
5 -1 7 40.51 1.42
5 -1 7 39.76 1.42
5 -1 8 0.09 0.09
5 0 -7 1.45 0.2
5 0 -6 44.95 1.63
5 0 -6 43.25 1.62
5 0 -5 54.03 1.98
5 0 -5 53.03 2
5 0 -4 39.25 1.59
5 0 -4 37.89 1.46
5 0 -3 0.77 0.3
5 0 -3 0.42 0.29
5 0 -3 0.81 0.33
5 0 -3 0.58 0.31
5 0 -2 25.67 1.1
5 0 -2 26.51 1.13
5 0 -2 26.94 1.17
5 0 -2 24.48 1.13
5 0 -1 205.34 5.85
5 0 -1 202.5 5.79
5 0 -1 205.12 5.93
5 0 0 17.91 0.8
5 0 0 16.73 0.84
5 0 1 35.36 1.26
5 0 1 35.07 1.32
5 0 1 34.81 1.34
5 0 2 11.71 0.62
5 0 2 11.02 0.65
5 0 2 11.03 0.62
5 0 2 12.88 0.55
5 0 3 29.4 1.26
5 0 3 32.87 1.27
5 0 3 31.65 1.13
5 0 4 37.74 1.44
5 0 4 35.23 1.29
5 0 5 110.29 3.58
5 0 5 119.36 3.46
5 0 6 15.37 0.78
5 0 6 15.44 0.72
5 0 7 19.34 0.91
5 0 7 18.22 0.81
5 0 7 21.05 0.81
5 0 8 9.57 0.48
5 1 -7 4.41 0.29
5 1 -6 0.14 0.19
5 1 -5 0.86 0.32
5 1 -5 0.72 0.17
5 1 -5 0.7 0.29
5 1 -4 8.82 0.67
5 1 -4 8.97 0.58
5 1 -4 8.88 0.68
5 1 -3 4.6 0.45
5 1 -3 4.02 0.48
5 1 -3 3.82 0.43
5 1 -2 53.51 1.96
5 1 -2 54.76 1.97
5 1 -2 57.85 1.95
5 1 -2 57.83 2.04
5 1 -1 15.37 0.77
5 1 -1 17.08 0.81
5 1 -1 16.87 0.84
5 1 0 9.63 0.52
5 1 0 10.77 0.64
5 1 0 10.32 0.61
5 1 1 0.92 0.26
5 1 1 0.78 0.22
5 1 2 5.07 0.41
5 1 2 5.77 0.43
5 1 2 5.54 0.37
5 1 3 1.44 0.25
5 1 4 8.49 0.53
5 1 4 8.35 0.52
5 1 5 1.08 0.25
5 1 5 0.74 0.16
5 1 5 1.05 0.22
5 1 5 1.04 0.29
5 1 6 49.83 1.76
5 1 6 45.6 1.63
5 1 7 22.47 0.9
5 1 8 35.42 1.26
5 2 -6 1.26 0.23
5 2 -5 19.03 0.72
5 2 -4 80.23 2.78
5 2 -4 80.63 2.56
5 2 -4 88.44 2.81
5 2 -3 107.34 3.48
5 2 -3 109.73 3.32
5 2 -3 108.76 3.51
5 2 -2 19.17 0.94
5 2 -2 17.83 0.9
5 2 -2 18.6 0.85
5 2 -1 2.14 0.35
5 2 -1 1.98 0.32
5 2 -1 1.85 0.27
5 2 -1 2.09 0.36
5 2 0 2.7 0.35
5 2 0 1.97 0.28
5 2 0 2.38 0.29
5 2 1 62.95 1.99
5 2 1 63.87 2.1
5 2 2 101.38 3.1
5 2 2 103.39 3.11
5 2 3 4.69 0.3
5 2 3 4.85 0.39
5 2 4 0.23 0.24
5 2 5 75.57 2.47
5 2 5 75.27 2.34
5 2 5 80.96 2.5
5 2 6 2.64 0.32
5 2 6 3.02 0.28
5 2 6 2.61 0.35
5 2 7 36.35 1.35
5 2 8 11.22 0.51
5 3 -6 0.2 0.12
5 3 -5 2.39 0.3
5 3 -4 78.88 2.42
5 3 -3 58.83 2.08
5 3 -3 56.22 1.92
5 3 -2 11.33 0.72
5 3 -2 9.41 0.62
5 3 -2 11.22 0.57
5 3 -1 106.28 3.3
5 3 -1 103.66 3.13
5 3 0 2.67 0.29
5 3 0 2.44 0.32
5 3 0 2.69 0.36
5 3 1 187.35 5.43
5 3 1 192.19 5.5
5 3 2 18.14 0.74
5 3 3 112.87 3.3
5 3 4 35.2 1.15
5 3 4 33.99 1.33
5 3 5 42.3 1.55
5 3 6 2.67 0.27
5 3 7 14.47 0.68
5 3 7 16.46 0.67
5 3 8 21.49 0.78
5 4 -5 1.04 0.17
5 4 -4 12.06 0.64
5 4 -3 62.63 2.06
5 4 -3 65.99 2.06
5 4 -2 86.72 2.81
5 4 -2 85.3 2.67
5 4 -2 83.7 2.69
5 4 -1 159.47 4.71
5 4 -1 167.2 4.83
5 4 -1 163.83 4.73
5 4 -1 153.2 4.74
5 4 0 20.97 0.93
5 4 0 21.13 0.95
5 4 0 20.51 0.9
5 4 0 19.55 0.9
5 4 1 26.32 1.13
5 4 1 28.31 1.1
5 4 1 28.34 1.08
5 4 2 14.46 0.68
5 4 2 14.84 0.66
5 4 3 6.59 0.38
5 4 3 5.6 0.38
5 4 4 19.84 0.76
5 4 4 18.25 0.9
5 4 5 17.15 0.65
5 4 5 17.18 0.85
5 4 6 176.63 5.06
5 4 7 3.03 0.27
5 4 7 3.43 0.32
5 4 8 3.72 0.25
5 5 -4 0.72 0.15
5 5 -3 13.33 0.64
5 5 -3 12.66 0.59
5 5 -2 1.41 0.23
5 5 -2 1.71 0.27
5 5 -1 2.69 0.31
5 5 -1 2.29 0.31
5 5 -1 2.63 0.34
5 5 -1 2.49 0.3
5 5 0 416.37 12.02
5 5 0 453.79 12
5 5 0 423.38 11.93
5 5 1 0.58 0.25
5 5 1 0.73 0.23
5 5 1 0.58 0.19
5 5 2 109.73 3.26
5 5 2 101.46 3.25
5 5 2 112.84 3.2
5 5 3 150.37 4.33
5 5 3 150.12 4.35
5 5 4 21.9 0.84
5 5 5 57.03 1.75
5 5 6 41.83 1.44
5 5 6 44.19 1.51
5 5 7 35.95 1.21
5 5 7 38.31 1.25
5 5 8 6.3 0.29
5 6 -3 17.93 0.66
5 6 -2 32.95 1.14
5 6 -2 35.4 1.19
5 6 -2 33.94 1.11
5 6 -1 25.66 0.99
5 6 -1 23.47 0.91
5 6 0 19.41 0.9
5 6 0 21.2 0.88
5 6 0 20.83 0.84
5 6 1 93.88 2.84
5 6 1 91.21 2.95
5 6 2 20.37 0.83
5 6 2 19.98 0.83
5 6 3 43.53 1.44
5 6 3 42.62 1.44
5 6 4 8.67 0.44
5 6 5 1.47 0.17
5 6 5 1.36 0.28
5 6 6 2.72 0.24
5 6 6 2.73 0.27
5 6 7 0.27 0.11
5 6 7 0.2 0.13
5 7 -2 2.02 0.14
5 7 -1 6.82 0.34
5 7 -1 6.22 0.29
5 7 0 13.93 0.55
5 7 1 14.34 0.61
5 7 1 14.77 0.6
5 7 2 6.97 0.39
5 7 3 0.12 0.13
5 7 4 13.58 0.54
5 7 5 0.73 0.18
5 7 6 0.63 0.12
5 7 6 0.86 0.14
5 8 1 4.51 0.21
5 8 2 0.6 0.1
5 8 4 2.74 0.21
6 -7 -1 0.43 0.14
6 -7 0 11.59 0.5
6 -6 -3 1.9 0.23
6 -6 -2 0.16 0.17
6 -6 -1 0.73 0.24
6 -6 -1 0.46 0.18
6 -6 0 27.74 1.04
6 -6 0 27.08 1.09
6 -6 1 14.96 0.64
6 -6 1 12.52 0.64
6 -6 2 1.77 0.21
6 -6 2 2.39 0.23
6 -5 -4 -0.04 0.13
6 -5 -3 10.74 0.6
6 -5 -2 16.09 0.72
6 -5 -2 17.6 0.86
6 -5 -1 0.79 0.3
6 -5 -1 0.87 0.23
6 -5 0 0.46 0.28
6 -5 0 0.6 0.23
6 -5 1 13.21 0.7
6 -5 1 14.15 0.69
6 -5 1 13.05 0.75
6 -5 2 1.96 0.28
6 -5 2 1.67 0.26
6 -5 2 1.98 0.26
6 -5 3 10.27 0.53
6 -5 3 10.01 0.49
6 -5 4 2.74 0.22
6 -4 -6 12.15 0.5
6 -4 -5 0.17 0.14
6 -4 -4 2.71 0.3
6 -4 -4 2.37 0.25
6 -4 -4 1.85 0.26
6 -4 -3 14.71 0.72
6 -4 -3 15.52 0.81
6 -4 -2 15.48 0.77
6 -4 -2 13.87 0.82
6 -4 -1 20.05 0.91
6 -4 0 8.77 0.57
6 -4 0 8.45 0.64
6 -4 1 0.29 0.28
6 -4 1 0.11 0.2
6 -4 1 -0.07 0.27
6 -4 2 6.02 0.45
6 -4 2 5.78 0.49
6 -4 2 5.59 0.47
6 -4 3 5.16 0.41
6 -4 3 5.81 0.45
6 -4 3 4.81 0.39
6 -4 4 4.37 0.4
6 -4 4 4.25 0.33
6 -4 4 4.12 0.33
6 -4 5 0.65 0.13
6 -3 -6 29.15 1.01
6 -3 -6 33.82 1.12
6 -3 -5 0.77 0.18
6 -3 -5 0.99 0.17
6 -3 -5 0.67 0.22
6 -3 -4 2.64 0.32
6 -3 -4 2.72 0.31
6 -3 -4 2.12 0.31
6 -3 -3 0.41 0.28
6 -3 -3 0.71 0.27
6 -3 -3 0.29 0.2
6 -3 -2 0.46 0.31
6 -3 -2 0.94 0.32
6 -3 -1 0.77 0.21
6 -3 -1 1.48 0.34
6 -3 0 132.6 4.05
6 -3 0 140.01 4.16
6 -3 0 136.27 4.26
6 -3 1 68.13 2.22
6 -3 1 67.23 2.39
6 -3 2 0.17 0.28
6 -3 2 -0.08 0.22
6 -3 2 0.15 0.17
6 -3 2 0.31 0.31
6 -3 3 0.16 0.3
6 -3 3 0.61 0.23
6 -3 3 0.12 0.17
6 -3 4 37.95 1.43
6 -3 4 33.91 1.26
6 -3 5 7.12 0.45
6 -3 6 0.72 0.2
6 -3 6 0.71 0.12
6 -2 -6 23.66 0.89
6 -2 -6 24.36 0.94
6 -2 -5 38.53 1.43
6 -2 -5 38.44 1.51
6 -2 -4 14.11 0.72
6 -2 -4 14.55 0.73
6 -2 -4 14.46 0.73
6 -2 -4 13.16 0.77
6 -2 -3 17.02 0.88
6 -2 -3 17.92 0.93
6 -2 -3 14.91 0.83
6 -2 -2 12.88 0.78
6 -2 -2 12.14 0.71
6 -2 -2 12.78 0.79
6 -2 -1 3.74 0.42
6 -2 0 25.71 1.13
6 -2 0 24.17 1.17
6 -2 1 516.69 14.75
6 -2 1 546.15 14.83
6 -2 2 92.29 2.93
6 -2 2 86.13 2.93
6 -2 2 89.93 2.91
6 -2 3 8.03 0.62
6 -2 3 8.44 0.54
6 -2 4 7.53 0.58
6 -2 4 6.66 0.57
6 -2 5 2.53 0.35
6 -2 5 2.29 0.34
6 -2 6 1.28 0.27
6 -2 6 1.63 0.25
6 -2 7 9.52 0.44
6 -1 -6 16.06 0.69
6 -1 -5 79.66 2.57
6 -1 -5 81.94 2.64
6 -1 -4 23.26 1.03
6 -1 -4 23.38 1
6 -1 -4 23.69 1.01
6 -1 -4 23.57 1.12
6 -1 -3 4.92 0.48
6 -1 -3 5.13 0.45
6 -1 -3 5.71 0.52
6 -1 -2 29.85 1.29
6 -1 -2 24.98 1.16
6 -1 -1 24.21 1.01
6 -1 -1 22.88 1.02
6 -1 0 31.84 1.28
6 -1 0 34.52 1.42
6 -1 1 9.43 0.64
6 -1 2 64.54 2.16
6 -1 2 63.72 2.12
6 -1 3 2.06 0.35
6 -1 3 1.78 0.28
6 -1 3 2.49 0.39
6 -1 4 17.25 0.88
6 -1 4 15.99 0.67
6 -1 5 5.2 0.49
6 -1 5 4.75 0.51
6 -1 5 5.07 0.35
6 -1 6 8.29 0.54
6 -1 6 8.2 0.53
6 -1 7 6.9 0.41
6 -1 7 7.17 0.39
6 0 -6 20.89 0.82
6 0 -5 23.84 0.97
6 0 -5 20.03 0.76
6 0 -4 0.15 0.21
6 0 -4 0.1 0.22
6 0 -4 0.02 0.23
6 0 -4 0.14 0.26
6 0 -3 0.6 0.29
6 0 -3 0.91 0.26
6 0 -3 0.69 0.31
6 0 -3 0.58 0.3
6 0 -2 91.06 2.94
6 0 -2 93.22 3.02
6 0 -2 93.34 3.06
6 0 -2 96.88 3.08
6 0 -1 11.81 0.61
6 0 -1 12.81 0.77
6 0 -1 12.08 0.8
6 0 -1 12.58 0.72
6 0 0 32.83 1.29
6 0 0 36.16 1.45
6 0 1 2.26 0.37
6 0 1 2.21 0.35
6 0 2 3.9 0.41
6 0 2 3.85 0.38
6 0 2 4.33 0.45
6 0 3 10.83 0.63
6 0 3 10.37 0.69
6 0 3 10.34 0.51
6 0 4 0.57 0.25
6 0 4 0.41 0.32
6 0 4 0.52 0.19
6 0 5 25.94 1.11
6 0 5 25.79 1.17
6 0 5 25.54 0.97
6 0 6 0.04 0.21
6 0 6 0.1 0.15
6 0 7 12.55 0.6
6 0 7 12.16 0.6
6 1 -6 10.08 0.46
6 1 -5 -0.16 0.2
6 1 -5 -0.05 0.1
6 1 -4 0.35 0.24
6 1 -3 0.34 0.26
6 1 -3 0.03 0.2
6 1 -3 -0.13 0.22
6 1 -3 -0.12 0.3
6 1 -2 0.58 0.32
6 1 -2 0.71 0.24
6 1 -2 0.52 0.29
6 1 -1 162.24 4.77
6 1 -1 162.09 4.91
6 1 -1 162.75 4.85
6 1 0 67.15 2.29
6 1 0 64.96 2.23
6 1 1 28.47 1.11
6 1 1 26.93 1.18
6 1 2 9.12 0.58
6 1 2 9.54 0.6
6 1 3 112.78 3.52
6 1 3 113.87 3.37
6 1 4 23.94 1.01
6 1 4 23.44 1.11
6 1 4 24.73 0.97
6 1 5 0.37 0.29
6 1 5 0.17 0.2
6 1 6 4.5 0.45
6 1 6 3.92 0.34
6 1 7 0.02 0.15
6 1 7 -0.02 0.15
6 1 8 6.54 0.34
6 2 -5 3.74 0.31
6 2 -4 22.78 0.96
6 2 -4 19.29 0.8
6 2 -3 0.58 0.25
6 2 -2 16.45 0.86
6 2 -2 17.31 0.88
6 2 -2 16.82 0.79
6 2 -1 2.63 0.39
6 2 -1 2.88 0.34
6 2 -1 2.53 0.32
6 2 0 6.51 0.44
6 2 0 7.16 0.55
6 2 0 7.56 0.5
6 2 1 61.55 2.09
6 2 1 59.7 2.01
6 2 2 0.19 0.19
6 2 2 0.25 0.2
6 2 2 -0.03 0.18
6 2 3 0.15 0.23
6 2 3 0.11 0.19
6 2 4 18.06 0.91
6 2 4 19.97 0.85
6 2 5 0.43 0.26
6 2 5 0.45 0.25
6 2 6 2.67 0.37
6 2 6 3.66 0.34
6 2 7 11.2 0.59
6 2 7 11.16 0.52
6 2 8 5.5 0.32
6 3 -5 1.59 0.18
6 3 -4 0.21 0.18
6 3 -4 0.01 0.12
6 3 -3 24.4 1.04
6 3 -3 25.38 0.98
6 3 -2 11.79 0.67
6 3 -2 10.5 0.63
6 3 -1 4.41 0.42
6 3 -1 4.58 0.34
6 3 0 9.8 0.57
6 3 1 3.82 0.32
6 3 2 39.2 1.4
6 3 3 2.76 0.25
6 3 3 2.23 0.31
6 3 4 2.66 0.31
6 3 4 2.36 0.32
6 3 5 0.02 0.22
6 3 5 0.45 0.23
6 3 6 41.07 1.55
6 3 6 47.91 1.53
6 3 7 10.39 0.55
6 3 7 12.14 0.52
6 3 8 3.53 0.23
6 4 -4 0.04 0.12
6 4 -3 0.1 0.17
6 4 -3 0.06 0.14
6 4 -2 8.59 0.52
6 4 -1 18.77 0.85
6 4 -1 19.68 0.86
6 4 0 31.68 1.2
6 4 0 31.39 1.2
6 4 1 107.04 3.18
6 4 1 104.14 3.19
6 4 2 15.19 0.65
6 4 2 16.1 0.68
6 4 3 11.26 0.53
6 4 3 10.46 0.62
6 4 4 30.28 1.01
6 4 4 29.42 1.16
6 4 5 1.17 0.18
6 4 5 1.32 0.28
6 4 6 6.1 0.32
6 4 6 5.9 0.39
6 4 6 6.67 0.43
6 4 7 9.28 0.43
6 4 7 9.23 0.43
6 5 -3 0.11 0.12
6 5 -2 1.36 0.21
6 5 -1 0.76 0.21
6 5 -1 0.37 0.19
6 5 0 12.82 0.62
6 5 0 12.83 0.6
6 5 1 2.18 0.25
6 5 1 2.48 0.28
6 5 1 2.41 0.26
6 5 2 14.21 0.61
6 5 2 13.5 0.64
6 5 2 13.72 0.58
6 5 3 6.62 0.35
6 5 3 6.54 0.38
6 5 3 5.87 0.45
6 5 4 27.25 0.93
6 5 4 27.17 1.07
6 5 5 60.55 1.84
6 5 5 60.46 1.94
6 5 6 1.03 0.14
6 5 6 1.06 0.21
6 6 -2 1.97 0.16
6 6 -2 1.69 0.13
6 6 -1 9.17 0.42
6 6 -1 8.59 0.4
6 6 0 0.16 0.13
6 6 0 0.3 0.14
6 6 1 1.67 0.2
6 6 1 2.14 0.23
6 6 2 0.67 0.15
6 6 2 0.53 0.15
6 6 3 0.85 0.16
6 6 3 0.62 0.21
6 6 4 23.17 0.79
6 6 4 22.99 0.89
6 6 5 1.06 0.14
6 6 5 1.3 0.19
6 7 0 3 0.18
6 7 0 3.07 0.17
6 7 1 5.01 0.25
6 7 1 4.72 0.24
6 7 1 4.39 0.25
6 7 2 1.57 0.15
6 7 2 1.38 0.17
6 7 3 -0.01 0.08
6 7 3 -0.03 0.12
6 7 4 0.28 0.13
6 7 5 4.29 0.23
7 -6 -1 1.41 0.17
7 -5 -3 0.74 0.13
7 -5 -2 0.17 0.15
7 -5 -1 0.46 0.14
7 -5 0 1.96 0.26
7 -5 0 1.41 0.2
7 -5 1 0.64 0.18
7 -5 2 3.76 0.24
7 -4 -3 1.95 0.25
7 -4 -3 2.29 0.21
7 -4 -2 -0.04 0.21
7 -4 -2 -0.05 0.17
7 -4 -1 6.17 0.45
7 -4 0 2.05 0.33
7 -4 1 15.77 0.72
7 -4 1 13.74 0.72
7 -4 2 2.85 0.29
7 -4 2 2.92 0.3
7 -4 3 0.1 0.14
7 -4 4 0.1 0.09
7 -3 -4 9.15 0.44
7 -3 -4 9.95 0.45
7 -3 -3 -0.08 0.19
7 -3 -3 0.18 0.18
7 -3 -2 2.13 0.36
7 -3 -2 2.62 0.35
7 -3 -1 3.46 0.41
7 -3 0 54.63 1.84
7 -3 0 51.66 1.91
7 -3 1 4.34 0.43
7 -3 1 4.29 0.43
7 -3 2 12.87 0.67
7 -3 3 6.41 0.46
7 -3 4 0.59 0.2
7 -3 5 5.28 0.29
7 -2 -4 14.37 0.62
7 -2 -4 15.57 0.64
7 -2 -3 23.42 0.95
7 -2 -3 23.01 0.98
7 -2 -3 21.2 0.9
7 -2 -2 1.33 0.34
7 -2 -2 1.02 0.3
7 -2 0 0.32 0.28
7 -2 0 0.09 0.24
7 -2 1 19.13 0.92
7 -2 1 19.33 0.95
7 -2 2 5.27 0.48
7 -2 2 5.05 0.44
7 -2 3 4.71 0.47
7 -2 4 1.95 0.28
7 -2 5 5.38 0.38
7 -2 5 5.86 0.38
7 -1 -4 9.92 0.49
7 -1 -4 8.68 0.48
7 -1 -4 9.94 0.55
7 -1 -3 6.11 0.46
7 -1 -3 5.24 0.42
7 -1 -2 1.22 0.32
7 -1 -2 1.59 0.35
7 -1 -2 1.19 0.25
7 -1 -1 32.5 1.32
7 -1 -1 29.75 1.33
7 -1 0 4.29 0.49
7 -1 0 3.91 0.38
7 -1 1 2.89 0.41
7 -1 1 2.53 0.36
7 -1 2 1.2 0.28
7 -1 2 1.28 0.32
7 -1 3 17.55 0.83
7 -1 4 10.37 0.6
7 -1 4 11.57 0.66
7 -1 5 24.48 0.96
7 -1 6 10.62 0.48
7 0 -4 6.19 0.36
7 0 -3 7.9 0.44
7 0 -3 8.09 0.51
7 0 -2 19.5 0.95
7 0 -2 20.47 0.94
7 0 -1 10.34 0.69
7 0 -1 10.94 0.67
7 0 0 3.56 0.42
7 0 0 2.98 0.31
7 0 0 3.62 0.42
7 0 1 0.99 0.28
7 0 1 1.14 0.26
7 0 2 3.34 0.37
7 0 3 0.2 0.18
7 0 3 -0.12 0.24
7 0 4 5.08 0.39
7 0 4 4.94 0.45
7 0 5 1.49 0.23
7 0 5 1.94 0.31
7 0 5 1.82 0.18
7 0 6 20.97 0.82
7 0 6 25.94 0.92
7 1 -4 25.34 0.89
7 1 -4 24.18 0.85
7 1 -3 30.48 1.13
7 1 -3 33.64 1.16
7 1 -2 2.77 0.36
7 1 -2 2.21 0.25
7 1 -2 2.43 0.31
7 1 -1 10.22 0.66
7 1 -1 9.77 0.6
7 1 0 0.89 0.31
7 1 0 0.47 0.26
7 1 1 15.02 0.79
7 1 1 15.19 0.77
7 1 2 5.34 0.42
7 1 3 0.51 0.24
7 1 4 1.22 0.28
7 1 4 1.14 0.18
7 1 5 19.31 0.87
7 1 5 20.22 0.74
7 1 6 2.1 0.26
7 1 6 2.44 0.19
7 1 7 1.66 0.17
7 2 -4 21.56 0.77
7 2 -4 22.36 0.73
7 2 -3 38.08 1.28
7 2 -3 37.4 1.27
7 2 -2 34.89 1.25
7 2 -2 37.3 1.25
7 2 -1 16.16 0.69
7 2 -1 17.46 0.74
7 2 0 1.67 0.25
7 2 0 1.59 0.31
7 2 1 34.18 1.28
7 2 1 31.85 1.19
7 2 2 1.61 0.26
7 2 3 28.63 1.09
7 2 4 11.18 0.59
7 2 4 9.91 0.5
7 2 5 1.6 0.25
7 2 5 1.99 0.23
7 2 6 6.84 0.42
7 2 6 8.51 0.38
7 2 7 9.81 0.42
7 3 -3 31.6 1.06
7 3 -3 31.79 1.04
7 3 -2 45.27 1.47
7 3 -1 13.71 0.6
7 3 -1 12.88 0.64
7 3 0 26.35 0.94
7 3 0 26.28 1.03
7 3 1 0.19 0.17
7 3 2 14.91 0.62
7 3 2 14.95 0.64
7 3 3 8.12 0.44
7 3 4 8.13 0.44
7 3 5 0.52 0.16
7 3 5 0.3 0.16
7 3 6 37.85 1.32
7 3 6 46.73 1.33
7 4 -2 1.71 0.18
7 4 -1 0.55 0.14
7 4 -1 0.52 0.17
7 4 0 149.77 4.3
7 4 0 155.31 4.36
7 4 1 0.55 0.16
7 4 2 25.16 0.9
7 4 2 25.42 0.87
7 4 3 55.11 1.65
7 4 3 54.81 1.73
7 4 4 18.46 0.73
7 4 5 14.42 0.59
7 4 6 18.42 0.64
7 5 -1 4.4 0.24
7 5 0 16.04 0.58
7 5 0 16.2 0.62
7 5 1 82.94 2.39
7 5 1 84.37 2.45
7 5 2 9.44 0.41
7 5 2 8.36 0.4
7 5 3 20.35 0.68
7 5 3 19.18 0.73
7 5 4 24.62 0.86
7 5 5 4.68 0.27
7 6 1 2.67 0.17
7 6 2 0.52 0.09
7 6 3 0.51 0.08
8 -4 0 4.54 0.28
8 -4 0 5.42 0.31
8 -4 1 9.61 0.42
8 -3 -2 4.22 0.29
8 -3 -2 3.96 0.26
8 -3 -1 0.03 0.15
8 -3 -1 -0.05 0.15
8 -3 0 6.9 0.42
8 -3 0 7.05 0.42
8 -3 1 66.47 2.05
8 -3 2 25.88 0.91
8 -2 -3 0.05 0.1
8 -2 -3 0.12 0.11
8 -2 -2 6.1 0.39
8 -2 -1 0.54 0.22
8 -2 0 2.39 0.28
8 -2 0 2.07 0.29
8 -2 1 5.95 0.38
8 -2 1 5.86 0.4
8 -2 1 5.59 0.43
8 -2 2 28.33 0.99
8 -2 2 25.28 0.92
8 -2 3 5.58 0.36
8 -2 4 0.16 0.13
8 -1 -3 0.85 0.14
8 -1 -2 6.33 0.4
8 -1 -2 5.19 0.35
8 -1 -1 3.83 0.34
8 -1 -1 3.85 0.35
8 -1 0 2.89 0.33
8 -1 0 2.91 0.32
8 -1 1 0.55 0.2
8 -1 1 0.48 0.18
8 -1 1 0.64 0.23
8 -1 2 0.04 0.14
8 -1 2 -0.03 0.17
8 -1 3 1.27 0.22
8 -1 4 0.02 0.14
8 -1 5 2.31 0.18
8 0 -3 0.3 0.1
8 0 -2 0.06 0.15
8 0 -2 0.19 0.18
8 0 -1 30.67 1.19
8 0 -1 33.21 1.16
8 0 0 16.93 0.77
8 0 0 16.39 0.75
8 0 1 2.74 0.3
8 0 1 3.07 0.32
8 0 2 0.87 0.17
8 0 2 1.22 0.2
8 0 2 1.12 0.23
8 0 3 16.82 0.7
8 0 3 16.69 0.7
8 0 4 12.07 0.55
8 0 5 0.05 0.11
8 1 -3 0.83 0.11
8 1 -1 0.83 0.17
8 1 0 8.79 0.51
8 1 0 8.62 0.46
8 1 1 24.67 0.92
8 1 1 22.2 0.88
8 1 2 2.6 0.25
8 1 3 0.05 0.14
8 1 4 12.61 0.54
8 1 5 1.55 0.16
8 2 -1 0.69 0.17
8 2 0 3.85 0.29
8 2 1 0.28 0.14
8 3 -1 2.37 0.19
8 3 0 7.31 0.33
8 3 0 7.78 0.37
8 3 1 34.59 1.1
