#------------------------------------------------------------------------------
#$Date: 2022-03-04 03:33:05 +0200 (Fri, 04 Mar 2022) $
#$Revision: 273311 $
#$URL: file:///home/coder/svn-repositories/cod/cif/8/00/05/8000566.cif $
#------------------------------------------------------------------------------
#
# This file is available in the Crystallography Open Database (COD),
# http://www.crystallography.net/
#
# All data on this site have been placed in the public domain by the
# contributors.
#
data_8000566
loop_
_publ_author_name
'Chen, Yi'
'Xie, Yujun'
'Li, Zhen'
_publ_section_title
;
 Room-Temperature Phosphorescence of Nicotinic Acid and Isonicotinic Acid:
 Efficient Intermolecular Hydrogen-Bond Interaction in Molecular Array.
;
_journal_issue                   7
_journal_name_full               'The journal of physical chemistry letters'
_journal_page_first              1652
_journal_page_last               1659
_journal_paper_doi               10.1021/acs.jpclett.2c00118
_journal_volume                  13
_journal_year                    2022
_chemical_formula_moiety         '0.571(C6 H5 N O2)'
_chemical_formula_sum            'C3.43 H2.86 N0.57 O1.14'
_chemical_formula_weight         70.35
_space_group_crystal_system      monoclinic
_space_group_IT_number           14
_space_group_name_Hall           '-P 2ybc'
_space_group_name_H-M_alt        'P 1 21/c 1'
_atom_sites_solution_hydrogens   difmap
_atom_sites_solution_primary     iterative
_audit_creation_date             2021-04-02
_audit_creation_method
;
Olex2 1.3
(compiled 2020.07.31 svn.rc2a77460 for OlexSys, GUI svn.r6145)
;
_cell_angle_alpha                90
_cell_angle_beta                 113.519(6)
_cell_angle_gamma                90
_cell_formula_units_Z            7
_cell_length_a                   7.1760(3)
_cell_length_b                   11.6702(3)
_cell_length_c                   7.2267(4)
_cell_measurement_reflns_used    1861
_cell_measurement_temperature    293(2)
_cell_measurement_theta_max      72.9590
_cell_measurement_theta_min      7.5690
_cell_volume                     554.93(5)
_computing_cell_refinement       'CrysAlisPro 1.171.39.46e (Rigaku OD, 2018)'
_computing_data_collection       'CrysAlisPro 1.171.39.46e (Rigaku OD, 2018)'
_computing_data_reduction        'CrysAlisPro 1.171.39.46e (Rigaku OD, 2018)'
_computing_molecular_graphics    'Olex2 1.3 (Dolomanov et al., 2009)'
_computing_publication_material  'Olex2 1.3 (Dolomanov et al., 2009)'
_computing_structure_refinement  'SHELXL 2018/3 (Sheldrick, 2015)'
_computing_structure_solution    'olex2.solve 1.3 (Bourhis et al., 2015)'
_diffrn_ambient_temperature      293(2)
_diffrn_detector                 'CCD plate'
_diffrn_detector_area_resol_mean 5.1975
_diffrn_detector_type            AtlasS2
_diffrn_measured_fraction_theta_full 0.991
_diffrn_measured_fraction_theta_max 0.991
_diffrn_measurement_details
;
List of Runs (angles in degrees, time in seconds):

  # Type    Start    End  Width  t~exp~   \w     \q     \k     \f   Frames
--------------------------------------------------------------------------
  1  \w   -103.00 -17.00   1.00    3.45    --  -41.12 -37.00-180.00   86
  2  \w   -115.00 -17.00   1.00    3.45    --  -41.12 -37.00  90.00   98
  3  \w    -41.00  17.00   1.00    3.45    --  -41.12  77.00  30.00   58
  4  \w     54.00  84.00   1.00    3.45    --   41.12-125.00-180.00   30
  5  \w      6.00  58.00   1.00    3.45    --   41.12 -99.00 -30.00   52
  6  \w     39.00 138.00   1.00   13.80    --  105.32 -77.00-150.00   99
  7  \w     72.00 117.00   1.00   13.80    --  105.32-125.00-150.00   45
  8  \w     32.00  60.00   1.00   13.80    --  105.32-125.00  90.00   28
  9  \w     45.00 115.00   1.00   13.80    --  105.32-125.00  60.00   70
 10  \w     23.00  95.00   1.00   13.80    --  105.32 -94.00  90.00   72
 11  \w    125.00 175.00   1.00   13.80    --  105.32  61.00-120.00   50
 12  \w    108.00 172.00   1.00   13.80    --  105.32  30.00-180.00   64
 13  \w     58.00  94.00   1.00   13.80    --  105.32  15.00 -60.00   36
 14  \w    133.00 174.00   1.00   13.80    --  105.32  15.00 -60.00   41
 15  \w     34.00 123.00   1.00   13.80    --  105.32 -45.00  90.00   89
 16  \w    106.00 132.00   1.00   13.80    --  105.32 -30.00-150.00   26
 17  \w     31.00 102.00   1.00   13.80    --  105.32 -30.00-150.00   71
;
_diffrn_measurement_device       'four-circle diffractometer'
_diffrn_measurement_device_type  'SuperNova, Dual, Cu at home/near, AtlasS2'
_diffrn_measurement_method       '\w scans'
_diffrn_orient_matrix_type
'CrysAlisPro convention (1999,Acta A55,543-557)'
_diffrn_orient_matrix_UB_11      0.2199654000
_diffrn_orient_matrix_UB_12      -0.0188555000
_diffrn_orient_matrix_UB_13      0.1535544000
_diffrn_orient_matrix_UB_21      0.0165805000
_diffrn_orient_matrix_UB_22      0.1280271000
_diffrn_orient_matrix_UB_23      0.0559153000
_diffrn_orient_matrix_UB_31      -0.0785312000
_diffrn_orient_matrix_UB_32      -0.0258282000
_diffrn_orient_matrix_UB_33      0.1654332000
_diffrn_radiation_monochromator  mirror
_diffrn_radiation_probe          x-ray
_diffrn_radiation_type           'Cu K\a'
_diffrn_radiation_wavelength     1.54184
_diffrn_reflns_av_R_equivalents  0.0306
_diffrn_reflns_av_unetI/netI     0.0258
_diffrn_reflns_Laue_measured_fraction_full 0.991
_diffrn_reflns_Laue_measured_fraction_max 0.991
_diffrn_reflns_limit_h_max       8
_diffrn_reflns_limit_h_min       -8
_diffrn_reflns_limit_k_max       13
_diffrn_reflns_limit_k_min       -13
_diffrn_reflns_limit_l_max       8
_diffrn_reflns_limit_l_min       -4
_diffrn_reflns_number            2765
_diffrn_reflns_point_group_measured_fraction_full 0.991
_diffrn_reflns_point_group_measured_fraction_max 0.991
_diffrn_reflns_theta_full        67.055
_diffrn_reflns_theta_max         67.055
_diffrn_reflns_theta_min         6.728
_diffrn_source                   'micro-focus sealed X-ray tube'
_diffrn_source_type              'SuperNova (Cu) X-ray Source'
_exptl_absorpt_coefficient_mu    0.954
_exptl_absorpt_correction_T_max  1.00000
_exptl_absorpt_correction_T_min  0.16570
_exptl_absorpt_correction_type   multi-scan
_exptl_absorpt_process_details
;
CrysAlisPro 1.171.39.46e (Rigaku Oxford Diffraction, 2018)
Empirical absorption correction using spherical harmonics,
 implemented in SCALE3 ABSPACK scaling algorithm.
;
_exptl_crystal_colour            colorless
_exptl_crystal_density_diffrn    1.474
_exptl_crystal_description       block
_exptl_crystal_F_000             256
_exptl_crystal_size_max          0.4
_exptl_crystal_size_mid          0.3
_exptl_crystal_size_min          0.2
_refine_diff_density_max         0.313
_refine_diff_density_min         -0.312
_refine_diff_density_rms         0.074
_refine_ls_extinction_method     none
_refine_ls_goodness_of_fit_ref   1.139
_refine_ls_hydrogen_treatment    refall
_refine_ls_matrix_type           full
_refine_ls_number_parameters     102
_refine_ls_number_reflns         989
_refine_ls_number_restraints     0
_refine_ls_restrained_S_all      1.139
_refine_ls_R_factor_all          0.0779
_refine_ls_R_factor_gt           0.0608
_refine_ls_shift/su_max          0.000
_refine_ls_shift/su_mean         0.000
_refine_ls_structure_factor_coef Fsqd
_refine_ls_weighting_details
'w=1/[\s^2^(Fo^2^)+(0.1153P)^2^+0.1319P] where P=(Fo^2^+2Fc^2^)/3'
_refine_ls_weighting_scheme      calc
_refine_ls_wR_factor_gt          0.1596
_refine_ls_wR_factor_ref         0.1905
_reflns_Friedel_coverage         0.000
_reflns_number_gt                799
_reflns_number_total             989
_reflns_threshold_expression     'I > 2\s(I)'
_cod_data_source_file            jz2c00118_si_002.cif
_cod_data_source_block           sa
_cod_database_code               8000566
_shelx_shelxl_version_number     2018/3
_chemical_oxdiff_formula         C6H5NO2
_shelx_space_group_comment
;
The symmetry employed for this shelxl refinement is uniquely defined
by the following loop, which should always be used as a source of
symmetry information in preference to the above space-group names.
They are only intended as comments.
;
_reflns_odcompleteness_completeness 98.96
_reflns_odcompleteness_iscentric 1
_reflns_odcompleteness_theta     66.97
_olex2_refinement_description
;
;
_shelx_res_file
;
TITL sa_a.res in P2(1)/c
    sa.res
    created by SHELXL-2018/3 at 19:35:12 on 02-Apr-2021
REM Old TITL SA in P2(1)/c
REM SHELXT solution in P2(1)/c: R1 0.192, Rweak 0.004, Alpha 0.034
REM <I/s> 0.387 for 58 systematic absences, Orientation as input
REM Formula found by SHELXT: C6 N O2
CELL 1.54184 7.176 11.6702 7.2267 90 113.519 90
ZERR 7 0.0003 0.0003 0.0004 0 0.006 0
LATT 1
SYMM -X,0.5+Y,0.5-Z
SFAC C H N O
UNIT 24 20 4 8

L.S. 8 0 0
PLAN  1
CONF
BOND
list 4
MORE -1
BOND $H
fmap 2 53
acta
REM <olex2.extras>
REM <HklSrc "%.\\SA.hkl">
REM </olex2.extras>

WGHT    0.115300    0.131900
FVAR       0.93400
O001  4    0.568016    0.409575    0.743171    11.00000    0.04100    0.02738 =
         0.09989   -0.00032    0.02811    0.00051
O002  4    0.299045    0.517156    0.699293    11.00000    0.05179    0.02527 =
         0.13329    0.00072    0.04045    0.00434
N003  3    0.244351    0.111862    0.704246    11.00000    0.04757    0.02739 =
         0.06354    0.00074    0.02654    0.00025
C004  1    0.259666    0.316066    0.692145    11.00000    0.04227    0.02556 =
         0.05241   -0.00034    0.02206    0.00150
C005  1    0.349804    0.208693    0.719590    11.00000    0.04022    0.02766 =
         0.05860    0.00114    0.02320    0.00186
C006  1    0.378124    0.424717    0.712090    11.00000    0.04228    0.02632 =
         0.06023    0.00156    0.02195    0.00425
C007  1    0.053213    0.322383    0.644860    11.00000    0.04257    0.03262 =
         0.05750    0.00108    0.02059    0.00556
C008  1    0.046150    0.120371    0.661416    11.00000    0.04759    0.03402 =
         0.06090   -0.00098    0.02656   -0.00677
C009  1   -0.055143    0.223315    0.631181    11.00000    0.03864    0.04442 =
         0.06330   -0.00219    0.02362   -0.00135
H005  2    0.486352    0.198255    0.754901    11.00000    0.03425
H009  2   -0.194320    0.224764    0.596370    11.00000    0.04541
H007  2   -0.008251    0.393353    0.622444    11.00000    0.06946
H008  2   -0.030287    0.047474    0.649680    11.00000    0.06050
H001  2    0.634957    0.483960    0.755208    11.00000    0.08851
HKLF 4




REM  sa_a.res in P2(1)/c
REM wR2 = 0.1905, GooF = S = 1.139, Restrained GooF = 1.139 for all data
REM R1 = 0.0608 for 799 Fo > 4sig(Fo) and 0.0779 for all 989 data
REM 102 parameters refined using 0 restraints

END

WGHT      0.1153      0.1319

REM Highest difference peak  0.313,  deepest hole -0.312,  1-sigma level  0.074
Q1    1   0.1416  0.3156  0.6233  11.00000  0.05    0.31
;
_shelx_res_checksum              27527
_shelx_hkl_file
;
   0   0   1    0.12    0.46
   0   0   1   -0.07    0.61
   0   0   1    0.01    0.35
   0   0   1   -0.04    0.28
   0   0   2 9944.37   27.45
   0   0   2 9999.00   28.19
   0   0   2 9948.08   21.00
   0   0   3    0.34    0.95
   0   0   4   25.00    2.24
   0   0   5    1.23    1.37
   0   0   5    0.45    2.35
   0   0   6   -3.00    2.27
   0   0   6   -4.57    3.62
   0   0   7   -3.92    3.33
   0  -1   0    0.00    0.11
   0   1   1   24.90    0.92
   0  -1   1   25.82    1.08
   0  -1   1   27.18    1.07
   0  -1   1   24.30    0.45
   0  -1   2 3666.21    5.27
   0   1   2 3660.33   14.44
   0  -1  -2 3623.35   13.50
   0  -1   2 3664.95   16.90
   0   1   2 3668.95   19.62
   0  -1   2 3689.29   15.84
   0   1   2 3681.99   12.71
   0  -1   3   40.87    2.37
   0   1   3   44.98    1.70
   0  -1   3   44.71    2.38
   0   1   3   43.44    2.60
   0  -1   4  710.58   11.25
   0   1   4  635.58   10.82
   0   1   5   10.33    1.90
   0  -1   5   10.74    1.89
   0  -1   5   -0.41    2.29
   0   1   5   -2.14    2.45
   0   1   6   -2.34    3.59
   0  -1   6    3.48    3.57
   0   1   6   -4.46    2.49
   0  -1   7   -4.42    3.24
   0   1   7   -6.25    3.28
   0  -2   0   20.67    0.82
   0  -2   1   32.51    0.77
   0  -2  -1   32.27    1.22
   0  -2   2  149.44    3.32
   0   2   2  145.19    3.27
   0  -2  -2  150.67    3.07
   0  -2   2  149.69    3.79
   0  -2   3   46.87    2.50
   0   2   3   46.77    1.91
   0   2   3   44.37    2.97
   0   2   3   43.36    1.88
   0  -2   3   41.82    2.56
   0   2   4  127.35    5.16
   0  -2   4  137.94    5.40
   0  -2   4  141.16    4.91
   0   2   5   12.21    1.29
   0  -2   5   -2.47    2.27
   0  -2   5    9.29    0.73
   0   2   5   15.54    1.20
   0   2   5   12.73    2.20
   0   2   5   -1.39    2.63
   0   2   6    4.80    0.86
   0  -2   6    3.38    3.48
   0   2   6    0.08    3.28
   0  -2   7   -2.72    3.11
   0   2   7   -6.24    3.08
   0  -3   0    3.94    0.57
   0  -3   1   47.79    1.30
   0  -3  -1   50.27    1.70
   0   3   2    3.80    0.79
   0  -3   2    3.53    0.36
   0  -3  -2    3.89    0.70
   0  -3   2    3.34    1.00
   0  -3  -3   66.96    2.69
   0   3   3   65.79    3.99
   0  -3   3   68.47    3.51
   0  -3   4   51.92    3.60
   0   3   4   52.91    3.74
   0  -3   5    8.38    0.74
   0   3   5    8.16    2.86
   0   3   5   11.44    1.31
   0  -3   6    1.27    3.21
   0   3   6    2.91    3.17
   0  -3   6   16.04    0.98
   0   3   6   22.66    1.51
   0  -4   0  161.17    3.03
   0  -4  -1   77.53    2.31
   0  -4   1   75.66    1.92
   0  -4  -2  156.49    3.65
   0  -4   2  147.32    2.41
   0   4   2  146.37    4.49
   0  -4   3  134.57    5.24
   0  -4  -3  144.31    4.10
   0  -4   4   10.41    0.68
   0   4   4   12.14    2.45
   0  -4   4   13.03    2.22
   0   4   5   96.52    5.83
   0  -4   5   61.15    1.65
   0   4   5   22.98    3.25
   0  -4   5   95.77    5.75
   0  -4   5    2.49    3.29
   0  -4   6   -0.16    2.92
   0   4   6    2.23    2.90
   0   4   6   -0.62    2.82
   0  -4   6    2.91    0.56
   0   4   6    3.96    1.04
   0   4   7   14.66    1.09
   0  -5   0    0.10    0.50
   0  -5  -1   84.36    2.64
   0  -5   1   85.41    2.35
   0  -5  -2   64.31    2.54
   0   5   2   71.54    3.51
   0  -5   2   65.32    1.88
   0  -5   2   63.37    3.30
   0  -5  -3  262.43    5.88
   0  -5   3  225.39    7.25
   0  -5   4   39.82    1.26
   0  -5   4   38.43    3.61
   0   5   5   20.62    3.35
   0  -5   5   22.52    1.13
   0   5   6    1.01    1.07
   0  -5   6    0.99    0.52
   0   5   7    1.70    0.73
   0  -5   7    1.32    0.42
   0  -6   0   60.41    2.33
   0  -6  -1    1.15    0.68
   0  -6   1    0.91    0.53
   0  -6   2   57.28    3.40
   0  -6  -2   60.34    2.71
   0  -6  -3   22.77    1.98
   0  -6   3    0.32    1.27
   0  -6   4   44.88    1.63
   0  -6   4   52.85    4.32
   0  -6   4   53.47    1.50
   0  -6   5   14.33    1.01
   0   6   5   27.55    3.37
   0   6   6   18.36    1.81
   0  -6   6   16.34    0.95
   0  -6   7   10.66    0.64
   0   6   7   10.57    1.04
   0  -7   0    0.54    0.67
   0  -7  -1   13.82    1.43
   0  -7   1   14.26    1.26
   0   7   2   30.85    3.28
   0  -7  -2   27.58    2.12
   0   7   3    2.23    0.58
   0  -7  -3    2.35    1.15
   0  -7   3    4.18    0.62
   0  -7   3    1.38    1.43
   0  -7   3    2.18    0.57
   0  -7   4   12.63    2.45
   0  -7   4   12.35    0.94
   0  -7   4   11.30    0.96
   0   7   5   17.98    3.04
   0  -7   5    5.02    0.88
   0  -7   6    3.76    0.60
   0   7   6    3.74    1.37
   0  -8   0    2.20    0.90
   0  -8  -1    3.36    1.06
   0  -8   1    5.16    0.60
   0   8   1    4.05    0.84
   0  -8   1    3.18    0.88
   0  -8  -2    6.61    1.32
   0  -8   2    7.83    1.72
   0  -8   2    6.85    0.71
   0   8   2    7.56    0.91
   0  -8   2    6.88    0.63
   0  -8   3   48.78    1.62
   0   8   3   46.24    1.77
   0  -8   3   50.48    4.13
   0  -8  -3   52.98    3.29
   0  -8   3   51.58    1.47
   0  -8   4    4.54    0.76
   0   8   4    5.70    0.82
   0  -8   4    3.88    0.82
   0  -8   5   20.16    1.24
   0   8   5   30.02    2.11
   0  -8   6    2.31    0.56
   0   8   6    0.60    1.02
   0  -9   0    0.16    0.47
   0  -9   0   -0.02    0.87
   0   9   1  102.05    3.20
   0  -9   1  100.02    2.06
   0  -9  -1   95.07    4.08
   0  -9   1   95.55    3.69
   0  -9   2   93.24    2.15
   0  -9   2   86.45    1.66
   0   9   2   93.38    2.79
   0  -9  -2   92.71    4.20
   0  -9   3  175.68    3.02
   0  -9   3  186.59    2.66
   0   9   3  176.90    3.53
   0  -9   4   79.70    1.93
   0  -9   4   78.44    2.12
   0   9   5   28.98    1.98
   0   9   5   29.19    1.90
   0  -9   6   20.06    0.83
   0   9   6   20.86    1.34
   0 -10   0  524.08    9.60
   0 -10   0  511.65    4.54
   0 -10  -1  979.69    5.96
   0 -10   1  994.13    6.63
   0 -10   2  229.21    3.35
   0  10   2  234.16    4.47
   0 -10   3   65.52    1.91
   0 -10   3   58.85    1.51
   0 -10   4   17.65    1.04
   0 -10   4   19.09    1.09
   0  10   4   21.48    1.98
   0 -10   5   13.10    0.80
   0  10   5   10.84    1.14
   0  10   5    9.27    1.26
   0 -11   0   -0.06    0.52
   0 -11   1   60.91    1.77
   0 -11  -1   52.09    1.44
   0 -11   2    6.58    0.80
   0 -11  -2    5.47    0.51
   0 -11   3  104.40    1.76
   0  11   3  103.58    3.26
   0  11   4    5.21    0.86
   0 -11   4    5.78    0.65
   0  11   4    5.39    1.32
   0 -11   4    5.59    0.63
   0  12   0    4.82    1.50
   0 -12   0    3.11    0.61
   0 -12   1    1.93    0.64
   0 -12  -1    1.19    0.41
   0  12   1    3.03    1.33
   0 -12  -2    2.34    0.35
   0  12   2    4.01    1.39
   0 -12   2    3.67    0.69
   0 -12   3   10.89    0.83
   0  12   3   10.45    1.43
   0 -12   4    2.12    0.45
   0 -12   4    2.21    0.38
   0  12   4    0.97    0.84
   0 -13   0    0.08    0.42
   0  13   1    0.88    1.16
   0 -13  -1    0.58    0.32
   0 -13   1    0.89    0.51
   0 -13   2    0.54    0.47
   0 -13  -2    0.42    0.23
   0  13   2    0.28    0.97
  -1   0   8   -2.92    2.68
  -1   0   6  491.60   10.66
  -1   0   5   -0.22    1.08
  -1   0   5    2.43    3.52
  -1   0   4 4901.94   26.71
  -1   0   3    0.08    0.65
  -1   0   3   -0.19    0.70
   1   0  -2 5433.33    9.72
  -1   0   2 5479.54   16.85
  -1   0   1    0.04    0.25
   1   0  -1   -0.01    0.22
   1   0   0    2.26    0.60
   1   0   1   -0.19    0.79
   1   0   1    0.14    0.67
   1   0   1    0.35    0.43
   1   0   2   34.84    2.08
   1   0   2   34.78    2.00
   1   0   2   38.42    1.89
   1   0   3    0.05    0.98
   1   0   3    0.32    0.63
   1   0   4    0.55    1.15
   1   0   5    0.17    1.17
   1   0   5    2.85    2.37
   1   0   6   -4.07    2.14
   1   0   7   -1.48    2.78
  -1   1   8   -0.48    2.45
  -1  -1   8   -1.45    2.54
  -1   1   6    4.51    2.54
  -1   1   6  130.19    2.98
  -1  -1   5   70.53    1.25
  -1   1   5    4.57    3.55
  -1   1   5   78.91    4.18
  -1  -1   5   73.81    3.86
  -1  -1   5    4.84    3.49
  -1   1   5   78.90    2.19
  -1  -1   4   84.72    3.68
  -1   1   4   76.10    3.55
  -1  -1   3  215.62    5.10
  -1   1   3  219.87    4.83
   1  -1  -3  217.09    3.14
   1  -1  -2 3787.45   10.36
  -1  -1   2 3813.59   14.30
  -1   1   2 3784.73   15.18
  -1   1   1    0.81    0.31
  -1  -1   1    0.16    0.37
   1  -1  -1    0.27    0.32
  -1  -1   1    0.49    0.41
   1  -1   0 1956.65    9.69
   1   1   0 1983.30   10.59
   1  -1   1  303.43    4.82
   1   1   1  269.91    4.91
   1  -1   1  283.31    3.72
   1  -1   1  289.58    3.73
   1  -1   2    0.32    0.72
   1   1   2   -0.02    1.05
   1  -1   2    0.97    0.71
   1   1   2    0.18    0.71
   1  -1   2    0.14    0.58
   1  -1   3   77.01    3.39
   1   1   3   75.87    3.18
   1  -1   3   69.85    3.08
   1   1   3   71.69    3.58
   1  -1   4   11.26    1.88
   1   1   4   10.86    1.95
   1   1   5    2.72    0.88
   1  -1   5    3.58    1.38
   1   1   5    1.85    1.33
   1   1   5    2.60    2.54
   1  -1   5    2.26    0.61
   1  -1   5    0.49    2.25
   1  -1   6    8.62    3.63
   1   1   6   -2.42    2.29
   1   1   7   -3.51    2.77
   1  -1   7   -2.33    2.72
  -1  -2   8   -0.96    2.41
  -1   2   7    2.34    0.73
  -1  -2   6   -1.46    3.52
  -1   2   6   -5.76    2.66
  -1   2   6   -0.71    3.42
  -1   2   5    1.39    1.16
  -1  -2   5    1.97    0.36
  -1   2   5    0.97    0.70
  -1  -2   5    5.47    3.44
  -1   2   5    0.93    3.44
  -1  -2   4   30.67    2.62
  -1   2   4   31.38    2.46
  -1   2   4   35.60    2.32
   1  -2  -3  104.16    2.59
  -1   2   3   97.17    3.52
  -1  -2   3   94.63    3.49
  -1   2   2  405.91    2.74
  -1   2   2  368.88    5.78
  -1  -2   2  380.98    5.67
   1  -2  -2  399.69    4.05
   1  -2  -1  839.70    5.30
  -1  -2   1  875.47    6.32
   1  -2   0 1346.26    7.31
   1   2   0 1403.39    9.83
   1   2   1  705.88    8.32
   1  -2   1  703.51    5.33
   1  -2   1  683.39    5.42
   1  -2   2    9.71    0.72
   1   2   2    9.45    1.27
   1  -2   2   10.79    1.29
   1   2   3  142.02    5.60
   1  -2   3  146.12    4.79
   1  -2   3  151.94    4.49
   1   2   3  144.47    4.71
   1   2   4   21.45    2.53
   1  -2   4   22.65    2.26
   1  -2   4   24.56    2.61
   1  -2   5    7.53    0.77
   1   2   5    9.41    1.92
   1   2   5    8.42    1.23
   1  -2   6    4.32    3.42
   1   2   6   -0.93    2.51
   1   2   7   -3.72    2.62
   1  -2   7   -1.73    2.51
  -1   3   7   -0.12    0.74
  -1  -3   6   -2.94    3.33
  -1  -3   6    0.16    0.49
  -1   3   6    0.36    0.81
  -1   3   6   -2.92    3.15
  -1  -3   5    5.07    0.58
  -1   3   5   -0.58    2.53
  -1  -3   5    1.07    3.29
  -1  -3   5    8.12    2.09
  -1  -3   5    7.35    0.52
  -1   3   5    7.15    1.83
  -1   3   5    7.08    1.02
  -1   3   5    0.02    3.37
  -1  -3   4   12.71    1.94
  -1   3   4   13.98    1.90
   1  -3  -3   92.97    2.71
  -1  -3   3   83.12    3.67
  -1   3   3   80.98    3.69
   1  -3  -2   34.56    1.50
  -1  -3   2   35.67    2.04
  -1  -3   1  296.79    3.80
   1  -3  -1  318.42    3.76
  -1  -3   0   21.91    1.29
   1  -3   0   20.59    1.00
   1  -3   1  454.16    4.47
  -1  -3  -1  439.10    6.00
   1   3   2    1.80    0.96
   1  -3   2    2.16    0.98
   1  -3   2    2.38    0.42
   1  -3   3  171.66    5.70
   1   3   3  154.58    6.54
   1   3   3  156.02    5.15
   1  -3   4    6.62    0.66
   1  -3   4   13.14    2.13
   1   3   4    9.40    1.15
   1   3   4   13.95    2.42
   1   3   5   15.78    1.52
   1  -3   5   13.35    0.93
   1   3   6    6.00    3.21
   1  -3   6    4.33    3.13
   1  -3   6    2.28    0.61
   1   3   6    2.36    2.67
  -1   4   7    1.39    0.89
  -1   4   6   11.18    1.41
  -1  -4   6   11.41    0.88
  -1  -4   5    2.40    3.18
  -1   4   5    0.51    0.89
  -1  -4   5    2.10    0.53
  -1   4   5    0.41    1.45
  -1   4   5    6.29    2.85
  -1  -4   5    2.12    1.63
  -1   4   4   36.43    3.21
  -1  -4   4   36.06    3.14
   1  -4  -4   42.35    2.32
  -1   4   3   16.86    2.23
   1  -4  -3   16.39    1.34
  -1  -4   3   18.70    2.11
  -1  -4   2   32.97    2.22
   1  -4  -2   28.27    1.52
  -1  -4   1  481.19    5.46
   1  -4  -1  557.40    5.40
   1  -4   0    9.37    0.80
  -1  -4   0    9.26    1.02
   1   4   1 1625.19   15.83
   1  -4   1 1617.94    9.13
   1  -4   2   31.87    2.35
   1   4   2   32.26    2.55
   1  -4   3  452.83    9.85
   1   4   3  422.57   11.93
   1   4   3  418.15    8.83
   1   4   4    0.05    0.67
   1   4   4   -0.04    1.60
   1  -4   4    0.32    1.26
   1  -4   4   -0.29    0.52
   1  -4   4    0.37    0.78
   1   4   5   10.54    1.33
   1  -4   5    7.72    0.76
   1   4   6    0.48    2.76
   1  -4   6    3.74    0.63
   1   4   6    4.60    2.88
   1  -4   6    1.36    2.74
   1   4   6    6.04    1.00
  -1   5   7    1.54    0.98
  -1  -5   7    2.75    0.51
  -1  -5   6    0.05    0.62
  -1   5   6    1.08    1.16
  -1   5   5    4.99    3.04
  -1  -5   5    3.69    0.64
  -1   5   5    0.71    1.63
  -1  -5   5    3.25    1.67
  -1  -5   4   10.07    0.51
   1  -5  -4   10.94    1.41
  -1  -5   4    9.19    0.69
  -1  -5   4    8.96    2.11
  -1   5   4   10.07    2.39
  -1  -5   3  252.75    7.43
   1  -5  -3  240.07    5.08
  -1   5   3  258.46    8.93
   1  -5  -2  193.93    4.22
  -1  -5   2  192.13    5.35
   1  -5  -1 1486.75   10.96
  -1  -5   1 1631.28   11.16
   1  -5   0  528.66    5.71
  -1  -5   0  531.55    6.85
   1  -5   1  847.29    7.08
  -1  -5  -1  836.46    9.44
   1   5   2   13.36    1.99
   1  -5   2   12.31    1.73
   1  -5   3   11.65    2.07
   1   5   3   12.26    3.20
   1  -5   4   37.70    3.55
   1  -5   4   37.31    1.72
   1  -5   4   32.91    1.27
   1   5   4   31.17    1.97
   1  -5   5    5.22    2.89
   1  -5   5   53.98    1.64
   1  -5   6    7.12    0.76
   1   5   6   10.18    1.25
   1   5   6    4.78    2.89
  -1  -6   7    1.33    0.45
  -1   6   7    0.27    0.93
  -1  -6   6    3.50    0.71
  -1   6   6    4.34    1.42
  -1   6   5    1.64    2.93
  -1  -6   5    5.14    0.75
  -1   6   4    5.88    1.22
   1  -6  -4    6.60    1.24
  -1   6   4    4.16    2.43
  -1  -6   4    5.79    0.68
  -1  -6   4    6.55    1.94
   1  -6  -3    0.10    0.74
  -1   6   3    2.00    2.44
  -1  -6   3    0.46    1.19
   1  -6  -2   16.31    1.47
  -1  -6   2   18.24    1.99
   1  -6  -1   59.23    2.47
  -1  -6   1   60.74    2.42
   1  -6   0  240.77    4.72
  -1  -6   0  243.54    5.07
  -1  -6  -1  342.79    6.47
   1  -6   1  347.30    5.46
   1   6   2  350.55    9.82
   1  -6   2  314.07    8.00
   1   6   3  100.99    2.38
   1   6   3  118.51    3.52
   1  -6   3  106.86    2.38
   1  -6   3  125.63    2.18
   1  -6   3  141.19    6.31
   1  -6   4   37.03    1.41
   1  -6   4   37.55    1.71
   1  -6   5    4.22    0.67
   1  -6   6   -0.46    0.55
   1   6   6    0.29    0.94
  -1  -7   7    0.27    0.37
  -1   7   7   -0.56    0.95
  -1  -7   6   -1.00    0.68
  -1   7   6    1.32    1.43
  -1   7   5    1.17    1.33
  -1   7   5    3.54    1.40
  -1  -7   5    1.49    0.72
  -1  -7   4    1.31    1.36
   1  -7  -4    1.29    0.95
  -1  -7   4    2.36    0.65
  -1   7   4    3.53    1.42
  -1   7   3   40.16    1.76
  -1  -7   3   37.81    1.27
   1  -7  -3   37.97    2.43
  -1  -7   3   36.74    3.40
  -1  -7   3   42.06    1.24
  -1  -7   2    9.33    1.65
   1  -7  -2   10.48    1.38
   1  -7  -1   58.85    2.73
  -1  -7   1   65.34    2.76
   1  -7   0   15.33    1.45
  -1  -7   0   16.98    1.62
   1  -7   1    8.28    1.11
  -1  -7  -1    7.98    1.38
   1   7   1    6.21    1.84
   1   7   2   14.22    2.72
   1  -7   2   11.86    1.95
   1   7   2    9.01    0.83
   1  -7   2   11.90    0.73
   1  -7   2   12.34    0.85
   1   7   3    6.04    0.71
   1  -7   3    6.38    0.81
   1  -7   3    5.18    0.71
   1  -7   4   -0.58    0.88
   1  -7   4    2.36    0.75
   1  -7   5   10.79    0.90
   1   7   5   38.19    3.37
   1   7   6    0.83    0.91
   1  -7   6   -0.61    0.51
  -1  -8   6   -0.22    0.73
  -1   8   6    1.07    1.27
  -1   8   5   20.69    1.98
  -1  -8   5   16.32    1.12
  -1   8   5   17.34    1.98
  -1   8   4   15.04    2.02
  -1  -8   4   12.16    0.89
  -1  -8   4   14.35    0.95
  -1  -8   3    1.32    1.39
  -1  -8   3    2.95    0.62
   1  -8  -3    3.45    1.18
  -1  -8   3    2.60    0.58
   1  -8  -2   36.67    2.45
  -1  -8   2   44.91    3.41
  -1   8   2   42.58    2.02
  -1  -8   2   42.70    1.31
  -1  -8   2   43.30    1.12
   1  -8  -1  263.50    2.97
   1  -8  -1  254.10    5.91
   1   8   0   53.08    2.05
   1  -8   0   52.19    2.70
   1  -8   0   55.04    1.46
   1  -8   1  195.56    4.83
   1  -8   1  189.35    2.85
   1   8   1  182.20    3.52
   1   8   2   18.79    3.33
   1  -8   2   20.34    1.11
   1  -8   2   18.48    0.93
   1   8   2   17.91    1.15
   1  -8   2   22.72    2.63
   1   8   3    7.06    0.76
   1  -8   3    5.95    0.81
   1  -8   3    7.68    0.91
   1   8   4    1.71    0.53
   1  -8   4    0.76    0.71
   1  -8   5    2.95    0.73
   1   8   5   16.55    2.68
   1   8   6    1.81    0.82
   1  -8   6    0.22    0.48
  -1   9   6   18.28    1.43
  -1  -9   6   20.54    0.88
  -1  -9   5    0.51    0.79
  -1   9   5    2.33    1.21
  -1   9   5    0.51    1.44
  -1   9   4    9.53    1.87
  -1  -9   4    8.45    0.91
  -1  -9   4    7.51    0.76
  -1  -9   3  174.69    2.84
  -1   9   3  172.92    4.73
  -1  -9   2   40.37    3.38
   1  -9  -2   35.36    1.11
   1  -9  -2   35.48    2.59
  -1  -9   2   35.35    1.31
  -1  -9   2   34.14    1.08
   1  -9  -1  279.30    6.68
   1   9  -1  274.11    5.54
   1  -9   0  188.99    5.32
   1  -9   0  188.56    2.81
   1   9   1   22.24    1.42
   1   9   1   18.20    3.54
   1  -9   1   20.02    1.13
   1  -9   2  123.73    2.62
   1   9   2  116.94    2.80
   1  -9   3   -1.34    0.84
   1  -9   3   -0.28    0.70
   1   9   3    0.95    0.56
   1  -9   4   25.94    1.36
   1  -9   4   30.05    1.25
   1   9   4   25.92    1.26
   1   9   5    9.13    1.38
   1  -9   5    6.39    0.77
  -1  10   5  233.61    4.49
  -1 -10   5  223.45    2.61
  -1  10   4  122.06    3.17
  -1 -10   4  126.51    2.37
  -1 -10   4  129.29    2.16
  -1  10   4  127.32    4.04
  -1 -10   3  383.48    3.50
  -1  10   3  377.01    6.61
  -1 -10   3  382.98    4.13
   1 -10  -2  148.42    2.23
  -1  10   2  149.47    4.33
  -1 -10   2  151.85    2.03
  -1  10   1   42.63    2.62
   1 -10  -1   41.89    1.35
  -1  10   0   48.81    2.93
   1 -10   0   39.85    1.44
   1  10   0   47.21    2.50
   1 -10   1   18.06    1.11
   1  10   1   20.50    1.62
   1 -10   2   -0.47    0.60
   1  10   2    0.30    0.68
   1 -10   2    0.52    0.69
   1  10   3    3.24    0.75
   1 -10   3    1.66    0.67
   1 -10   3    2.87    0.77
   1  10   4    3.33    1.38
   1 -10   4    3.09    0.68
   1 -10   4    4.71    0.70
   1  10   5    0.76    0.77
   1 -10   5   -0.19    0.52
  -1 -11   5   11.50    0.68
  -1  11   5   13.14    1.11
  -1  11   4   12.15    1.61
  -1 -11   4   13.19    0.82
  -1 -11   4   14.37    0.85
  -1  11   4   11.26    1.03
  -1  11   3   27.80    2.29
  -1 -11   3   30.11    1.25
  -1 -11   3   27.55    0.99
  -1 -11   2   26.81    1.24
   1 -11  -2   22.82    0.91
  -1  11   2   26.36    2.23
  -1 -11   1   81.21    1.91
  -1  11   1   84.23    3.59
   1 -11   0    0.72    0.58
  -1 -11   0    1.02    0.51
   1  11   1    3.18    1.12
   1 -11   1    2.28    0.72
  -1 -11  -1    1.60    0.49
   1 -11   2    2.91    0.78
   1  11   2    4.02    0.99
   1 -11   3    2.67    0.52
   1 -11   3    1.65    0.70
  -1 -11  -3    1.64    0.30
   1 -11   4    0.46    0.48
   1 -11   4    0.74    0.50
   1  11   4    1.90    0.75
   1  11   4    0.60    1.02
  -1 -12   4   -0.20    0.41
  -1 -12   4    0.22    0.35
  -1  12   3    0.27    1.18
  -1 -12   3    0.95    0.43
  -1 -12   3    0.86    0.51
   1 -12  -2   15.72    0.67
  -1  12   2   17.78    1.79
  -1 -12   2   19.09    0.99
  -1  12   1   22.40    2.13
   1 -12  -1   17.87    0.84
  -1 -12   1   21.13    1.07
   1 -12   0   32.52    1.21
  -1 -12   0   31.34    1.14
   1 -12   1    1.19    0.66
  -1 -12  -1    0.56    0.40
  -1  12  -2   11.39    1.57
  -1 -12  -2    8.83    0.51
   1 -12   2   11.47    0.94
   1  12   3   17.43    1.40
   1  12   3   14.84    0.95
  -1  13   3   -1.02    0.86
  -1 -13   3    0.30    0.35
  -1  13   2    3.63    1.11
  -1 -13   2    6.27    0.60
  -1 -13   1   11.17    0.73
   1 -13  -1   10.08    0.58
  -1  13   1   11.45    1.49
  -1 -13   0   11.72    0.71
   1 -13   0   12.39    0.73
   1  13   1   29.06    1.74
   1 -13   1   28.33    1.06
   1 -13   2   22.51    0.94
   1  13   2   21.47    1.44
  -2   0   6   39.30    1.01
  -2   0   6   38.49    1.72
  -2   0   5    0.17    0.91
  -2   0   5    0.83    3.36
  -2   0   4   60.45    3.18
  -2   0   4   50.68    2.53
  -2   0   3    0.04    0.48
  -2   0   3    0.03    0.72
   2   0  -2    9.71    0.61
   2   0  -1    0.00    0.48
   2   0   0    0.93    0.70
   2   0   1   -0.19    0.73
   2   0   1    0.43    0.89
   2   0   1   -0.07    0.36
   2   0   2  329.50    6.46
   2   0   2  340.73    7.36
   2   0   3    0.13    0.94
   2   0   3    0.55    1.02
   2   0   4  210.91    6.72
   2   0   4  174.78    3.74
   2   0   5   -0.05    0.68
   2   0   5    3.23    2.19
  -2   1   7   16.16    1.21
  -2   1   6  163.11    3.43
  -2  -1   6  162.76    2.04
  -2   1   5    3.99    1.30
  -2   1   5    3.74    0.78
  -2   1   5    5.55    1.52
  -2  -1   4  101.70    4.04
  -2   1   4   81.99    3.29
   2  -1  -3   78.51    1.91
  -2   1   3   81.99    2.58
   2   1  -2   54.30    1.78
   2  -1  -2   56.98    1.77
  -2   1   2   53.43    1.33
   2  -1  -1  128.15    2.78
   2   1  -1  127.40    3.07
   2  -1   0   55.93    2.37
   2   1   0   55.83    2.55
   2  -1   0   51.49    1.12
   2   1   1    0.84    0.86
   2  -1   1    0.49    0.89
   2  -1   1    0.57    0.49
   2  -1   1    0.52    0.45
   2  -1   2  125.08    3.52
   2  -1   2  113.88    3.52
   2   1   2  116.46    4.58
   2   1   2  112.46    4.59
   2  -1   2  123.04    4.35
   2   1   3   12.19    1.84
   2   1   3   11.00    1.79
   2  -1   3   10.73    1.49
   2  -1   4    2.05    0.64
   2  -1   4    2.11    1.32
   2  -1   4    0.81    0.53
   2   1   4    1.65    0.73
   2   1   4   -0.76    0.79
   2   1   4    2.11    1.46
   2   1   5    1.87    0.84
   2   1   5    7.47    2.38
   2   1   6   -2.78    2.01
  -2   2   8    6.69    0.69
  -2   2   7   12.14    1.18
  -2   2   6    6.11    1.05
  -2  -2   6    6.24    0.51
  -2   2   6    6.70    1.58
  -2   2   5  107.40    2.71
  -2  -2   5   -2.17    3.30
  -2   2   5   86.19    4.70
  -2  -2   5   91.98    1.62
  -2   2   5    1.24    2.18
  -2   2   5  110.16    4.69
  -2  -2   4  116.00    4.68
  -2   2   4  112.42    3.73
  -2  -2   3  191.31    4.96
  -2   2   3  194.96    3.97
   2  -2  -2    5.65    0.68
  -2  -2   2    5.48    0.86
  -2   2   2    5.62    0.51
  -2  -2   2    5.84    0.91
   2  -2  -1  284.08    4.08
   2   2  -1  329.41    5.85
  -2  -2   1  272.73    3.97
  -2  -2   1  313.12    3.67
   2  -2   0  205.53    4.24
   2   2   0  197.60    5.01
   2   2   1  275.52    6.84
   2  -2   1  247.54    3.56
   2   2   2    0.29    0.99
   2  -2   2    0.26    0.63
   2  -2   2    0.95    0.73
   2   2   2   -0.15    1.38
   2  -2   3   51.10    3.06
   2   2   3   45.79    3.33
   2   2   3   46.79    3.55
   2  -2   3   49.28    2.72
   2   2   4   19.70    2.59
   2   2   4   15.53    1.40
   2  -2   4   19.22    2.08
   2   2   5    1.74    0.86
   2  -2   6    8.46    3.07
   2   2   6   11.80    3.27
  -2   3   8    0.28    0.53
  -2   3   8    1.42    2.32
  -2  -3   8   -0.02    2.42
  -2   3   7    1.72    0.91
  -2   3   7   -1.88    2.98
  -2  -3   6    6.56    0.52
  -2   3   6    3.98    0.99
  -2  -3   5    1.85    0.41
  -2  -3   5    1.00    0.41
  -2   3   5    1.56    0.84
  -2   3   5    0.77    0.97
  -2  -3   4   16.46    2.14
   2  -3  -4   15.12    1.28
  -2   3   4   12.97    1.57
  -2   3   3  119.19    3.39
   2  -3  -3  120.45    2.92
  -2  -3   2  295.10    5.44
   2  -3  -2  286.39    4.20
  -2   3   2  291.87    3.86
  -2  -3   1  821.06    7.06
   2   3  -1  826.00   10.45
   2  -3  -1  829.14    7.34
   2  -3   0  774.53    7.46
  -2  -3   0  741.53    4.40
   2   3   1  261.36    7.12
   2  -3   1  265.70    4.59
   2  -3   2  117.22    4.23
   2  -3   2  128.63    3.34
   2   3   3    0.72    1.32
   2  -3   3    0.87    0.37
   2  -3   3    1.08    0.99
   2   3   3    0.80    0.58
   2   3   3    0.96    1.64
   2  -3   4    0.00    0.48
   2   3   4   -0.05    0.79
   2   3   4    0.02    1.37
   2   3   5    0.09    0.79
   2  -3   5   -0.45    0.56
   2  -3   5    0.03    0.55
   2  -3   6    6.16    2.68
   2   3   6    8.21    2.96
   2   3   6   -0.59    2.27
  -2   4   8    0.23    0.57
  -2  -4   8    2.62    2.16
  -2   4   7    0.12    0.95
  -2  -4   6    0.55    0.52
  -2   4   6    0.07    0.95
  -2   4   5   38.98    2.03
  -2  -4   5   40.20    1.21
  -2  -4   5   41.98    1.08
  -2  -4   4   47.93    3.42
   2  -4  -4   48.67    2.37
  -2   4   4   52.95    3.14
  -2   4   3  684.14    9.25
   2  -4  -3  670.84    8.00
   2  -4  -2   87.17    2.61
  -2  -4   2   83.07    3.23
  -2   4   2   85.32    2.89
  -2  -4   1 1111.65    9.43
   2  -4  -1 1162.01    9.08
   2  -4   0  186.56    3.81
   2   4   0  190.11    6.19
   2  -4   1  136.07    3.30
   2   4   1  126.81    5.39
   2   4   2  287.23    8.80
   2  -4   2  289.67    7.16
   2   4   3   -0.67    1.94
   2  -4   3    0.47    0.38
   2   4   3    0.01    0.63
   2  -4   3    0.40    0.70
   2  -4   3    0.42    1.11
   2   4   3    0.31    1.37
   2  -4   4   13.15    0.93
   2   4   4   13.66    1.49
   2  -4   5    0.24    0.51
   2  -4   5    0.03    0.52
   2   4   5    0.93    0.84
   2   4   6    0.95    2.49
   2  -4   6    0.18    2.32
   2   4   6    1.18    2.29
  -2   5   7   15.60    1.62
  -2  -5   7   16.14    0.87
  -2   5   6   17.05    1.80
  -2  -5   6   20.61    1.05
  -2   5   5  150.26    3.51
  -2   5   5  149.59    4.05
  -2  -5   5  158.42    7.35
  -2  -5   5  147.02    2.32
  -2  -5   5  158.29    1.95
  -2   5   4   81.43    2.62
  -2  -5   4   80.94    4.68
  -2  -5   4   81.07    1.33
   2  -5  -4   81.86    3.30
  -2  -5   4   85.09    1.59
  -2  -5   3  252.55    7.15
   2  -5  -3  242.49    5.22
   2  -5  -2    3.49    0.76
  -2  -5   2    2.93    1.03
   2  -5  -1    8.28    1.01
  -2  -5   1    3.22    0.80
   2   5   0  134.77    5.79
   2  -5   0  151.89    3.63
   2  -5   1  202.24    4.16
   2   5   1  159.71    6.51
   2  -5   2   30.61    2.65
   2   5   2   31.77    3.52
   2  -5   3   26.61    2.82
   2  -5   3   23.80    1.38
   2   5   3   29.70    4.36
   2  -5   3   23.84    1.08
   2   5   3   19.19    1.56
   2  -5   4    0.24    0.48
   2  -5   4    0.18    0.76
   2   5   4   -0.13    0.78
   2  -5   5   10.46    2.77
   2  -5   5    3.19    0.66
  -2  -6   7    0.05    0.46
  -2   6   7   -0.62    1.07
  -2  -6   6    0.10    0.58
  -2   6   6   -0.23    1.32
  -2   6   5   18.87    1.85
  -2  -6   5   19.26    0.75
  -2  -6   5   19.05    0.98
  -2   6   4   32.88    2.02
  -2  -6   4   33.02    3.30
  -2  -6   4   34.31    0.84
   2  -6  -4   32.80    2.30
  -2   6   4   31.98    2.05
  -2  -6   4   35.22    1.15
   2  -6  -3  207.60    5.27
  -2  -6   3  215.79    7.10
   2  -6  -2  368.80    6.68
  -2  -6   2  369.83    7.99
  -2  -6   1  266.39    5.77
   2  -6  -1  246.39    4.89
   2   6   0  347.34   10.02
   2  -6   0  356.48    5.89
   2   6   1    9.57    2.19
   2  -6   1   12.74    1.22
   2  -6   2   18.77    1.11
   2  -6   2   24.11    2.59
   2   6   2   23.52    3.44
   2  -6   2   20.56    0.97
   2   6   2   18.75    1.50
  -2   6  -2   22.88    1.37
   2  -6   3   28.11    1.20
   2  -6   3   26.73    2.93
   2  -6   3   23.57    1.38
   2   6   3   22.82    1.74
   2  -6   4    2.03    0.58
   2  -6   4    1.30    0.81
   2   6   4    1.12    0.46
   2   6   4    1.14    0.88
   2  -6   5    0.13    0.56
   2   6   6   -0.14    0.54
   2   6   6   -3.01    2.10
  -2   7   7    3.89    1.10
  -2  -7   7    2.52    0.44
  -2  -7   6    0.77    0.66
  -2   7   6    0.30    1.39
  -2   7   5    7.01    1.57
  -2   7   5    5.34    1.46
  -2  -7   5    6.89    0.84
  -2   7   4   11.62    1.78
  -2   7   4   11.35    1.54
  -2  -7   4   13.51    2.37
  -2  -7   4   11.60    0.52
   2  -7  -4   10.93    1.53
  -2  -7   4   11.83    0.85
  -2   7   3   31.69    2.18
  -2   7   3   32.66    1.88
  -2  -7   3   34.02    1.11
   2  -7  -3   31.79    2.31
   2  -7  -2    2.88    1.00
  -2  -7   2    3.15    1.24
  -2  -7   1  247.65    6.03
   2  -7  -1  227.48    5.66
   2  -7   0   -0.02    0.72
   2   7   0   -0.18    1.58
   2   7   1  126.00    7.01
   2  -7   1  125.04    2.44
   2  -7   2   14.03    1.05
   2  -7   2   15.31    2.26
  -2   7  -2   15.11    1.30
   2   7   2   17.14    3.43
   2  -7   2    8.49    0.77
   2   7   2   11.12    0.99
   2   7   2   12.26    1.39
   2   7   3    0.10    0.54
   2  -7   3    0.79    0.70
   2  -7   3    1.69    0.56
   2   7   3    0.04    0.72
   2  -7   4   11.81    1.17
   2  -7   4   11.80    0.91
   2   7   4   10.87    0.84
   2   7   5   34.96    3.10
   2  -7   5    0.66    0.61
  -2  -8   7    0.98    0.33
  -2   8   7    0.44    0.74
  -2   8   6   25.93    1.93
  -2  -8   6   25.54    1.08
  -2   8   6   28.60    1.71
  -2   8   5   38.60    2.59
  -2   8   5   39.98    2.44
  -2  -8   5   39.84    1.44
  -2   8   4   30.45    2.51
  -2   8   4   31.48    2.08
  -2  -8   4   33.09    1.23
  -2   8   3   72.84    3.37
  -2  -8   3   76.07    1.73
   2  -8  -3   76.43    3.65
  -2  -8   3   83.57    1.65
  -2  -8   2   23.28    0.86
  -2   8   2   21.87    2.02
   2  -8  -2   20.61    2.01
  -2  -8   1    9.98    0.54
  -2   8   1    9.86    1.51
   2  -8  -1    9.84    0.73
   2  -8  -1   11.40    1.56
   2   8  -1    8.96    1.03
   2   8  -1    6.64    2.17
   2  -8   0   23.06    1.10
   2   8   0   18.56    3.27
   2  -8   0   23.95    2.06
   2   8   0   21.15    1.42
   2   8   1    4.77    2.30
   2  -8   1    6.11    0.80
   2   8   1    5.28    0.87
   2  -8   2    2.61    1.30
   2  -8   2    2.83    0.78
   2   8   2    1.67    0.60
  -2   8  -2    1.99    0.84
   2   8   2    2.85    2.57
   2  -8   2    3.39    0.57
   2  -8   3   22.81    1.39
   2  -8   3   20.70    1.10
   2  -8   4    3.63    0.85
   2  -8   4    5.35    0.77
   2   8   4    4.29    0.61
   2   8   5   14.65    2.38
   2  -8   5    5.65    0.72
  -2   9   6    4.47    0.91
  -2  -9   6    4.07    0.63
  -2   9   6    3.27    0.98
  -2   9   5   66.12    3.11
  -2   9   5   65.45    2.59
  -2  -9   5   69.45    1.73
  -2   9   4   52.51    3.13
  -2   9   4   51.79    2.43
  -2  -9   4   52.91    1.52
  -2  -9   4   56.60    1.55
  -2   9   3    3.26    1.74
  -2  -9   3    2.93    0.56
  -2  -9   3    3.32    0.61
  -2  -9   2   95.69    1.66
  -2   9   2   91.63    3.88
   2  -9  -2   93.62    4.13
  -2  -9   2  102.75    2.07
   2  -9  -1    0.02    0.78
  -2   9   1    0.03    1.35
   2  -9  -1   -0.49    0.55
   2   9  -1    1.39    0.79
   2   9  -1    0.44    1.77
   2   9   0   29.44    4.41
   2  -9   0   29.67    1.32
   2  -9   0   34.87    2.51
   2   9   0   35.51    1.87
   2   9   1   25.60    4.12
   2  -9   1   29.56    1.39
   2   9   1   30.21    1.64
  -2   9  -2    0.17    0.87
   2   9   2    0.44    0.53
   2  -9   2    0.10    0.75
   2  -9   2    2.39    0.54
   2   9   3   20.71    1.14
   2  -9   3   21.92    1.34
   2  -9   3   20.47    1.08
   2  -9   4    3.32    0.74
   2  -9   4    3.90    0.82
   2   9   4    4.59    0.64
  -2  10   6    5.44    0.73
  -2 -10   6    5.80    0.56
  -2  10   6    4.71    0.69
  -2 -10   5    0.17    0.65
  -2  10   5   -0.02    0.80
  -2 -10   4    1.35    0.71
  -2 -10   4    0.29    0.41
  -2  10   3    9.52    2.05
  -2 -10   3   10.76    0.83
  -2 -10   3   11.92    0.81
  -2  10   2    6.97    1.86
  -2 -10   2    6.23    0.72
  -2 -10   2    5.50    0.58
  -2  10   1    1.47    1.55
   2  10  -1    1.24    1.05
   2 -10  -1    1.41    0.47
   2 -10   0   15.13    1.04
   2  10   0   21.40    1.60
   2 -10   1    6.73    0.88
   2  10   1    8.88    1.11
   2 -10   2   11.30    1.10
  -2  10  -2   10.33    1.50
   2 -10   2   11.97    0.75
   2  10   2   13.09    1.09
   2 -10   3   42.88    1.32
   2  10   3   42.46    1.60
   2  10   4    4.80    1.00
   2 -10   4    3.49    0.65
  -2  11   5    7.79    1.05
  -2 -11   5    6.90    0.62
  -2 -11   4    0.67    0.60
  -2 -11   4    0.57    0.39
  -2  11   3    3.01    1.64
  -2 -11   3    3.92    0.60
  -2 -11   3    5.24    0.62
  -2  11   2   12.05    2.07
  -2 -11   2   12.76    0.86
  -2 -11   2   11.69    0.63
  -2  11   1    7.46    1.85
  -2 -11   1    5.50    0.75
   2 -11  -1    6.53    0.67
   2 -11   0   11.71    0.91
   2  11   0   16.46    1.68
   2 -11   1    2.05    0.72
   2  11   1    2.68    1.09
   2 -11   2    0.97    0.69
  -2  11  -2    0.70    1.04
   2  11   2    2.29    0.87
   2 -11   3    0.08    0.63
   2 -11   3   -0.56    0.45
   2  11   3    1.28    0.61
  -2  12   4   10.43    1.08
  -2 -12   4   10.69    0.57
  -2 -12   3    0.39    0.42
  -2 -12   3    0.21    0.42
  -2  12   2    2.69    1.35
  -2 -12   2    4.83    0.63
  -2 -12   1   35.60    1.21
   2 -12  -1   31.93    1.08
   2 -12   0    3.53    0.61
  -2 -12   0    3.51    0.57
   2 -12   1   34.51    1.34
  -2 -12  -1   30.96    0.97
   2 -12   2    8.76    0.80
  -2 -12  -2    5.62    0.43
  -2  13   2   51.17    1.90
  -2 -13   2   49.70    1.20
   2 -13  -1    0.95    0.33
  -2 -13   1    0.75    0.44
  -2 -13   0   82.95    1.43
   2 -13   0   85.73    1.58
  -2  13  -1    0.51    1.17
   2 -13   1    0.30    0.39
  -2 -13  -1    0.07    0.28
  -3   0   8    4.07    3.20
  -3   0   7    0.09    0.65
  -3   0   7    0.53    0.29
  -3   0   6    1.42    0.80
  -3   0   6    1.75    0.40
  -3   0   5   -0.31    0.70
  -3   0   5    0.50    1.12
  -3   0   5    0.05    0.36
  -3   0   4   32.91    2.72
   3   0  -3    0.12    0.39
  -3   0   3    0.02    1.29
   3   0  -2  853.17    7.27
   3   0  -1    0.14    0.53
   3   0   0 1638.09   15.26
   3   0   0 1650.98   11.14
   3   0   1    0.20    0.67
   3   0   1   -0.31    1.21
   3   0   2   98.88    4.80
   3   0   2   92.18    3.66
   3   0   3   -0.12    0.91
   3   0   3   -0.54    0.73
   3   0   4   19.92    1.48
   3   0   5   -0.20    0.71
   3   0   6    6.66    2.48
  -3   1   8    1.77    0.57
  -3  -1   8    5.29    3.03
  -3  -1   7    2.97    0.70
  -3   1   7    3.27    0.84
  -3  -1   7    4.86    0.45
  -3  -1   6    0.21    0.35
  -3  -1   6    0.32    0.68
  -3   1   6   -0.04    0.78
  -3   1   6   -5.66    4.02
  -3  -1   6   -4.08    3.89
  -3   1   6    0.52    0.34
  -3  -1   5    3.88    0.50
  -3  -1   5    4.22    0.82
  -3   1   5    3.94    0.85
  -3   1   5    2.93    1.47
  -3   1   5    2.89    0.46
  -3  -1   4   39.46    2.87
  -3  -1   3    1.67    1.04
   3   1  -3    2.01    0.52
   3  -1  -3    2.31    0.59
   3  -1  -2   34.83    1.59
   3   1  -2   32.55    1.80
   3  -1  -2   35.70    1.51
   3  -1  -1   61.91    2.46
   3   1  -1   59.57    2.78
   3  -1   0  190.40    5.03
   3   1   0  175.03    5.19
   3   1   1  126.05    5.17
   3   1   1  125.13    4.54
   3  -1   1  118.20    2.88
   3   1   2  349.21    7.90
   3   1   2  357.26    9.41
   3  -1   2  378.66    8.72
   3   1   3   46.29    3.64
   3   1   3   42.55    3.20
   3  -1   3   47.59    2.98
   3   1   3   39.45    1.83
   3  -1   3   44.01    1.80
   3   1   4   42.07    2.17
   3  -1   4   44.74    1.99
   3   1   5    2.58    0.88
   3   1   5    4.38    2.09
   3  -1   6    5.39    2.33
   3   1   6    7.40    2.49
  -3   2   8    1.48    0.60
  -3   2   8    4.65    2.80
  -3  -2   8    1.97    2.99
  -3   2   7    0.14    0.74
  -3  -2   7    2.71    0.40
  -3  -2   6    0.10    0.66
  -3   2   6    0.08    0.86
  -3  -2   6   -2.18    3.68
  -3  -2   6    0.10    0.39
  -3  -2   5    1.09    0.67
  -3   2   5    1.40    0.77
  -3   2   5   -0.03    1.13
  -3  -2   5    1.00    0.41
  -3  -2   4   19.68    2.26
   3  -2  -3   64.03    2.23
   3   2  -3   53.23    2.27
   3  -2  -2    3.76    0.77
  -3  -2   2    4.61    0.97
   3   2  -2    3.60    0.90
  -3  -2   1   90.27    2.78
   3  -2  -1   81.71    2.74
   3   2  -1   85.04    3.70
   3  -2   0    0.65    0.81
   3   2   0   -0.12    1.24
   3  -2   1    2.33    1.20
   3   2   1    0.40    1.17
   3   2   2    3.81    1.78
   3  -2   2    2.98    0.81
   3   2   2    3.79    1.67
   3  -2   3    2.61    0.70
   3   2   3    1.92    1.50
   3   2   3    3.12    0.77
   3  -2   3    0.82    0.54
   3   2   3    2.34    1.46
   3  -2   4    3.36    0.68
   3   2   4    2.14    0.92
   3   2   5   10.34    2.33
   3   2   5   -0.17    0.70
   3  -2   6    2.89    2.12
   3   2   6    7.11    2.36
  -3   3   8    0.78    0.66
  -3  -3   8    7.54    2.77
  -3   3   7   -0.14    0.90
  -3   3   7    3.02    3.05
  -3  -3   7    2.87    0.42
  -3   3   6   25.55    1.78
  -3  -3   6   27.81    0.97
  -3   3   5   62.19    1.98
  -3  -3   5   58.55    1.89
  -3   3   5   63.71    2.33
  -3  -3   5   60.82    1.42
  -3  -3   5   63.74    1.41
   3  -3  -4  222.69    4.81
   3  -3  -3  152.97    3.65
  -3  -3   3  149.22    4.74
   3  -3  -2  177.54    3.98
   3   3  -2  181.12    5.80
   3   3  -1    4.25    1.36
   3  -3  -1    3.67    0.88
   3  -3   0   26.21    1.69
   3   3   0   28.96    2.92
   3  -3   1   38.45    2.15
   3  -3   1   38.54    2.18
   3   3   1   40.09    3.55
   3  -3   2   31.99    2.10
   3  -3   2   29.35    1.63
   3   3   2   27.16    3.18
   3   3   2   24.09    3.11
   3   3   2   25.45    1.34
   3  -3   3    0.72    0.59
   3  -3   3   -0.05    0.50
   3   3   3    0.57    1.56
   3   3   3    0.48    1.49
   3   3   3    0.32    0.72
   3  -3   4    0.03    0.56
   3   3   4   22.16    1.83
   3   3   5   16.14    2.60
   3   3   5    0.19    0.78
   3   3   6    0.35    1.99
   3  -3   6    0.80    1.88
  -3   4   8    2.89    0.77
  -3   4   7   21.94    1.74
  -3  -4   7    2.70    3.07
  -3   4   6    9.70    1.40
  -3  -4   6   12.40    0.66
  -3  -4   6   11.00    0.74
  -3   4   5   54.18    2.03
  -3   4   5   56.82    2.40
  -3  -4   5   58.39    1.43
  -3  -4   4   44.32    3.37
   3  -4  -4   43.93    2.41
  -3  -4   3    4.56    1.21
   3   4  -3    3.56    1.25
   3  -4  -2  430.42    6.29
  -3  -4   2  460.18    7.07
   3   4  -2  445.64   10.42
   3   4  -1   -0.02    1.20
   3  -4  -1    0.73    0.70
   3  -4   0  116.15    3.49
   3   4   0  116.04    5.83
   3  -4   1    0.12    0.69
   3   4   1   -0.11    1.63
   3  -4   1    0.37    0.72
   3  -4   2    0.07    0.38
  -3   4  -2    0.79    0.58
   3  -4   2    0.14    0.72
  -3  -4  -2    0.31    0.36
   3   4   2    0.34    1.56
   3   4   2   -0.10    1.91
   3   4   2    0.61    0.62
   3   4   3   29.88    3.59
   3   4   3   29.60    3.69
   3  -4   3   15.87    1.07
   3   4   3   20.66    1.65
   3  -4   3   27.54    1.34
   3  -4   4    1.47    0.61
   3   4   4    1.32    0.92
   3  -4   5    0.14    0.45
   3   4   5   58.33    2.54
  -3   5   8    0.89    0.68
  -3  -5   8   -1.36    2.26
  -3  -5   7    0.19    0.42
  -3   5   7   -0.44    1.07
  -3   5   6    4.05    1.29
  -3  -5   6    5.74    3.09
  -3  -5   6    7.33    0.56
  -3  -5   6    4.51    0.62
  -3   5   5   23.28    1.58
  -3   5   5   28.03    1.97
  -3  -5   5   25.91    0.91
  -3  -5   5   26.01    1.02
  -3  -5   4   43.82    1.15
  -3   5   4   41.31    1.94
  -3   5   4   48.46    2.17
  -3  -5   4   46.40    3.64
   3  -5  -4   41.27    2.50
  -3  -5   4   40.98    1.06
  -3  -5   3   56.47    3.29
   3  -5  -3   61.81    2.62
   3  -5  -2   15.04    1.40
   3   5  -2    4.25    1.58
   3  -5  -1    9.96    1.20
   3   5  -1    9.47    2.27
   3  -5   0    0.30    0.70
   3   5   0    0.28    1.51
   3  -5   1   28.75    1.93
   3   5   1   25.72    3.61
  -3  -5  -2   29.72    1.11
   3  -5   2   26.23    1.53
  -3   5  -2   28.44    1.48
   3  -5   2   24.53    1.18
   3   5   2   22.04    1.62
   3   5   2   26.95    3.61
   3  -5   3   46.18    2.16
   3  -5   3   44.22    1.67
   3  -5   4   24.47    1.30
   3   5   4   22.48    1.86
   3  -5   5   10.51    2.36
   3   5   5   33.61    2.86
  -3   6   7   11.05    1.47
  -3  -6   7    9.85    0.68
  -3   6   6   13.79    1.74
  -3  -6   6   14.53    0.93
  -3   6   5    5.54    1.20
  -3   6   5    5.16    1.29
  -3  -6   5    7.53    0.51
  -3  -6   5    6.38    0.69
  -3  -6   4   21.44    0.93
  -3   6   4   19.50    1.70
  -3   6   4   18.97    1.69
  -3  -6   4   21.26    2.70
   3  -6  -4   18.61    1.91
  -3  -6   4   18.40    0.70
  -3  -6   3   59.29    1.29
  -3   6   3   61.97    2.46
   3   6  -3   66.91    4.95
  -3  -6   3   60.99    3.58
   3  -6  -3   60.53    3.06
   3   6  -2   22.96    3.13
   3  -6  -2   20.61    1.72
   3  -6  -1  135.77    4.02
   3   6  -1  132.04    7.16
   3   6   0   41.83    4.19
  -3  -6   0   33.05    1.02
   3  -6   1    2.05    0.83
  -3  -6  -1    1.13    0.36
   3  -6   1    1.32    0.42
   3   6   1    2.61    2.18
   3  -6   1    0.79    0.56
  -3   6  -1    0.96    0.69
   3   6   1    0.77    0.76
  -3  -6  -2    9.56    0.70
   3  -6   2   10.51    1.09
   3   6   2   11.29    2.87
  -3   6  -2   11.99    1.11
   3   6   2    8.14    1.27
   3  -6   2   11.09    0.88
   3  -6   3    0.62    0.55
   3  -6   3    0.67    0.83
   3   6   3    0.54    0.85
   3  -6   4    7.12    0.87
   3   6   4    6.86    0.74
   3   6   4    7.75    1.33
   3   6   5   18.43    1.12
   3   6   5   28.83    2.63
  -3  -7   7    1.12    0.40
  -3   7   7    1.01    0.92
  -3   7   6    4.47    1.11
  -3   7   6    3.61    1.35
  -3  -7   6    5.59    0.74
  -3   7   5   32.81    2.22
  -3   7   5   28.85    2.14
  -3  -7   5   32.04    0.87
  -3  -7   5   34.11    1.25
   3  -7  -4    2.70    1.00
  -3   7   4    2.09    1.36
  -3  -7   4    1.50    0.57
  -3   7   4    1.96    1.09
  -3  -7   4    2.72    1.47
  -3  -7   4    3.04    0.33
  -3  -7   3   66.39    1.42
   3  -7  -3   61.71    3.24
  -3   7   2   59.47    2.60
  -3  -7   2   51.72    1.19
   3  -7  -2   57.04    3.02
   3   7  -1    0.35    1.65
   3  -7  -1    0.48    0.74
  -3   7   1    0.89    0.83
  -3  -7   1    0.21    0.28
   3   7  -1   -0.22    0.77
   3  -7   0  156.10    2.85
   3   7   0  172.78    8.65
   3  -7   1   10.76    0.97
   3   7   1   14.03    3.24
  -3  -7  -1    8.76    0.65
  -3   7  -1   11.69    1.27
   3  -7   1    9.29    0.75
   3   7   1   11.50    1.43
   3  -7   2   40.92    1.79
  -3   7  -2   44.45    2.05
   3  -7   2   33.66    1.39
   3   7   2   37.44    2.30
   3  -7   3    2.13    0.65
   3  -7   3    2.25    0.92
   3   7   3    1.14    0.57
   3   7   3    1.75    0.97
   3  -7   4   -0.07    0.73
   3  -7   4   -0.05    0.42
   3   7   4    0.95    0.44
   3   7   5    4.70    0.74
   3   7   5   16.98    2.18
  -3   8   7    2.45    0.78
  -3  -8   7    2.18    0.40
  -3   8   6    0.15    0.91
  -3  -8   6    0.22    0.61
  -3   8   6    0.00    0.93
  -3   8   5    1.53    1.37
  -3  -8   5    0.67    0.68
  -3   8   5   -0.92    1.12
  -3   8   4   -1.33    1.77
  -3  -8   4    0.62    0.64
  -3   8   4   -0.32    0.93
  -3  -8   3    1.40    0.49
   3  -8  -3    0.88    0.89
  -3   8   3    0.33    1.50
  -3  -8   3    0.77    0.45
   3   8  -3    0.71    1.65
   3   8  -2    5.81    2.28
  -3   8   2    6.37    1.49
   3  -8  -2    6.95    1.34
  -3  -8   2    6.82    0.55
   3   8  -1    4.38    2.28
  -3  -8   1    4.44    0.44
  -3   8   1    4.54    1.17
   3  -8  -1    4.43    0.62
   3  -8  -1    5.39    1.30
   3   8  -1    3.89    0.89
   3  -8   0    0.32    0.83
   3   8   0   -0.19    1.78
   3  -8   0    0.32    0.53
   3   8   0   -0.14    0.85
  -3   8  -1    0.42    0.89
   3  -8   1    0.43    0.65
   3   8   1   -0.15    0.77
   3  -8   2   15.64    1.24
  -3   8  -2   16.21    1.43
   3  -8   2   12.33    0.94
   3   8   2   11.45    1.12
   3  -8   3   -0.01    0.64
   3  -8   3    0.33    0.83
   3   8   3    0.20    0.53
   3  -8   4    0.42    0.39
   3   8   4    4.82    0.54
  -3   9   6   11.85    1.21
  -3   9   6   10.48    1.04
  -3  -9   6   12.85    0.76
  -3   9   5    3.20    1.40
  -3   9   5    1.62    0.85
  -3  -9   5    3.12    0.74
  -3   9   4    1.97    1.80
  -3  -9   4    6.18    0.76
  -3  -9   3   29.65    1.10
  -3   9   3   28.33    2.57
  -3  -9   3   32.15    1.16
  -3  -9   2    3.57    0.47
  -3   9   2    2.18    1.50
  -3  -9   1   27.91    0.83
  -3   9   1   28.34    2.15
   3  -9  -1   26.78    1.23
   3   9  -1   29.00    1.83
   3  -9   0   39.77    1.64
   3   9   0   49.81    2.27
   3  -9   1   -0.36    0.76
  -3   9  -1   -0.17    1.14
   3   9   1    0.20    0.70
  -3   9  -2   51.76    2.39
   3  -9   2   51.87    1.54
   3   9   2   57.44    2.05
   3  -9   3    9.64    1.06
   3   9   3    9.47    0.80
   3   9   4   29.52    2.29
   3   9   4   20.59    0.91
  -3  10   5    1.65    1.20
  -3 -10   5    0.08    0.61
  -3  10   4   19.80    2.13
  -3 -10   4   20.34    0.97
  -3 -10   3   17.05    0.89
  -3 -10   3   16.74    0.85
  -3  10   2   37.29    2.78
  -3 -10   2   38.41    1.30
  -3 -10   2   33.28    1.00
  -3  10   1  143.75    4.47
   3  10  -1  144.67    3.98
   3 -10   0   17.12    1.14
   3  10   0   22.65    1.69
   3 -10   1   80.65    2.27
  -3  10  -1   75.95    3.56
   3 -10   2    0.30    0.78
  -3  10  -2    0.22    0.87
   3  10   2    1.13    0.66
   3 -10   3   -0.22    0.75
   3  10   3    0.67    0.51
  -3  11   5    0.60    0.77
  -3 -11   5    0.33    0.46
  -3  11   4    3.82    1.27
  -3 -11   4    4.06    0.58
  -3  11   3    2.51    1.35
  -3 -11   3    1.67    0.46
  -3 -11   3    2.52    0.51
  -3 -11   2    4.59    0.62
  -3 -11   2    4.60    0.46
   3 -11  -1    6.47    0.66
   3  11  -1   10.28    1.51
   3 -11   0    4.10    0.70
  -3  11   0    7.42    2.14
   3  11   0    8.03    1.39
   3 -11   1   63.48    1.84
   3  11   1   77.61    2.55
   3 -11   2    3.29    0.77
  -3  11  -2    2.25    0.88
   3  11   2    3.84    0.82
  -3  12   4    0.61    0.73
  -3 -12   4    0.75    0.38
  -3  12   3    4.27    1.05
  -3 -12   3    3.89    0.46
  -3  12   3    4.12    0.86
  -3 -12   3    3.90    0.44
  -3  12   2    8.39    1.31
  -3 -12   2    6.32    0.58
  -3 -12   1    2.90    0.53
  -3  12   1    4.34    1.66
  -3 -12   0    4.05    0.55
   3 -12   0    5.26    0.60
   3 -12   1    8.80    0.78
  -3 -12  -1    6.48    0.51
  -3  12  -1    8.02    1.42
  -3 -13   1    3.21    0.41
  -3  13   1    3.95    1.13
  -4   0   8    2.66    0.61
  -4   0   7    0.21    0.75
  -4   0   7    0.03    0.34
  -4   0   6  127.89    3.10
  -4   0   6  117.48    2.19
  -4   0   5    0.30    0.75
  -4   0   5    0.06    1.26
  -4   0   4  338.93    8.55
  -4   0   3   -0.04    1.47
   4   0  -3    0.05    0.52
   4   0  -2   80.37    3.02
   4   0  -1   -0.04    0.89
   4   0   0  142.62    5.44
   4   0   1   -0.22    1.35
   4   0   2  104.38    5.50
   4   0   2  106.71    2.80
   4   0   3   -0.54    0.79
   4   0   3    0.01    0.68
   4   0   4    2.45    0.80
   4   0   5    0.09    0.47
  -4  -1   8    5.87    0.63
  -4   1   8    5.22    0.75
  -4  -1   7    0.06    0.71
  -4   1   7    0.56    0.79
  -4   1   7    9.13    3.94
  -4  -1   7    8.96    3.94
  -4  -1   7    0.47    0.37
  -4   1   7    0.21    0.32
  -4   1   6    1.99    0.45
  -4  -1   6    2.85    0.84
  -4   1   6    1.99    0.95
  -4  -1   6    2.26    0.50
  -4  -1   6    4.01    3.89
  -4  -1   5    0.90    0.76
  -4   1   5    0.60    0.75
  -4   1   5   11.82    4.45
  -4  -1   5    9.57    3.99
  -4   1   5    0.06    1.28
  -4  -1   5    0.27    0.43
  -4  -1   5    0.94    1.60
  -4  -1   4  151.71    6.01
   4  -1  -3   45.02    2.27
  -4  -1   3   43.98    2.94
   4  -1  -2  358.83    5.52
   4   1  -2  338.12    6.30
   4   1  -1  242.24    6.26
   4  -1  -1  260.59    5.85
   4   1   0  170.76    6.37
   4  -1   0  166.17    5.54
   4   1   1  229.94    8.26
  -4   1  -1  244.57    3.60
   4  -1   1  235.57    7.40
   4   1   2    3.28    0.87
   4  -1   2    0.01    0.68
   4   1   2    3.10    1.77
   4  -1   2    4.29    0.83
   4   1   3   31.33    1.78
   4  -1   3   31.48    1.72
   4   1   4    0.43    0.73
   4  -1   4    0.34    0.59
   4   1   5    2.77    0.67
  -4   2   8    0.73    0.65
  -4  -2   7    1.00    0.61
  -4   2   7    1.09    0.84
  -4  -2   7    1.38    0.39
  -4  -2   6   10.31    1.07
  -4   2   6    8.71    1.19
  -4  -2   6    6.59    3.77
  -4  -2   6   10.02    0.70
  -4   2   6    8.30    0.68
  -4   2   5    0.28    1.14
  -4  -2   5   -0.02    0.77
  -4   2   5    0.12    0.79
  -4  -2   5    0.31    0.44
   4  -2  -4    7.03    1.02
  -4  -2   4    0.00    1.16
   4  -2  -3   62.22    2.64
   4   2  -3   47.09    2.57
   4  -2  -2   33.06    1.92
   4   2  -2   33.37    2.53
   4  -2  -1  131.14    3.99
   4   2  -1  131.81    5.41
   4   2   0    8.01    1.81
   4  -2   0    9.23    1.49
   4   2   1   44.42    4.12
  -4  -2  -1   39.88    1.15
  -4   2  -1   41.71    1.59
   4   2   2    1.88    0.83
   4  -2   2   -0.07    0.61
   4   2   2    1.81    1.78
   4  -2   2    3.86    0.82
   4   2   3    4.57    0.99
   4  -2   3    4.19    0.82
   4  -2   4    0.37    0.51
   4   2   4    0.08    0.80
   4   2   5   -1.05    1.60
   4   2   5    1.42    0.59
  -4   3   8    2.06    0.73
  -4   3   8    1.39    2.49
  -4  -3   7    6.95    0.76
  -4   3   7    6.45    1.21
  -4  -3   7    8.93    0.56
  -4  -3   6    0.64    0.67
  -4   3   6    0.44    0.94
  -4  -3   6    0.91    0.42
  -4  -3   5    2.19    0.42
  -4   3   5    1.55    0.73
  -4  -3   5    1.81    0.81
  -4  -3   5    1.24    0.45
  -4   3   5    1.53    0.89
   4  -3  -4    1.15    0.71
  -4   3   4    0.64    0.67
  -4  -3   4    0.42    0.65
  -4  -3   4    0.28    0.33
  -4   3   4    0.11    0.67
  -4  -3   4    0.30    0.39
   4  -3  -3   29.22    1.86
   4   3  -3   25.28    2.32
   4  -3  -2   55.84    2.57
   4   3  -2   56.67    3.80
   4  -3  -1   10.00    1.28
   4   3  -1   11.44    2.26
   4  -3   0   88.17    3.31
   4   3   0   96.79    5.71
   4   3   1    7.42    2.28
   4  -3   1    6.92    1.28
  -4  -3  -1    6.54    0.57
  -4   3  -1    7.03    0.86
   4   3   1    7.34    0.97
   4   3   1    6.32    2.01
  -4  -3  -2    8.92    0.76
   4   3   2    8.55    2.51
  -4   3  -2    8.70    0.98
   4   3   2    9.10    1.10
   4   3   2    7.87    2.17
   4   3   3   19.06    1.62
   4  -3   3   20.46    1.28
   4  -3   4    1.75    0.53
   4   3   4    0.92    0.89
   4   3   5    3.03    1.62
   4   3   5    9.99    0.97
  -4   4   8    1.35    0.73
  -4  -4   8    9.34    2.71
  -4   4   7    2.63    1.12
  -4  -4   7    5.23    0.50
  -4   4   6   13.86    1.09
  -4  -4   6   15.71    0.79
  -4  -4   6   14.61    0.82
  -4  -4   5   10.79    0.69
  -4   4   5    9.20    1.09
  -4  -4   5   10.35    1.01
  -4   4   5    8.89    1.27
  -4  -4   5    9.40    0.69
  -4  -4   4    2.45    0.44
  -4   4   4    2.35    0.85
  -4  -4   4    2.57    0.73
  -4   4   4    1.79    0.82
  -4  -4   4    1.82    3.84
  -4  -4   4    2.41    0.45
  -4   4   3   10.52    1.03
   4  -4  -3   11.11    1.29
   4   4  -3   11.33    2.00
   4  -4  -2   -0.11    0.68
   4   4  -2    0.32    1.23
   4  -4  -1  169.71    4.50
   4   4  -1  179.49    8.08
   4  -4   0   35.01    2.24
  -4  -4   0   29.32    0.96
  -4   4   0   34.40    1.51
   4   4   0   37.04    4.22
   4  -4   1  456.36    8.07
   4  -4   1  369.68    5.42
  -4  -4  -1  389.65    3.91
  -4   4  -1  404.14    5.14
   4   4   1  423.08    5.90
   4   4   1  410.64   12.53
   4   4   2   59.29    5.38
  -4  -4  -2   52.31    1.62
   4   4   2   54.48    4.83
  -4   4  -2   50.72    1.97
   4   4   2   44.86    2.25
   4   4   3  103.90    3.66
   4  -4   3  116.19    2.66
   4   4   4    0.54    0.85
   4  -4   5    8.72    1.90
   4   4   5    4.19    1.61
  -4   5   8    2.71    0.76
  -4  -5   8   26.81    2.52
  -4   5   7    6.90    1.23
  -4  -5   7    5.28    3.18
  -4  -5   7   11.45    0.57
  -4   5   6    0.44    0.70
  -4  -5   6    0.35    0.46
  -4   5   6   -0.02    1.11
  -4  -5   6    0.55    0.39
  -4   5   5    2.16    0.94
  -4  -5   5    0.96    0.47
  -4   5   5    2.34    0.99
  -4  -5   5    1.12    3.70
  -4  -5   5    2.64    0.47
   4  -5  -4    0.80    0.78
  -4  -5   4    2.47    0.47
  -4   5   4    0.65    0.87
  -4   5   4    1.25    0.85
  -4  -5   4    0.73    0.39
  -4   5   3   42.00    1.88
   4  -5  -3   49.17    2.56
   4   5  -3   41.76    3.96
  -4   5   2   89.92    2.44
   4  -5  -2   96.28    3.43
   4   5  -2   93.49    6.09
  -4   5   2   86.97    2.36
   4  -5  -1  124.25    3.89
  -4   5   1  116.69    2.79
   4  -5   0  103.45    3.73
  -4  -5   0   85.75    1.77
   4   5   0   98.67    7.00
  -4   5   0   96.23    2.61
   4  -5   1    4.48    1.07
   4  -5   1    3.14    0.82
  -4  -5  -1    3.07    0.53
   4   5   1    3.75    2.16
  -4   5  -1    3.37    0.80
   4   5   1    3.32    0.96
  -4  -5  -2    8.44    0.72
  -4   5  -2    8.82    1.02
   4   5   2    6.53    1.18
   4   5   3  174.36    4.78
   4  -5   3  181.83    3.08
   4   5   4   60.28    1.72
   4   5   4   63.28    2.63
  -4   6   7    5.55    1.15
  -4  -6   7    6.05    0.53
  -4   6   6   -0.06    0.86
  -4  -6   6    0.84    0.54
  -4   6   6    0.66    1.06
  -4  -6   6    1.53    0.39
  -4  -6   5   16.73    0.89
  -4   6   5   15.97    1.57
  -4   6   5   14.89    1.59
  -4  -6   5   16.71    0.72
  -4  -6   4    5.87    0.59
  -4   6   4    5.18    1.17
  -4   6   4    4.76    1.06
   4  -6  -4    6.41    1.31
  -4  -6   4    5.58    0.48
  -4  -6   3    5.37    0.54
  -4   6   3    5.27    1.10
   4   6  -3    5.31    2.01
   4  -6  -3    6.09    1.15
  -4   6   3    5.06    0.88
  -4   6   2    3.66    0.97
   4   6  -2    2.43    1.92
   4  -6  -2    4.95    1.10
  -4  -6   2    2.75    0.46
  -4   6   2    3.19    0.84
  -4   6   1   41.18    1.76
   4  -6  -1   41.07    2.49
  -4  -6   1   32.00    1.14
   4   6  -1   39.54    4.61
  -4   6   1   36.70    1.83
   4  -6   0   81.00    3.41
  -4  -6   0   60.25    1.56
   4  -6   0   54.01    1.95
   4   6   0   78.10    6.68
  -4   6   0   69.33    2.50
   4  -6   1  114.21    3.04
  -4  -6  -1  127.62    2.30
  -4   6  -1  128.49    3.30
   4   6   1  126.37    4.14
   4   6   1  140.42    8.46
   4  -6   2  117.76    3.25
   4   6   2  110.90    3.98
   4   6   3   33.60    2.21
   4  -6   4    0.17    0.39
   4   6   4   10.54    0.69
  -4  -7   7    0.53    0.35
  -4   7   7   -0.01    0.78
  -4   7   6    2.29    0.96
  -4   7   6    3.53    1.14
  -4  -7   6    3.88    0.61
  -4   7   5    3.95    1.38
  -4  -7   5    2.60    0.64
  -4   7   5    2.44    1.03
  -4  -7   5    4.75    0.42
  -4  -7   4   48.10    1.30
  -4   7   4   60.08    2.84
  -4   7   3    6.80    1.34
  -4  -7   3    6.04    0.57
   4   7  -3    7.44    2.48
   4  -7  -3    6.37    1.29
  -4   7   2   74.21    2.75
  -4  -7   2   65.05    1.41
   4  -7  -2   72.80    3.25
   4   7  -2   70.00    6.10
  -4  -7   2   61.47    1.53
   4  -7  -1    2.78    0.90
   4   7  -1    2.54    2.25
  -4  -7   1    2.46    0.46
  -4   7   1    2.54    1.00
   4  -7   0   24.21    2.08
   4  -7   0   17.62    1.18
  -4  -7   0   16.84    0.89
   4   7   0   18.07    3.78
  -4   7   0   19.69    1.62
   4  -7   1    2.95    0.78
  -4  -7  -1    2.05    0.48
  -4   7  -1    3.12    0.94
   4   7   1    2.31    1.01
   4  -7   2   14.32    1.30
  -4   7  -2   13.35    1.29
   4   7   2   11.43    1.59
   4   7   3    2.03    0.61
   4   7   3    3.81    1.07
   4  -7   4   -0.01    0.31
  -4   8   6   -0.51    0.97
  -4  -8   6    1.34    0.52
  -4   8   6    0.33    0.75
  -4   8   5    0.54    1.28
  -4  -8   5   -0.11    0.66
  -4   8   5    0.94    0.88
  -4   8   4    4.75    1.52
  -4  -8   4    1.13    0.62
  -4  -8   3   13.83    0.75
  -4   8   3   12.32    1.69
  -4   8   2   34.33    2.20
  -4  -8   2   35.35    1.07
  -4  -8   2   32.45    1.11
  -4  -8   1   16.64    0.73
   4  -8  -1   19.12    1.12
  -4  -8   1   15.98    0.84
  -4   8   1   20.27    1.87
   4   8  -1   16.80    1.60
   4  -8   0   38.61    1.67
  -4   8   0   39.59    2.37
   4   8   0   37.48    2.20
   4  -8   1    1.00    0.70
  -4   8  -1    1.46    1.04
   4   8   1   -0.34    0.92
   4  -8   2    9.58    1.15
  -4   8  -2    9.57    1.14
   4   8   2    8.27    1.07
   4   8   3    0.26    0.44
  -4   9   6   -0.83    0.81
  -4  -9   6    0.23    0.46
  -4   9   6    0.24    0.54
  -4   9   5    1.26    1.33
  -4  -9   5    1.33    0.62
  -4   9   4   10.20    1.86
  -4  -9   4    9.77    0.79
  -4  -9   3    2.40    0.52
  -4   9   3    1.08    1.44
  -4  -9   3    1.30    0.44
  -4   9   3    1.88    1.23
  -4  -9   2   85.65    1.56
  -4   9   2   80.62    3.28
  -4   9   2   84.59    3.58
  -4  -9   1    0.03    0.30
   4  -9  -1    0.22    0.46
  -4   9   1    0.08    1.30
   4   9  -1    0.21    0.74
   4  -9   0  115.63    2.79
  -4   9   0  110.01    4.01
   4  -9   1    4.06    0.90
  -4   9  -1    3.12    1.23
   4   9   1    3.71    0.96
   4  -9   2   36.54    1.69
   4   9   2   34.41    1.56
   4   9   3    8.31    0.66
  -4  10   5   44.64    2.00
  -4 -10   5   50.02    1.15
  -4  10   4   15.49    1.72
  -4 -10   4   17.02    0.82
  -4  10   3   50.98    2.67
  -4 -10   3   52.82    1.28
  -4  10   3   48.34    2.44
  -4 -10   3   51.95    1.27
  -4  10   2    1.03    1.19
  -4 -10   2    0.89    0.38
  -4  10   2    1.46    1.38
  -4 -10   1    0.47    0.27
  -4  10   1    0.53    1.58
   4  10  -1    0.98    0.91
   4 -10   0   10.26    0.96
  -4  10   0    8.88    1.77
   4 -10   1   23.81    1.34
  -4  10  -1   19.72    1.72
  -4  10  -2    8.75    0.99
   4  10   2   13.18    0.96
  -4  11   4    8.87    1.16
  -4 -11   4   12.95    0.62
  -4  11   3   55.58    2.34
  -4 -11   3   55.21    1.19
  -4  11   3   51.51    2.13
  -4 -11   3   57.73    1.14
  -4  11   2    4.22    1.13
  -4 -11   2    3.65    0.49
  -4  11   2    3.74    1.40
  -4 -11   2    3.08    0.41
  -4  11   1   90.98    3.65
   4  11  -1  114.65    3.52
   4 -11   0    1.63    0.55
  -4  11   0    1.53    1.41
   4  11   0    4.15    1.16
   4 -11   1   24.07    1.14
  -4  11  -1   21.02    1.57
  -4  12   3    1.15    0.66
  -4  12   3    1.77    0.60
  -4 -12   3    1.88    0.33
  -4 -12   2    3.95    0.41
  -4  12   2    4.78    0.77
  -4  12   2    3.71    0.99
  -4 -12   1    4.22    0.44
  -4  12   1    4.65    1.21
  -4 -12   0    1.75    0.37
  -4  12   0    2.18    1.02
  -5   0   8   16.56    0.97
  -5   0   8   18.43    0.60
  -5   0   7    0.07    0.76
  -5   0   7    0.30    0.38
  -5   0   6    3.24    0.95
  -5   0   6    4.96    4.76
  -5   0   6    3.21    0.56
  -5   0   5    0.07    0.81
  -5   0   5    0.10    1.17
  -5   0   4   20.88    1.33
  -5   0   4   23.52    1.11
  -5   0   3    0.49    0.68
  -5   0   3    0.19    0.49
   5   0  -3   -0.02    0.68
   5   0  -2   23.84    2.01
  -5   0   2   33.87    1.27
  -5   0   1    0.09    0.43
   5   0  -1   -0.16    0.98
   5   0   0    0.05    1.28
  -5   0   0    0.57    0.40
   5   0   1    0.38    0.76
   5   0   1    0.46    1.34
  -5   0  -1    0.36    0.37
   5   0   2   30.51    1.70
   5   0   3    0.40    0.66
   5   0   4   13.58    1.08
  -5  -1   8    8.78    0.72
  -5   1   8    7.25    0.80
  -5  -1   8    8.31    0.43
  -5  -1   7    1.46    0.79
  -5   1   7    0.96    0.89
  -5   1   7    2.95    4.28
  -5  -1   7    2.05    0.44
  -5   1   7    1.20    0.40
  -5  -1   6   33.43    1.71
  -5   1   6   33.36    1.80
  -5   1   6    4.10    4.83
  -5  -1   6    9.46    4.66
  -5  -1   6   37.03    1.28
  -5   1   6   28.54    1.23
  -5  -1   5   26.93    1.54
  -5   1   5   24.01    1.53
  -5   1   5   10.24    5.35
  -5  -1   5   15.12    4.88
  -5  -1   5   40.10    3.85
  -5   1   5    0.17    1.26
  -5  -1   4   18.13    1.27
  -5   1   4   16.87    1.25
  -5   1   4   37.26    6.05
  -5  -1   4   41.66    5.37
  -5  -1   4   21.48    2.71
  -5  -1   4   19.58    0.95
  -5   1   4   19.68    1.12
   5  -1  -3  180.47    5.05
  -5  -1   3  192.52    3.26
  -5   1   3  184.13    3.23
  -5  -1   3  199.91    2.83
  -5   1   3  205.71    3.21
   5   1  -2    0.47    0.85
  -5  -1   2    0.28    0.92
  -5  -1   2    1.15    0.48
   5  -1  -2    0.35    0.64
  -5   1   2    0.38    0.51
   5  -1  -2    0.18    0.70
   5   1  -1  143.28    6.03
  -5  -1   1  165.33    2.49
   5  -1  -1  141.27    5.05
  -5   1   1  162.67    2.65
  -5   1   1  182.65    3.23
   5   1   0    1.14    0.75
   5  -1   0    1.11    1.21
  -5  -1   0    0.50    0.43
  -5   1   0    0.23    0.40
   5   1   0   -0.26    1.47
   5   1   1   35.90    3.77
  -5  -1  -1   34.04    1.23
   5   1   1   38.42    1.83
   5  -1   1   38.65    1.75
   5   1   2   -0.40    0.78
   5  -1   2    0.40    0.66
   5  -1   2   -0.33    0.58
   5   1   3    4.85    0.92
   5  -1   3    5.46    0.84
   5   1   4    3.04    0.73
   5  -1   4    2.93    0.60
  -5   2   8    0.03    0.62
  -5  -2   8    1.72    0.29
  -5  -2   7   15.05    1.08
  -5   2   7   13.14    1.35
  -5  -2   7   17.50    4.22
  -5  -2   7   15.29    0.76
  -5   2   7   14.78    0.77
  -5  -2   6    3.99    0.94
  -5   2   6    4.68    1.03
  -5   2   6    6.97    4.61
  -5  -2   6    5.43    0.62
  -5   2   6    3.78    0.60
  -5  -2   5   70.73    2.31
  -5   2   5   61.34    2.27
  -5  -2   5   26.51    4.74
  -5   2   5   16.81    5.42
  -5   2   5   71.29    2.00
  -5   2   5    0.59    1.22
  -5  -2   5   70.07    1.72
  -5  -2   4    5.87    0.95
  -5   2   4    4.33    0.85
   5  -2  -4    5.10    1.05
  -5  -2   4    7.41    2.01
  -5   2   4    5.41    0.78
   5  -2  -3   63.12    2.94
  -5   2   3   63.29    2.01
  -5  -2   3   68.85    1.64
  -5   2   3   69.06    1.98
  -5  -2   2    0.74    0.43
  -5   2   2    0.99    0.56
  -5   2   2    0.54    0.53
   5  -2  -2    0.34    0.78
   5   2  -2    0.49    0.94
   5  -2  -1   25.16    1.93
   5   2  -1   29.15    3.13
  -5  -2   1   34.03    1.15
  -5   2   1   33.53    1.31
  -5   2   1   37.90    1.56
   5   2   0    0.35    0.74
   5   2   0   -0.47    1.71
   5  -2   0   -0.06    0.45
  -5  -2   0    0.22    0.42
  -5   2   0    0.02    0.41
  -5   2   0    0.43    0.66
   5  -2   0    0.21    0.74
   5  -2   1   20.16    2.03
   5   2   1   25.29    3.54
  -5  -2  -1   22.45    1.07
   5   2   1   24.86    1.62
   5   2   2    2.40    0.80
   5  -2   2    2.45    0.73
   5  -2   2    0.05    0.48
   5  -2   3    2.29    0.67
   5   2   3    3.31    0.94
   5   2   4   -0.21    0.60
   5  -2   4   -0.07    0.40
  -5   3   8    1.01    0.67
  -5  -3   8   35.69    3.33
  -5   3   7    0.17    0.95
  -5  -3   7    0.22    0.34
  -5  -3   6    0.44    0.75
  -5   3   6    0.18    0.92
  -5  -3   6    0.15    0.45
  -5   3   6    0.01    0.44
  -5  -3   5    4.03    0.47
  -5  -3   5    3.16    0.89
  -5   3   5    2.65    0.90
  -5   3   5    2.47    0.66
  -5  -3   5    2.51    0.53
   5  -3  -4    0.67    0.71
  -5  -3   4    0.19    0.36
  -5   3   4    0.69    0.75
  -5   3   4    0.30    0.63
  -5  -3   3    2.69    0.47
  -5   3   3    2.04    0.68
   5  -3  -3    2.58    0.91
   5  -3  -2   14.23    1.55
  -5  -3   2   15.79    0.84
  -5   3   2   15.49    1.09
  -5   3   2   16.39    1.09
   5   3  -2   13.00    2.18
   5   3  -1   48.19    4.20
   5  -3  -1   48.35    2.74
  -5  -3   1   50.93    1.39
  -5   3   1   51.11    1.69
  -5   3   1   53.43    1.88
   5   3   0   12.96    2.89
   5  -3   0   11.91    1.62
  -5  -3   0   10.82    0.75
  -5   3   0   11.38    0.82
  -5   3   0   11.53    1.09
   5   3   0   13.88    1.32
  -5  -3  -1   24.16    1.13
  -5   3  -1   25.37    1.50
   5   3   1   27.07    1.72
  -5  -3  -2   12.67    0.87
   5   3   2   10.42    1.28
   5  -3   2   11.15    1.03
   5  -3   3   -0.33    0.60
   5   3   3   -0.34    0.84
   5   3   4   11.77    1.66
   5  -3   4   12.34    0.76
  -5   4   8    0.26    0.67
  -5   4   7    2.88    1.05
  -5  -4   7    3.66    0.41
  -5  -4   6   -0.02    0.40
  -5   4   6    0.19    0.91
  -5  -4   6    0.39    0.42
  -5  -4   5   97.94    1.79
  -5   4   5  100.63    3.01
  -5   4   5   99.62    2.66
  -5  -4   5   98.69    1.91
  -5   4   4   25.96    1.57
  -5  -4   4   28.25    1.00
  -5   4   4   31.03    1.68
   5  -4  -4   31.25    2.24
  -5  -4   4   27.62    1.06
  -5   4   3  467.31    5.58
   5  -4  -3  475.16    7.89
  -5  -4   3  479.44    4.08
   5  -4  -2    6.03    1.14
   5   4  -2    6.36    2.18
  -5  -4   2    6.40    0.61
  -5   4   2    5.98    0.87
  -5   4   2    5.90    0.81
   5  -4  -1  292.24    6.47
  -5  -4   1  293.80    3.32
  -5   4   1  310.81    4.25
  -5   4   1  302.35    4.49
   5   4  -1  309.31   11.61
   5   4   0   89.51    6.52
   5  -4   0   86.86    3.74
  -5  -4   0   84.89    1.95
  -5   4   0   88.87    2.12
  -5   4   0   86.75    2.54
   5   4   1    0.19    0.82
   5  -4   1    0.07    0.43
  -5  -4  -1    0.15    0.44
  -5   4  -1    0.56    0.69
   5   4   2  114.97    3.76
   5  -4   2  112.85    2.62
   5   4   3   22.82    1.76
   5  -4   3   22.88    1.16
   5   4   4   13.08    1.64
   5   4   4   12.95    1.04
  -5   5   7   14.59    1.36
  -5  -5   7   18.05    0.63
  -5   5   6   33.21    1.94
  -5  -5   6   31.50    0.97
  -5   5   6   29.65    1.42
  -5  -5   6   29.19    1.02
  -5  -5   5   41.74    1.21
  -5   5   5   39.52    1.97
  -5   5   5   41.18    2.11
  -5  -5   5   40.89    1.20
  -5   5   4   36.48    1.93
  -5  -5   4   40.46    1.19
  -5   5   4   42.27    1.99
  -5  -5   4   38.71    1.16
  -5   5   3   25.76    1.61
   5  -5  -3   28.48    2.07
  -5  -5   3   28.31    1.10
  -5   5   3   26.61    1.42
   5  -5  -2   36.87    2.32
  -5  -5   2   36.27    1.27
  -5   5   2   37.43    1.76
  -5   5   2   35.22    1.71
   5   5  -2   37.60    4.61
   5  -5  -1  549.34    8.62
  -5  -5   1  553.23    4.84
  -5   5   1  557.51    5.93
  -5   5   1  555.71    6.43
  -5  -5   0  201.15    3.11
  -5   5   0  204.17    3.97
  -5  -5  -1  512.56    4.95
  -5   5  -1  511.91    6.23
   5   5   1  498.28    8.19
  -5  -5  -2   49.44    1.47
   5   5   2   45.34    2.57
   5  -5   2   48.55    1.67
   5   5   3   45.63    2.22
   5  -5   3   39.85    1.30
  -5  -6   7    1.36    0.32
  -5   6   7    0.78    0.81
  -5  -6   6    0.33    0.44
  -5   6   6    0.02    0.87
  -5   6   6    0.20    0.58
  -5  -6   6    0.76    0.33
  -5  -6   5   53.28    1.39
  -5   6   5   48.36    2.31
  -5  -6   5   49.44    1.19
  -5   6   4  100.15    3.18
  -5  -6   4  100.86    1.82
  -5  -6   4   98.10    1.65
  -5   6   3  160.18    3.79
  -5  -6   3  167.84    2.32
  -5  -6   3  165.45    2.67
  -5   6   3  160.57    3.55
  -5  -6   2  314.59    3.78
  -5   6   2  312.29    5.11
  -5  -6   1   11.48    0.87
  -5   6   1   13.94    1.16
  -5   6   1   12.19    1.29
  -5  -6   0  110.62    2.30
  -5   6   0  110.90    3.13
  -5  -6  -1   90.06    2.01
  -5   6  -1   86.91    2.75
   5   6   1   83.36    3.62
   5  -6   2    0.41    0.45
   5   6   2    0.13    0.87
   5   6   3   60.57    1.74
   5   6   3   67.67    2.46
  -5  -7   7    0.47    0.26
  -5   7   7    0.17    0.60
  -5  -7   6    0.22    0.45
  -5   7   6   -0.08    0.78
  -5  -7   6    1.82    0.29
  -5   7   6   -0.16    0.59
  -5   7   5   -0.09    1.16
  -5  -7   5   -0.57    0.62
  -5  -7   5    0.49    0.27
  -5   7   4    1.26    1.14
  -5  -7   4    1.48    0.50
  -5   7   3   10.56    1.41
  -5  -7   3   10.01    0.70
  -5   7   3   10.22    1.21
  -5   7   2    6.04    1.01
  -5  -7   2    5.83    0.64
  -5   7   2    5.91    1.13
   5   7  -2    2.84    0.79
  -5  -7   1   34.21    1.29
  -5   7   1   37.99    1.78
  -5   7   1   38.46    2.14
  -5  -7   0   22.21    1.06
  -5   7   0   23.93    1.74
  -5   7  -1    1.17    0.95
   5   7   1    0.67    0.87
   5   7   2    1.83    0.72
   5  -7   2    2.80    0.47
   5   7   2    2.79    0.93
   5  -7   3   -0.04    0.31
   5   7   3   12.82    0.75
  -5   8   6   13.27    0.98
  -5  -8   6   15.13    0.68
  -5   8   5    9.11    1.37
  -5  -8   5   12.30    0.74
  -5  -8   4   25.17    0.97
  -5   8   4   20.06    1.87
  -5  -8   3    8.64    0.65
  -5   8   3    6.47    1.29
  -5   8   3    8.12    1.22
  -5  -8   2   14.80    0.76
  -5  -8   2   14.12    0.82
  -5   8   2   14.52    1.62
  -5  -8   1    3.12    0.44
  -5  -8   1    3.08    0.54
  -5   8   1    3.14    0.81
  -5   8   1    3.58    1.28
   5   8  -1    3.14    1.00
  -5  -8   0    9.16    0.54
  -5   8   0   10.12    1.49
   5   8   0    9.54    1.36
  -5   8  -1    2.44    0.95
   5   8   1    1.23    0.88
   5   8   2    2.70    0.65
  -5   9   5   -0.81    1.00
  -5  -9   5   -0.05    0.46
  -5  -9   4   43.57    1.17
  -5   9   4   36.79    2.09
  -5  -9   3   12.98    0.69
  -5   9   3    8.60    1.35
  -5   9   3    9.85    1.34
  -5  -9   2   52.16    1.18
  -5   9   2   45.97    2.23
  -5   9   2   46.20    2.50
  -5  -9   1   28.73    0.85
  -5   9   1   24.91    1.44
  -5   9   1   27.77    2.13
  -5   9   0   16.78    1.69
   5   9   0   24.77    1.67
  -5   9  -1   15.04    1.37
   5   9   1   20.68    1.35
  -5  10   5    0.69    0.57
  -5 -10   5    1.36    0.38
  -5 -10   4    1.82    0.44
  -5  10   3    8.82    1.18
  -5  10   3    8.27    1.09
  -5 -10   3    7.77    0.56
  -5 -10   2    4.88    0.44
  -5  10   2    3.62    0.91
  -5  10   2    3.42    1.18
  -5 -10   1    4.81    0.37
  -5  10   1    4.01    1.30
  -5  10   0    0.03    0.98
   5  10   0    1.61    0.78
  -5  10  -1    3.06    0.86
   5  10   1    6.42    0.79
  -5  11   3    8.60    0.88
  -5 -11   3    9.05    0.48
  -5 -11   2   14.21    0.58
  -5  11   2   15.63    1.02
  -5  11   2   13.93    1.26
  -5 -11   2   14.80    0.51
  -5 -11   1    1.96    0.37
  -5  11   1    2.23    0.98
  -6   0   8    1.59    0.24
  -6   0   7    0.41    0.72
  -6   0   7    0.18    0.39
  -6   0   6    0.31    0.81
  -6   0   6   -0.16    0.53
  -6   0   5    0.41    0.78
  -6   0   5   -0.10    0.38
  -6   0   4   20.81    1.34
  -6   0   4   20.18    1.05
  -6   0   3   -0.16    0.53
   6   0  -3    0.18    0.74
   6   0  -2   59.82    3.29
  -6   0   2   82.26    1.98
  -6   0   1   -0.08    0.45
   6   0  -1    0.44    1.07
  -6   0   0   95.87    2.04
   6   0   0   96.56    2.69
   6   0   1    0.06    0.68
  -6   0  -1    0.28    0.38
   6   0   2    5.56    0.84
   6   0   3    0.01    0.43
  -6   1   8    0.53    0.52
  -6   1   8    0.18    0.17
  -6  -1   8    0.60    0.21
  -6  -1   7    7.71    0.89
  -6   1   7    6.86    0.96
  -6  -1   7    7.37    0.58
  -6   1   7    5.44    0.56
  -6  -1   6    2.32    0.86
  -6   1   6    1.68    0.88
  -6  -1   6    1.69    0.54
  -6   1   6    1.07    0.53
  -6  -1   5   11.11    1.10
  -6   1   5   10.39    1.14
  -6   1   5   10.19    0.77
  -6   1   4    4.77    0.88
  -6  -1   4    3.94    0.58
  -6   1   4    4.07    0.67
  -6   1   3    3.10    0.66
  -6  -1   3    2.27    0.57
   6   1  -3    1.73    0.97
   6  -1  -3    2.11    0.99
  -6  -1   2    0.62    0.51
  -6   1   2    0.45    0.52
   6  -1  -2    0.43    0.81
   6   1  -1    0.79    0.68
  -6  -1   1    0.11    0.47
  -6   1   1    0.10    0.44
  -6  -1   0   33.40    1.24
  -6   1   0   34.68    1.27
   6   1   0   35.60    1.76
   6  -1   0   35.55    1.67
   6   1   1   -0.13    0.83
   6  -1   1    0.24    0.70
  -6  -1  -1    0.03    0.42
   6   1   2   41.32    1.86
   6  -1   2   40.34    1.69
   6   1   3   -0.04    0.49
   6  -1   3    0.28    0.41
  -6   2   7    0.84    0.78
  -6  -2   7    1.44    0.40
  -6   2   7    0.83    0.36
  -6   2   6    2.69    0.93
  -6  -2   6    2.93    0.57
  -6   2   6    1.95    0.57
  -6   2   5    1.88    0.85
  -6   2   5    1.71    0.52
  -6  -2   5    1.95    0.53
  -6   2   4   11.37    1.09
  -6  -2   4   11.37    0.77
  -6   2   4   10.02    0.91
   6  -2  -3   24.71    2.06
  -6  -2   3   27.40    1.17
  -6   2   3   25.88    1.31
  -6  -2   2    5.04    0.65
  -6   2   2    4.85    0.71
   6  -2  -2    4.43    1.13
  -6  -2   1   36.59    1.32
  -6   2   1   34.39    1.33
   6   2   0    0.26    0.67
  -6  -2   0    0.16    0.42
  -6   2   0   -0.01    0.38
  -6  -2  -1   10.52    0.83
   6   2   1    9.24    1.09
   6  -2   1    9.49    0.96
   6  -2   2    0.68    0.60
   6   2   2    0.63    0.64
   6   2   3    0.86    0.56
   6  -2   3    1.42    0.44
  -6   3   7   -0.09    0.82
  -6  -3   7    0.04    0.32
  -6   3   7    0.02    0.30
  -6   3   6   41.72    2.01
  -6  -3   6   43.54    1.24
  -6   3   6   39.87    1.47
  -6  -3   5   23.90    0.91
  -6   3   5   27.75    1.63
  -6   3   5   24.25    1.27
  -6  -3   5   26.25    1.08
  -6   3   4   24.36    1.46
  -6  -3   4   22.03    0.98
  -6   3   4   20.91    1.25
  -6  -3   3   28.01    1.15
  -6   3   3   25.85    1.39
  -6  -3   2   42.76    1.42
  -6   3   2   39.78    1.57
  -6   3   2   44.99    1.80
  -6  -3   1    2.18    0.54
  -6   3   1    2.12    0.56
  -6   3   1    2.48    0.82
  -6  -3   0  116.58    2.39
  -6   3   0  118.04    2.27
   6   3   0  115.15    3.34
  -6  -3  -1    8.75    0.76
   6   3   1    7.66    1.13
   6  -3   1    7.70    0.91
   6   3   2   15.66    1.39
   6  -3   2   14.32    0.97
  -6   4   7   85.04    2.42
  -6  -4   7   81.27    1.23
  -6   4   6   -0.02    0.87
  -6   4   6    0.16    0.43
  -6  -4   6    0.40    0.39
  -6   4   6    0.20    0.46
  -6  -4   5   81.78    1.61
  -6  -4   5   81.46    1.71
  -6  -4   4  165.38    2.30
  -6  -4   4  168.88    2.53
  -6  -4   4  161.24    2.42
  -6  -4   3    0.21    0.41
  -6   4   3    0.87    0.68
  -6   4   3    0.18    0.57
  -6  -4   2  334.01    3.89
  -6   4   2  318.93    4.39
  -6   4   2  326.77    4.73
  -6  -4   1   19.48    1.07
  -6   4   1   17.67    1.06
  -6   4   1   19.02    1.35
  -6  -4   0   62.99    1.89
  -6   4   0   62.49    1.64
   6   4   0   59.83    2.69
  -6  -4  -1    2.83    0.53
   6  -4   1    3.31    0.67
   6   4   1    2.16    0.90
   6  -4   2   -0.13    0.46
   6   4   2   -0.16    0.71
  -6   5   7   14.15    1.09
  -6  -5   7   15.97    0.51
  -6   5   6   19.36    1.40
  -6   5   6   18.26    1.03
  -6  -5   6   19.96    0.75
  -6  -5   6   18.02    0.77
  -6  -5   5  211.17    2.47
  -6   5   5  208.35    4.08
  -6  -5   5  214.52    2.50
  -6  -5   4   96.84    1.78
  -6   5   4   91.84    2.68
  -6  -5   4   96.22    1.75
  -6   5   3  276.57    4.49
  -6   5   3  284.70    4.37
  -6  -5   2   29.13    1.29
  -6   5   2   27.64    1.46
  -6   5   2   27.54    1.56
  -6  -5   1   53.78    1.73
  -6   5   1   48.21    1.67
  -6   5   1   48.30    2.03
  -6  -5   0   -0.05    0.51
  -6   5   0    0.24    0.81
  -6  -5  -1    1.88    0.46
   6  -5   1    2.53    0.62
   6   5   1    1.09    0.78
   6  -5   2    0.87    0.40
   6   5   2    1.42    0.66
  -6   6   6   72.21    2.17
  -6   6   6   68.53    1.85
  -6  -6   6   70.77    1.31
  -6  -6   5    2.44    0.45
  -6   6   5    2.02    0.80
  -6  -6   5    1.41    0.32
  -6  -6   4   81.98    1.58
  -6   6   4   83.98    2.65
  -6  -6   3  172.30    2.30
  -6  -6   3  173.44    2.83
  -6   6   3  172.23    3.69
  -6   6   3  167.56    3.50
  -6  -6   2   25.95    1.22
  -6   6   2   26.64    1.47
  -6   6   2   23.96    1.56
  -6  -6   1  138.76    2.63
  -6   6   1  145.24    2.83
  -6   6   1  138.48    3.37
  -6  -6   0   12.44    0.87
  -6   6   0   12.33    1.31
   6  -6   1    5.11    0.61
   6   6   1    3.53    0.86
   6   6   2    1.81    0.50
   6   6   2    3.26    0.67
   6  -6   2    2.17    0.39
  -6  -7   6    0.85    0.33
  -6   7   6    0.71    0.47
  -6  -7   5   33.10    0.99
  -6   7   5   34.73    1.65
  -6  -7   4    7.75    0.59
  -6   7   4    6.61    1.12
  -6  -7   3   -0.05    0.46
  -6  -7   3    0.17    0.36
  -6   7   3   -0.07    0.82
  -6   7   3    0.23    0.74
  -6  -7   2    4.53    0.54
  -6  -7   2    4.88    0.60
  -6   7   2    4.22    0.83
  -6   7   2    4.61    1.03
  -6  -7   1   73.27    1.79
  -6   7   1   73.40    2.61
  -6  -7   0    0.17    0.42
  -6   7   0   -0.13    0.84
   6   7   1   34.24    1.62
   6  -7   1   32.41    1.08
  -6   8   5    5.21    0.82
  -6  -8   5    6.10    0.51
  -6  -8   4    0.98    0.41
  -6   8   4    0.25    0.80
  -6  -8   3    6.37    0.53
  -6   8   3    6.38    1.02
  -6   8   3    7.17    1.02
  -6  -8   2    4.99    0.51
  -6   8   2    4.04    0.83
  -6   8   2    5.18    1.08
  -6  -8   1   -0.20    0.34
  -6   8   1    0.13    0.94
   6   8  -1   -0.32    0.68
  -6  -8   0    0.12    0.23
  -6   8   0    0.07    0.81
   6   8   0   -0.10    0.73
  -6  -9   4    0.16    0.41
  -6   9   4    0.82    0.69
  -6  -9   3    8.25    0.52
  -6   9   3    5.84    0.87
  -6   9   3    6.04    0.89
  -6  -9   2    1.74    0.34
  -6   9   2    1.18    0.57
  -6   9   2    0.94    0.83
  -6  -9   1    4.57    0.35
  -6   9   1    5.04    1.05
   6   9  -1    6.25    0.77
   6   9   0    8.52    0.80
   6  -9   0    5.90    0.47
  -7   0   7    0.20    0.30
  -7   0   6   44.50    1.34
  -7   0   5    0.02    0.34
  -7   0   4   54.45    1.56
  -7   0   3   -0.02    0.46
  -7   0   2    5.37    0.67
   7   0  -2    4.87    0.71
   7   0  -1    0.20    0.56
  -7   0   1    0.06    0.43
  -7   0   0    6.13    0.58
   7   0   0    4.76    0.75
   7   0   1    0.23    0.44
  -7  -1   7    3.23    0.40
  -7   1   7    2.47    0.39
  -7  -1   6    0.11    0.42
  -7   1   6   -0.30    0.51
  -7  -1   5    8.86    0.61
  -7   1   5    7.94    0.65
  -7  -1   4   25.50    1.08
  -7   1   4   24.03    1.12
  -7  -1   3   10.05    0.79
  -7   1   3    9.20    0.81
  -7  -1   2   66.20    1.73
  -7   1   2   63.38    1.71
   7   1  -1    1.47    0.64
   7  -1  -1    1.87    0.65
  -7  -1   1    2.58    0.52
  -7   1   1    1.96    0.49
  -7  -1   0    7.70    0.68
  -7   1   0    8.67    0.63
   7   1   0    5.54    0.81
   7  -1   0    6.09    0.79
   7   1   1    0.84    0.49
   7  -1   1    0.48    0.47
  -7  -2   7    1.31    0.32
  -7   2   7    1.58    0.34
  -7  -2   6    1.87    0.45
  -7   2   6    1.43    0.52
  -7   2   5   20.20    0.99
  -7  -2   5   23.83    1.01
  -7  -2   4    0.46    0.42
  -7   2   4    0.41    0.51
  -7  -2   3   35.31    1.29
  -7   2   3   32.85    1.36
  -7  -2   2   10.72    0.82
  -7   2   2   10.36    0.82
  -7  -2   1   25.23    1.12
  -7   2   1   24.91    1.05
   7   2  -1   19.52    1.27
   7  -2  -1   20.95    1.20
  -7  -2   0   47.58    1.45
  -7   2   0   50.19    1.33
   7   2   0   31.61    1.54
   7  -2   0   35.18    1.44
   7   2   1    6.26    0.76
   7  -2   1    5.96    0.67
  -7  -3   7   12.93    0.51
  -7   3   7   12.48    0.55
  -7   3   6   12.47    0.67
  -7  -3   6   14.08    0.67
  -7   3   6   13.66    0.85
  -7  -3   5    0.38    0.29
  -7   3   5    0.15    0.45
  -7  -3   5    0.14    0.41
  -7  -3   4   46.73    1.21
  -7  -3   4   47.13    1.36
  -7   3   4   42.30    1.54
  -7  -3   4   43.27    1.27
  -7  -3   3    7.18    0.68
  -7   3   3    5.60    0.77
  -7  -3   2   13.48    0.89
  -7   3   2   12.47    0.90
  -7  -3   1    3.87    0.63
  -7   3   1    3.63    0.54
  -7  -3   0    4.98    0.60
   7   3   0    3.72    0.76
   7  -3   0    3.87    0.66
   7  -3   1    1.03    0.44
  -7  -3  -1    1.73    0.31
   7   3   1    0.66    0.52
  -7  -4   6   59.44    1.11
  -7   4   6   59.54    1.48
  -7  -4   5    6.62    0.50
  -7   4   5    6.37    0.69
  -7  -4   5    6.54    0.51
  -7  -4   4   14.39    0.72
  -7  -4   4   14.57    0.81
  -7   4   4   13.19    1.00
  -7  -4   4   14.86    0.71
  -7  -4   3   -0.03    0.44
  -7   4   3    0.00    0.56
  -7  -4   2    0.19    0.51
  -7   4   2    0.03    0.52
  -7  -4   1    0.55    0.50
  -7   4   1    1.01    0.43
   7  -4   0    0.84    0.47
  -7  -4   0    0.65    0.39
   7   4   1    4.52    0.68
   7  -4   1    8.01    0.64
  -7   5   6    0.13    0.35
  -7  -5   6    0.40    0.22
  -7  -5   5    0.32    0.31
  -7   5   5   -0.01    0.48
  -7  -5   5    0.47    0.25
  -7  -5   4    0.11    0.34
  -7  -5   4    0.33    0.35
  -7   5   4    0.36    0.63
  -7  -5   3   -0.24    0.44
  -7  -5   3   -0.15    0.42
  -7   5   3    0.48    0.60
  -7  -5   2   10.89    0.84
  -7   5   2   10.39    0.85
  -7  -5   1    8.59    0.73
  -7   5   1    8.86    0.66
  -7  -5   0   13.72    0.72
   7  -5   0   12.76    0.81
  -7  -6   5   29.76    0.82
  -7   6   5   33.48    1.29
  -7  -6   4   11.84    0.61
  -7   6   4   13.39    1.00
  -7  -6   3   -0.09    0.39
  -7  -6   3    0.18    0.34
  -7   6   3    0.38    0.60
  -7  -6   2    8.93    0.70
  -7   6   2    8.34    0.75
  -7  -6   1    0.40    0.38
   7  -6   0    1.84    0.42
  -7   7   5   14.80    0.85
  -7  -7   5   15.28    0.57
  -7  -7   4    0.49    0.29
  -7   7   4   -0.10    0.53
  -7  -7   3   16.01    0.65
  -7  -7   3   16.32    0.69
  -7   7   3   14.42    0.94
  -7  -7   2   -0.26    0.32
  -7  -7   2    0.11    0.31
  -7   7   2   -0.11    0.41
  -7  -7   1    2.38    0.32
   7   7  -1    2.04    0.49
  -7  -8   3    4.10    0.35
  -7   8   3    3.04    0.53
  -8   0   6    2.30    0.38
  -8   0   5    0.13    0.26
  -8   0   5   -0.37    0.44
  -8   0   4    6.25    0.54
  -8   0   3    0.01    0.38
  -8   0   2    3.87    0.48
   8   0  -1    0.20    0.29
  -8   0   1   -0.14    0.30
  -8  -1   6   14.09    0.60
  -8   1   6   13.41    0.67
  -8  -1   5    0.56    0.26
  -8   1   5    0.36    0.30
  -8  -1   5    0.47    0.35
  -8  -1   4    0.20    0.31
  -8   1   4    0.25    0.36
  -8  -1   3    0.48    0.37
  -8   1   3    0.13    0.39
  -8  -1   2   11.76    0.69
  -8   1   2   12.26    0.69
  -8  -1   1    2.14    0.40
  -8   1   1    2.43    0.38
  -8  -2   5   13.23    0.59
  -8   2   5   12.19    0.64
  -8  -2   5   12.85    0.60
  -8  -2   4   34.19    1.02
  -8   2   4   33.76    1.09
  -8  -2   4   34.45    0.94
  -8  -2   3    9.24    0.63
  -8   2   3    9.01    0.66
  -8  -2   2   12.50    0.72
  -8   2   2   12.56    0.70
  -8  -2   1    2.08    0.39
  -8   2   1    2.70    0.38
  -8   3   5    2.10    0.39
  -8  -3   5    1.91    0.28
  -8  -3   4    1.34    0.28
  -8  -3   4    1.64    0.37
  -8   3   4    1.79    0.43
  -8  -3   4    1.56    0.29
  -8  -3   3    4.54    0.50
  -8   3   3    4.83    0.55
  -8  -3   2   11.11    0.69
  -8   3   2   11.54    0.67
  -8  -3   1    5.14    0.45
  -8   3   1    6.29    0.46
  -8  -4   4    1.32    0.27
  -8  -4   4    1.34    0.31
  -8   4   4    1.42    0.42
  -8  -4   3    8.56    0.49
  -8  -4   3   10.03    0.63
  -8   4   3   10.55    0.68
   8  -4  -2    0.44    0.31
  -8  -4   2    0.20    0.31
  -8   4   2    0.36    0.32
   0   0   0    0.00    0.00



TITL SA in P2(1)/c
REM P2(1)/c (#14 in standard setting)
CELL 1.54184   7.175998  11.670164   7.226703  90.0000 113.5187  90.0000
ZERR    7.00   0.000294   0.000325   0.000409   0.0000   0.0058   0.0000
LATT  1
SYMM -x, y+1/2,-z+1/2
SFAC C H N O
UNIT 42.00 35.00 7.00 14.00
TREF
HKLF 4
END
_computing_structure_solution     'SHELXT 2014/5 (Sheldrick, 2014)'
_computing_structure_solution     'SHELXT 2018/2 (Sheldrick, 2018)'
;
_shelx_hkl_checksum              52716
_olex2_submission_special_instructions 'No special instructions were received'
_oxdiff_exptl_absorpt_empirical_details
;
Empirical correction (ABSPACK) includes:
- Absorption correction using spherical harmonics
- Frame scaling
;
_oxdiff_exptl_absorpt_empirical_full_max 3.142
_oxdiff_exptl_absorpt_empirical_full_min 0.256
loop_
_space_group_symop_operation_xyz
'x, y, z'
'-x, y+1/2, -z+1/2'
'-x, -y, -z'
'x, -y-1/2, z-1/2'
loop_
_atom_site_label
_atom_site_type_symbol
_atom_site_fract_x
_atom_site_fract_y
_atom_site_fract_z
_atom_site_U_iso_or_equiv
_atom_site_adp_type
_atom_site_occupancy
_atom_site_site_symmetry_order
_atom_site_calc_flag
_atom_site_refinement_flags_posn
_atom_site_refinement_flags_adp
_atom_site_refinement_flags_occupancy
_atom_site_disorder_assembly
_atom_site_disorder_group
O001 O 0.5680(3) 0.40957(14) 0.7432(3) 0.0561(7) Uani 1 1 d . . . . .
O002 O 0.2990(3) 0.51716(14) 0.6993(4) 0.0690(8) Uani 1 1 d . . . . .
N003 N 0.2444(3) 0.11186(16) 0.7042(3) 0.0448(6) Uani 1 1 d . . . . .
C004 C 0.2597(3) 0.31607(18) 0.6921(4) 0.0391(6) Uani 1 1 d . . . . .
C005 C 0.3498(4) 0.20869(18) 0.7196(4) 0.0411(7) Uani 1 1 d . . . . .
C006 C 0.3781(4) 0.42472(18) 0.7121(4) 0.0425(7) Uani 1 1 d . . . . .
C007 C 0.0532(4) 0.3224(2) 0.6449(4) 0.0440(7) Uani 1 1 d . . . . .
C008 C 0.0462(4) 0.1204(2) 0.6614(4) 0.0459(7) Uani 1 1 d . . . . .
C009 C -0.0551(4) 0.2233(2) 0.6312(4) 0.0477(7) Uani 1 1 d . . . . .
H005 H 0.486(4) 0.198(2) 0.755(4) 0.034(6) Uiso 1 1 d . . . . .
H009 H -0.194(4) 0.225(2) 0.596(4) 0.045(7) Uiso 1 1 d . . . . .
H007 H -0.008(6) 0.393(3) 0.622(5) 0.069(9) Uiso 1 1 d . . . . .
H008 H -0.030(5) 0.047(3) 0.650(4) 0.060(8) Uiso 1 1 d . . . . .
H001 H 0.635(6) 0.484(4) 0.755(5) 0.089(12) Uiso 1 1 d . . . . .
loop_
_atom_site_aniso_label
_atom_site_aniso_U_11
_atom_site_aniso_U_22
_atom_site_aniso_U_33
_atom_site_aniso_U_23
_atom_site_aniso_U_13
_atom_site_aniso_U_12
O001 0.0410(10) 0.0274(10) 0.0999(16) -0.0003(8) 0.0281(9) 0.0005(7)
O002 0.0518(11) 0.0253(9) 0.133(2) 0.0007(10) 0.0404(12) 0.0043(7)
N003 0.0476(12) 0.0274(10) 0.0635(14) 0.0007(8) 0.0265(10) 0.0002(8)
C004 0.0423(12) 0.0256(12) 0.0524(15) -0.0003(9) 0.0221(11) 0.0015(8)
C005 0.0402(13) 0.0277(11) 0.0586(16) 0.0011(10) 0.0232(11) 0.0019(9)
C006 0.0423(12) 0.0263(11) 0.0602(16) 0.0016(9) 0.0219(11) 0.0043(9)
C007 0.0426(13) 0.0326(12) 0.0575(16) 0.0011(10) 0.0206(11) 0.0056(9)
C008 0.0476(13) 0.0340(12) 0.0609(16) -0.0010(10) 0.0266(12) -0.0068(10)
C009 0.0386(13) 0.0444(14) 0.0633(18) -0.0022(11) 0.0236(12) -0.0013(10)
loop_
_atom_type_symbol
_atom_type_description
_atom_type_scat_dispersion_real
_atom_type_scat_dispersion_imag
_atom_type_scat_source
C C 0.0181 0.0091 'International Tables Vol C Tables 4.2.6.8 and 6.1.1.4'
H H 0.0000 0.0000 'International Tables Vol C Tables 4.2.6.8 and 6.1.1.4'
N N 0.0311 0.0180 'International Tables Vol C Tables 4.2.6.8 and 6.1.1.4'
O O 0.0492 0.0322 'International Tables Vol C Tables 4.2.6.8 and 6.1.1.4'
loop_
_geom_angle_atom_site_label_1
_geom_angle_atom_site_label_2
_geom_angle_atom_site_label_3
_geom_angle
_geom_angle_site_symmetry_1
_geom_angle_site_symmetry_3
_geom_angle_publ_flag
C006 O001 H001 110(2) . . ?
C008 N003 C005 118.1(2) . . ?
C005 C004 C006 122.4(2) . . ?
C007 C004 C005 118.4(2) . . ?
C007 C004 C006 119.2(2) . . ?
N003 C005 C004 122.3(2) . . ?
N003 C005 H005 114.6(15) . . ?
C004 C005 H005 123.0(15) . . ?
O001 C006 C004 114.56(19) . . ?
O002 C006 O001 124.3(2) . . ?
O002 C006 C004 121.2(2) . . ?
C004 C007 H007 119(2) . . ?
C009 C007 C004 119.5(2) . . ?
C009 C007 H007 122(2) . . ?
N003 C008 C009 123.3(2) . . ?
N003 C008 H008 117.1(18) . . ?
C009 C008 H008 119.6(18) . . ?
C007 C009 C008 118.4(2) . . ?
C007 C009 H009 121.4(18) . . ?
C008 C009 H009 120.2(18) . . ?
loop_
_geom_bond_atom_site_label_1
_geom_bond_atom_site_label_2
_geom_bond_distance
_geom_bond_site_symmetry_2
_geom_bond_publ_flag
O001 C006 1.302(3) . ?
O001 H001 0.98(4) . ?
O002 C006 1.205(3) . ?
N003 C005 1.340(3) . ?
N003 C008 1.333(3) . ?
C004 C005 1.388(3) . ?
C004 C006 1.501(3) . ?
C004 C007 1.383(3) . ?
C005 H005 0.92(3) . ?
C007 C009 1.375(4) . ?
C007 H007 0.92(4) . ?
C008 C009 1.376(4) . ?
C008 H008 1.00(3) . ?
C009 H009 0.93(3) . ?
loop_
_geom_torsion_atom_site_label_1
_geom_torsion_atom_site_label_2
_geom_torsion_atom_site_label_3
_geom_torsion_atom_site_label_4
_geom_torsion
_geom_torsion_site_symmetry_1
_geom_torsion_site_symmetry_2
_geom_torsion_site_symmetry_3
_geom_torsion_site_symmetry_4
_geom_torsion_publ_flag
N003 C008 C009 C007 0.3(4) . . . . ?
C004 C007 C009 C008 -1.3(4) . . . . ?
C005 N003 C008 C009 0.4(4) . . . . ?
C005 C004 C006 O001 4.5(4) . . . . ?
C005 C004 C006 O002 -175.6(3) . . . . ?
C005 C004 C007 C009 1.5(4) . . . . ?
C006 C004 C005 N003 179.1(2) . . . . ?
C006 C004 C007 C009 -178.4(2) . . . . ?
C007 C004 C005 N003 -0.8(4) . . . . ?
C007 C004 C006 O001 -175.5(2) . . . . ?
C007 C004 C006 O002 4.4(4) . . . . ?
C008 N003 C005 C004 -0.1(4) . . . . ?
