#------------------------------------------------------------------------------
#$Date: 2020-01-04 05:59:21 +0200 (Sat, 04 Jan 2020) $
#$Revision: 246582 $
#$URL: file:///home/coder/svn-repositories/cod/cif/8/00/03/8000342.cif $
#------------------------------------------------------------------------------
#
# This file is available in the Crystallography Open Database (COD),
# http://www.crystallography.net/
#
# All data on this site have been placed in the public domain by the
# contributors.
#
data_8000342
loop_
_publ_author_name
'Sarkar, Sounak'
'Thomas, Sajesh P.'
'Potnuru, Lokeswara Rao'
'Edwards, Alison J.'
'Grosjean, Arnaud'
'Ramanathan, Krishna Venkatachala'
'Guru Row, T. N.'
_publ_section_title
;
 Experimental Insights into the Electronic Nature, Spectral Features, and
 Role of Entropy in Short
 CH<sub>3</sub>&#x00B7;&#x00B7;&#x00B7;CH<sub>3</sub> Hydrophobic
 Interactions.
;
_journal_issue                   22
_journal_name_full               'The journal of physical chemistry letters'
_journal_page_first              7224
_journal_page_last               7229
_journal_paper_doi               10.1021/acs.jpclett.9b02734
_journal_volume                  10
_journal_year                    2019
_chemical_formula_moiety         'C6 H12 N2, C4 H2 O4'
_chemical_formula_sum            'C10 H14 N2 O4'
_chemical_formula_weight         226.23
_chemical_name_common            '2,3,5,6-tetramethylpyrazine:oxalic acid'
_space_group_crystal_system      triclinic
_space_group_IT_number           2
_space_group_name_Hall           '-P 1'
_space_group_name_H-M_alt        'P -1'
_atom_sites_solution_hydrogens   difmap
_audit_creation_method           SHELXL-2018/3
_cell_angle_alpha                81.922(3)
_cell_angle_beta                 80.362(3)
_cell_angle_gamma                85.796(3)
_cell_formula_units_Z            1
_cell_length_a                   3.80841(13)
_cell_length_b                   8.3454(3)
_cell_length_c                   8.5998(3)
_cell_measurement_reflns_used    5300
_cell_measurement_temperature    100.00(2)
_cell_measurement_theta_max      36.2490
_cell_measurement_theta_min      2.3940
_cell_volume                     266.446(16)
_computing_structure_refinement  'SHELXL-2018/3 (Sheldrick, 2018)'
_diffrn_ambient_environment      N~2~
_diffrn_ambient_temperature      100.00(2)
_diffrn_detector                 'CCD plate'
_diffrn_detector_area_resol_mean 8.0419
_diffrn_detector_type            Eos
_diffrn_measured_fraction_theta_full 0.996
_diffrn_measured_fraction_theta_max 0.997
_diffrn_measurement_device       'four-circle diffractometer'
_diffrn_measurement_device_type  'Xcalibur, Eos, Nova'
_diffrn_radiation_monochromator  mirror
_diffrn_radiation_probe          x-ray
_diffrn_radiation_type           'Mo K\a'
_diffrn_radiation_wavelength     0.71073
_diffrn_reflns_av_R_equivalents  0.0260
_diffrn_reflns_av_unetI/netI     0.0351
_diffrn_reflns_Laue_measured_fraction_full 0.996
_diffrn_reflns_Laue_measured_fraction_max 0.997
_diffrn_reflns_number            2589
_diffrn_reflns_point_group_measured_fraction_full 0.996
_diffrn_reflns_point_group_measured_fraction_max 0.997
_diffrn_reflns_theta_full        25.242
_diffrn_reflns_theta_max         36.307
_diffrn_reflns_theta_min         2.423
_diffrn_source                   'micro-focus sealed X-ray tube'
_diffrn_source_type              'Mova (Mo) X-ray Source'
_exptl_absorpt_coefficient_mu    0.110
_exptl_crystal_colour            colourless
_exptl_crystal_density_diffrn    1.410
_exptl_crystal_description       block
_exptl_crystal_F_000             120
_refine_diff_density_max         0.596
_refine_diff_density_min         -0.232
_refine_diff_density_rms         0.056
_refine_ls_extinction_method     none
_refine_ls_goodness_of_fit_ref   1.065
_refine_ls_hydrogen_treatment    refall
_refine_ls_matrix_type           full
_refine_ls_number_parameters     101
_refine_ls_number_reflns         2589
_refine_ls_number_restraints     0
_refine_ls_restrained_S_all      1.065
_refine_ls_R_factor_all          0.0407
_refine_ls_R_factor_gt           0.0359
_refine_ls_shift/su_max          0.000
_refine_ls_shift/su_mean         0.000
_refine_ls_structure_factor_coef Fsqd
_refine_ls_weighting_details
'w=1/[\s^2^(Fo^2^)+(0.0550P)^2^+0.0460P] where P=(Fo^2^+2Fc^2^)/3'
_refine_ls_weighting_scheme      calc
_refine_ls_wR_factor_gt          0.1064
_refine_ls_wR_factor_ref         0.1097
_reflns_Friedel_coverage         0.000
_reflns_number_gt                2302
_reflns_number_total             2589
_reflns_threshold_expression     'I > 2\s(I)'
_cod_data_source_file            jz9b02734_si_003.cif
_cod_data_source_block           TMP-OA-100K
_cod_depositor_comments
'Adding full bibliography for 8000326--8000347.cif.'
_cod_original_cell_volume        266.446(17)
_cod_database_code               8000342
_shelx_shelxl_version_number     2018/3
_shelx_space_group_comment
;
The symmetry employed for this shelxl refinement is uniquely defined
by the following loop, which should always be used as a source of
symmetry information in preference to the above space-group names.
They are only intended as comments.
;
_shelx_res_file
;
TITL face in P-1
    shelx.res
    created by SHELXL-2018/3 at 11:25:57 on 05-May-2018
REM P-1 (#2 in standard setting)
CELL 0.71073 3.808407 8.345437 8.599751 81.9217 80.3624 85.7958
ZERR 2 0.000135 0.000315 0.000313 0.0031 0.003 0.003
LATT 1
SFAC C H N O
UNIT 10 14 2 4

L.S. 15
PLAN  35
FMAP 2
acta
BOND $H
LIST 3
MERG 2
WGHT    0.055000    0.046000
FVAR      24.21265
O2    4    0.419979    0.801260    0.088294    11.00000    0.02998    0.00891 =
         0.01179    0.00184   -0.00739   -0.00403
O1    4    0.637802    1.004730    0.183251    11.00000    0.04052    0.01560 =
         0.01462    0.00174   -0.01396   -0.00853
N1    3    0.464150    0.603544    0.363382    11.00000    0.01312    0.00750 =
         0.00880   -0.00011   -0.00190   -0.00118
C4    1    0.643650    0.459691    0.354457    11.00000    0.01148    0.00817 =
         0.00830   -0.00081   -0.00129   -0.00145
C2    1    0.319368    0.645607    0.506357    11.00000    0.01174    0.00707 =
         0.00945   -0.00072   -0.00205   -0.00084
C5    1    0.798421    0.416596    0.192717    11.00000    0.01692    0.01584 =
         0.00927   -0.00325   -0.00019    0.00054

H5A   2    0.724776    0.314694    0.173971    11.00000    0.02435
H5B   2    1.053109    0.405898    0.179370    11.00000    0.03191
H5C   2    0.727996    0.500770    0.110676    11.00000    0.02946
C3    1    0.126609    0.807961    0.511197    11.00000    0.01599    0.00879 =
         0.01687   -0.00217   -0.00302    0.00235
H3A   2    0.038501    0.843002    0.411434    11.00000    0.03389
H3B   2    0.272247    0.883430    0.535017    11.00000    0.03793
H3C   2   -0.078937    0.803445    0.593353    11.00000    0.02453
C1    1    0.522245    0.949550    0.080548    11.00000    0.02097    0.00978 =
         0.01054    0.00091   -0.00503   -0.00176
H2    2    0.438154    0.743520    0.183995    11.00000    0.04613
HKLF 4




REM  face in P-1
REM wR2 = 0.1097, GooF = S = 1.065, Restrained GooF = 1.065 for all data
REM R1 = 0.0359 for 2302 Fo > 4sig(Fo) and 0.0407 for all 2589 data
REM 101 parameters refined using 0 restraints

END

WGHT      0.0552      0.0459

REM Highest difference peak  0.596,  deepest hole -0.232,  1-sigma level  0.056
Q1    1   0.6658  0.4056  0.4192  11.00000  0.05    0.60
Q2    1   0.3935  0.6201  0.4360  11.00000  0.05    0.57
Q3    1   0.7244  0.4353  0.2748  11.00000  0.05    0.54
Q4    1   0.5000  1.0000  0.0000  10.50000  0.05    0.54
Q5    1   0.5643  0.5344  0.3617  11.00000  0.05    0.47
Q6    1   0.2178  0.7242  0.5129  11.00000  0.05    0.44
Q7    1   0.5453  0.9749  0.1353  11.00000  0.05    0.35
Q8    1   0.4639  0.8765  0.0972  11.00000  0.05    0.28
Q9    1   0.4898  0.6503  0.2991  11.00000  0.05    0.28
Q10   1   0.1657  0.8806  0.4195  11.00000  0.05    0.18
Q11   1   0.3936  0.7906  0.0203  11.00000  0.05    0.17
Q12   1   0.2153  0.8654  0.5988  11.00000  0.05    0.16
Q13   1   0.3289  0.9043  0.4581  11.00000  0.05    0.16
Q14   1   0.5166  1.0355  0.1909  11.00000  0.05    0.13
Q15   1   0.0505  0.8281  0.6006  11.00000  0.05    0.13
Q16   1   0.7847  1.0440  0.1597  11.00000  0.05    0.13
Q17   1   0.7077  0.3832  0.1404  11.00000  0.05    0.12
Q18   1   0.5813  1.0144  0.2723  11.00000  0.05    0.12
Q19   1   1.1231  0.4578  0.1598  11.00000  0.05    0.12
Q20   1   0.6186  1.0940  0.1391  11.00000  0.05    0.12
Q21   1   0.6250  0.4556  0.1219  11.00000  0.05    0.11
Q22   1  -0.0963  0.8053  0.5348  11.00000  0.05    0.11
Q23   1   0.8748  0.9565  0.2252  11.00000  0.05    0.11
Q24   1   0.8941  0.5174  0.1059  11.00000  0.05    0.10
Q25   1   0.4613  0.9596  0.2615  11.00000  0.05    0.10
Q26   1   0.5906  0.8782  0.2946  11.00000  0.05    0.10
Q27   1   0.6181  0.4791  0.0803  11.00000  0.05    0.10
Q28   1   0.8256  0.4794  0.1188  11.00000  0.05    0.10
Q29   1   0.8456  0.9165  0.1552  11.00000  0.05    0.10
Q30   1   0.6508  1.0875  0.2285  11.00000  0.05    0.10
Q31   1   0.4379  0.5140  0.0834  11.00000  0.05    0.09
Q32   1  -0.0892  0.8212  0.2391  11.00000  0.05    0.09
Q33   1   0.4120  0.9732  0.3986  11.00000  0.05    0.09
Q34   1   0.9888  1.0516  0.0070  11.00000  0.05    0.09
Q35   1   0.9551  0.3385  0.1761  11.00000  0.05    0.08
;
_shelx_res_checksum              54939
_shelx_hkl_file
;
  -6  -3   1 1115.19 187.298   1
  -6  -2   1 1773.81 222.549   1
  -6  -2   2 1866.95 328.162   1
  -6  -1   128474.70 1083.66   1
  -6  -1   2 4877.56 371.085   1
  -6   0   113142.90 656.703   1
  -6   0   2 2955.19  421.25   1
  -6   1   0-39.8497 361.213   1
  -6   1   1 1455.42 264.007   1
  -6   1   2 10.5092 115.108   1
  -6   2   0 1704.60 300.485   1
  -6   3   0-105.012 178.635   1
  -5  -8   1 487.504 149.966   1
  -5  -7   1 964.208 464.382   1
  -5  -7   2 329.563 134.749   1
  -5  -7   311726.80  937.83   1
  -5  -6   1 1028.91 285.779   1
  -5  -6   2 142.929 215.981   1
  -5  -6   320628.90  951.20   1
  -5  -6   420403.90 2754.54   1
  -5  -5   118560.70 646.441   1
  -5  -5   2 217.417 104.958   1
  -5  -5   3 951.436 245.819   1
  -5  -5   4 2943.58  321.42   1
  -5  -5   5 11.8164  137.93   1
  -5  -4   110858.30  514.06   1
  -5  -4   2 6965.15 416.111   1
  -5  -4   3 1330.36 168.664   1
  -5  -4   4 2722.03 571.518   1
  -5  -4   5 413.454 152.119   1
  -5  -3   1 452.558 105.701   1
  -5  -3   2-1.16188  133.32   1
  -5  -3   3 212.452 103.212   1
  -5  -3   4  166.50 243.207   1
  -5  -3   5 2154.93  271.26   1
  -5  -3   6 4116.95 658.556   1
  -5  -2   1 3657.51 276.556   1
  -5  -2   2 3531.97 345.457   1
  -5  -2   3 5021.68 333.201   1
  -5  -2   4 5545.98 648.691   1
  -5  -2   5 943.508 181.475   1
  -5  -2   6 5071.90 1040.48   1
  -5  -1   1 639.351 148.488   1
  -5  -1   2 2539.30 406.052   1
  -5  -1   3 2.49168 81.1803   1
  -5  -1   413152.60 1208.06   1
  -5  -1   5 1187.20  172.04   1
  -5  -1   6 1127.81 176.213   1
  -5   0   128691.30 1421.80   1
  -5   0   230841.10 1042.12   1
  -5   0   3 2446.45 404.885   1
  -5   0   4 1299.31 153.426   1
  -5   0   5 67.0925 104.854   1
  -5   0   6  225.74 98.8657   1
  -5   1   0 57.9979 75.6334   1
  -5   1   123050.60 848.686   1
  -5   1   223422.30 786.324   1
  -5   1   3 4025.16 266.144   1
  -5   1   4 259.379 82.5353   1
  -5   1   5 158.137 91.3376   1
  -5   1   6 1562.17 198.241   1
  -5   2   0 1668.80 167.127   1
  -5   2   1 603.845 101.188   1
  -5   2   2 4931.09 415.878   1
  -5   2   3 1629.71 244.945   1
  -5   2   4 70.1725  69.843   1
  -5   2   5 2550.75  246.93   1
  -5   2   616653.70 861.145   1
  -5   3   0 1446.17 186.085   1
  -5   3   1 3093.93 327.332   1
  -5   3   2 1220.73 160.074   1
  -5   3   3 2280.32 194.818   1
  -5   3   4  175.11 106.153   1
  -5   3   5 309.272 306.652   1
  -5   3   6 2638.79 592.753   1
  -5   4   0 1332.12 184.882   1
  -5   4   1 839.989 188.329   1
  -5   4   2 973.851 438.023   1
  -5   4   3 3738.94 270.105   1
  -5   4   4 4197.75 284.291   1
  -5   4   5 5176.84 431.863   1
  -5   5   0  689.79 166.016   1
  -5   5   1 8909.46 655.153   1
  -5   5   210722.00 580.998   1
  -5   5   3 3837.23 1153.30   1
  -5   5   4 5706.44 500.563   1
  -5   5   5 1225.97 207.497   1
  -5   6   0 3304.96 314.636   1
  -5   6   1 973.158 294.521   1
  -5   6   2 4613.09 455.512   1
  -5   6   3  148.34 122.107   1
  -5   6   4 80.3632 120.381   1
  -5   7   029193.00 1388.17   1
  -5   7   1 4037.47 790.737   1
  -5   7   2 896.993 435.531   1
  -4 -10   1 4341.15 422.312   1
  -4 -10   2 6800.63 431.796   1
  -4  -9   1 5799.33 407.487   1
  -4  -9   2 845.402 146.465   1
  -4  -9   3 7235.29 439.765   1
  -4  -9   4 736.958 158.924   1
  -4  -8   1 199.352 72.2457   1
  -4  -8   2  286.46 170.636   1
  -4  -8   3 233.801 247.447   1
  -4  -8   4 18.9021  152.62   1
  -4  -8   5 3710.53 315.773   1
  -4  -7   1 9468.46  382.45   1
  -4  -7   2 2185.24 207.295   1
  -4  -7   3 206.114 82.6974   1
  -4  -7   4 1108.49 163.823   1
  -4  -7   5 472.206  157.10   1
  -4  -7   6 2593.04 305.032   1
  -4  -6   1 1024.65 98.5935   1
  -4  -6   2 5568.93 523.809   1
  -4  -6   3 924.111 258.359   1
  -4  -6   419865.80 2600.09   1
  -4  -6   510462.50  582.70   1
  -4  -6   6 165.214 106.532   1
  -4  -6   7 1264.53 604.416   1
  -4  -5   1 1920.14 134.674   1
  -4  -5   2 2902.30 166.592   1
  -4  -5   3 5066.75 647.109   1
  -4  -5   461328.90 6927.53   1
  -4  -5   510240.00 968.947   1
  -4  -5   6 6789.58 855.839   1
  -4  -5   7 3501.13 821.468   1
  -4  -4   1 2735.64 177.563   1
  -4  -4   211304.00 685.538   1
  -4  -4   3 3176.80 263.061   1
  -4  -4   4 3691.55 252.039   1
  -4  -4   517025.80 2148.57   1
  -4  -4   6 1810.54 216.734   1
  -4  -4   7 458.672 293.815   1
  -4  -4   8 2636.34 844.549   1
  -4  -3   1 6137.91 324.325   1
  -4  -3   248976.20 1456.09   1
  -4  -3   3 109.022 64.7499   1
  -4  -3   4 870.694 154.445   1
  -4  -3   511685.90 579.965   1
  -4  -3   6 5422.54 386.696   1
  -4  -3   7 4621.50 370.636   1
  -4  -3   8 6406.93 1231.63   1
  -4  -2   1 7405.58 371.394   1
  -4  -2   2-49.3216 119.597   1
  -4  -2   3 2533.88 181.295   1
  -4  -2   4 397.868 84.0604   1
  -4  -2   5 263.786 122.576   1
  -4  -2   6 1099.07 159.028   1
  -4  -2   7 2645.02 242.646   1
  -4  -2   8 4979.23 545.595   1
  -4  -2   9 271.276 208.674   1
  -4  -1   1 5524.15 304.713   1
  -4  -1   2 1860.43 163.709   1
  -4  -1   3 6491.38 594.107   1
  -4  -1   411406.90 440.636   1
  -4  -1   510426.90 499.459   1
  -4  -1   6-12.5688 120.584   1
  -4  -1   7 2326.17 382.093   1
  -4  -1   8 1234.71 172.495   1
  -4  -1   9 596.645 149.603   1
  -4   0   1 1521.21 118.666   1
  -4   0   2 2258.63 148.397   1
  -4   0   3 338.998 157.326   1
  -4   0   411967.90 454.242   1
  -4   0   5 7136.77 365.811   1
  -4   0   6 6648.05 436.655   1
  -4   0   7 3800.54 279.053   1
  -4   0   8-53.4863 272.826   1
  -4   0   9 5214.83  461.24   1
  -4   1   0 626.427 76.9164   1
  -4   1   1 9442.47 418.683   1
  -4   1   229069.80 979.371   1
  -4   1   338244.70 1024.99   1
  -4   1   4 674.789 99.1375   1
  -4   1   5 1645.44 281.271   1
  -4   1   6 3342.49 250.228   1
  -4   1   7 2501.01 221.466   1
  -4   1   8 8375.95 1335.56   1
  -4   1   929068.70 1243.64   1
  -4   2   0 549.333 77.8744   1
  -4   2   1 1500.68 119.518   1
  -4   2   2116698.0 2825.88   1
  -4   2   3 8825.25 339.397   1
  -4   2   4 7049.13 372.403   1
  -4   2   5 5359.69 381.332   1
  -4   2   6 5261.55 312.643   1
  -4   2   7 70.1871 280.849   1
  -4   2   8 2257.97 292.757   1
  -4   2   922161.60 1049.88   1
  -4   3   010148.30 365.236   1
  -4   3   1  59.656 49.1452   1
  -4   3   2 448.993 107.442   1
  -4   3   317835.20 591.522   1
  -4   3   4 6600.50  287.94   1
  -4   3   5 46.3682  68.486   1
  -4   3   6 9238.71 536.371   1
  -4   3   719046.00 1258.49   1
  -4   3   8 2048.34 278.017   1
  -4   3   9 198.848 133.391   1
  -4   4   046938.40 1446.51   1
  -4   4   1 817.995 106.499   1
  -4   4   2 5230.48 339.635   1
  -4   4   3 5688.44 273.371   1
  -4   4   4 6698.40 296.206   1
  -4   4   5  934.85 121.676   1
  -4   4   6 3725.93 330.938   1
  -4   4   7 5441.19 618.859   1
  -4   4   8 307.428 201.238   1
  -4   5   0 79.7053 89.6219   1
  -4   5   1 340.336 106.161   1
  -4   5   2 330.723 92.5723   1
  -4   5   3 250.285 69.3944   1
  -4   5   4 40.8712 66.8384   1
  -4   5   5 1354.94 147.661   1
  -4   5   6 4999.40 866.903   1
  -4   5   7  193.48 117.183   1
  -4   5   8 36.8114 111.283   1
  -4   6   0 6512.53 576.161   1
  -4   6   1-66.6365 127.586   1
  -4   6   2 9874.11 501.589   1
  -4   6   320429.80 938.802   1
  -4   6   4 2854.79 213.387   1
  -4   6   5 3496.18 515.328   1
  -4   6   6 4612.31 374.451   1
  -4   6   7 196.886 109.879   1
  -4   7   0 3685.79 303.613   1
  -4   7   1 2114.57 295.818   1
  -4   7   2 7497.45 1513.84   1
  -4   7   3 2524.01 655.719   1
  -4   7   4 2473.05 434.941   1
  -4   7   5 1471.31 192.621   1
  -4   7   6  231.50 107.965   1
  -4   7   7 8135.18 560.271   1
  -4   8   018442.40 1012.80   1
  -4   8   135761.80 1536.66   1
  -4   8   2 3126.20 363.876   1
  -4   8   3-11.7185  130.48   1
  -4   8   4 4032.36 415.894   1
  -4   8   5 664.414 183.089   1
  -4   8   6 9706.97 603.259   1
  -4   9   045931.10 4094.88   1
  -4   9   1 3393.31 397.683   1
  -4   9   2 1478.19 273.463   1
  -4   9   3-2.91439 206.503   1
  -4   9   4 4226.26 448.836   1
  -4  10   0 354.742 338.882   1
  -4  10   1 7679.48 635.185   1
  -3 -12   1 3824.94  374.94   1
  -3 -11   1-112.964 175.087   1
  -3 -11   2 844.981 268.131   1
  -3 -11   3 0.94802 116.442   1
  -3 -10   137460.70 1041.32   1
  -3 -10   2  182.68 74.9276   1
  -3 -10   3 3486.41 265.654   1
  -3 -10   4 4143.38 268.798   1
  -3 -10   5 644.174  136.01   1
  -3  -9   1 113.964 48.3439   1
  -3  -9   2 502.692 73.5108   1
  -3  -9   3 2105.55 166.797   1
  -3  -9   4 3747.57 213.633   1
  -3  -9   519347.80 743.221   1
  -3  -9   6 1462.21 245.507   1
  -3  -8   1 5874.08 312.824   1
  -3  -8   2 565.812 94.9678   1
  -3  -8   3 6490.99 272.286   1
  -3  -8   414990.40 685.266   1
  -3  -8   5 501.944 100.573   1
  -3  -8   6 2326.61 300.638   1
  -3  -8   7 3200.83 374.797   1
  -3  -7   111266.10  398.96   1
  -3  -7   2 127.031 55.7289   1
  -3  -7   3 1792.92 130.787   1
  -3  -7   4 1009.16 116.373   1
  -3  -7   5 711.913  110.02   1
  -3  -7   6 -21.114 125.903   1
  -3  -7   7  866.94 275.334   1
  -3  -7   8 4705.73 453.116   1
  -3  -6   1 1768.98 106.568   1
  -3  -6   2 5717.13 226.491   1
  -3  -6   3 381.391 90.8186   1
  -3  -6   4 2483.37 167.857   1
  -3  -6   510203.70 402.761   1
  -3  -6   6  425.77  159.44   1
  -3  -6   729017.80 985.665   1
  -3  -6   8-70.6861 169.046   1
  -3  -6   9 8094.63 617.107   1
  -3  -5   130291.50 841.568   1
  -3  -5   2 1110.88 76.0102   1
  -3  -5   315306.00 452.343   1
  -3  -5   431523.80  931.13   1
  -3  -5   5 2073.31 205.499   1
  -3  -5   6 5090.11  266.40   1
  -3  -5   7 107.471 72.4019   1
  -3  -5   812590.50 565.392   1
  -3  -5   9 119.354 102.472   1
  -3  -4   1 2531.07 160.237   1
  -3  -4   2 4770.64 169.525   1
  -3  -4   3 2131.33 140.086   1
  -3  -4   4 7089.53 304.792   1
  -3  -4   5163825.0 4709.07   1
  -3  -4   6 1031.81 130.148   1
  -3  -4   7 5875.84 326.874   1
  -3  -4   8 3842.13 516.438   1
  -3  -4   9 5358.15 349.548   1
  -3  -4  10 2011.22 301.087   1
  -3  -3   117887.50 495.569   1
  -3  -3   247603.20 1228.86   1
  -3  -3   3 663.933 88.9465   1
  -3  -3   431166.60 797.888   1
  -3  -3   5 4337.52 185.126   1
  -3  -3   624227.00 800.459   1
  -3  -3   7-38.8791 119.931   1
  -3  -3   8 23.8426 61.9459   1
  -3  -3   911164.00 480.997   1
  -3  -3  10 1366.20  201.08   1
  -3  -2   114570.80 396.856   1
  -3  -2   2 7956.29 258.797   1
  -3  -2   373663.30 1748.60   1
  -3  -2   4 144.125 40.4083   1
  -3  -2   5 2336.35 138.725   1
  -3  -2   6 5769.73 270.652   1
  -3  -2   7 114.652 64.8445   1
  -3  -2   8 4920.39 349.796   1
  -3  -2   911265.20 675.128   1
  -3  -2  10 7089.96 416.961   1
  -3  -1   1 100.191 28.4455   1
  -3  -1   235496.20 864.533   1
  -3  -1   3 2001.62 128.124   1
  -3  -1   4 2693.60 172.461   1
  -3  -1   5 5929.83 237.161   1
  -3  -1   6 179.096 61.3039   1
  -3  -1   7 4466.82 240.437   1
  -3  -1   8 2191.88 256.503   1
  -3  -1   9 4046.23 228.302   1
  -3  -1  10 1233.62 261.348   1
  -3  -1  11 444.677 108.509   1
  -3   0   1 51.0264 39.2481   1
  -3   0   2 414.228 48.2907   1
  -3   0   3 1994.37 186.402   1
  -3   0   4 2788.13 144.449   1
  -3   0   5 124.158 44.6634   1
  -3   0   612402.40  435.34   1
  -3   0   7 18.1982 49.8506   1
  -3   0   8 560.706 111.997   1
  -3   0   9 1531.64 163.818   1
  -3   0  10 1972.97 191.625   1
  -3   0  11 1134.39 163.981   1
  -3   1   023367.30 631.701   1
  -3   1   1 6242.50 216.628   1
  -3   1   246578.70 1317.27   1
  -3   1   311689.50 338.602   1
  -3   1   4 881.378 84.7082   1
  -3   1   579613.30 1925.79   1
  -3   1   6 606.043 84.9435   1
  -3   1   711694.20 419.433   1
  -3   1   8 4710.35 294.525   1
  -3   1   9  89.067 110.123   1
  -3   1  10 5722.41  335.24   1
  -3   1  11 186.781 143.376   1
  -3   2   0 95.9269 65.6953   1
  -3   2   126541.10 768.336   1
  -3   2   294345.80 2216.77   1
  -3   2   310315.10 321.277   1
  -3   2   414970.70 492.451   1
  -3   2   5  28.919  39.581   1
  -3   2   6 3495.04 164.204   1
  -3   2   7 787.438 132.923   1
  -3   2   8 3314.94 219.542   1
  -3   2   935147.30 1140.76   1
  -3   2  1015070.30 641.479   1
  -3   2  11 4157.56 363.752   1
  -3   3   019323.10 506.707   1
  -3   3   1 5909.31 212.398   1
  -3   3   2 5743.08 210.223   1
  -3   3   3227055.0 5253.57   1
  -3   3   4 6329.97 258.789   1
  -3   3   5 8012.41 293.232   1
  -3   3   6 2653.74 198.952   1
  -3   3   7 1795.61 160.939   1
  -3   3   8 922.747 114.018   1
  -3   3   9 9521.71 538.879   1
  -3   3  1045115.60 1358.09   1
  -3   3  11 1025.02 161.213   1
  -3   4   055139.80 1309.70   1
  -3   4   1 6442.05 226.489   1
  -3   4   214583.30 521.956   1
  -3   4   3 6512.08 254.339   1
  -3   4   4 4762.13 196.652   1
  -3   4   5 1388.74 106.212   1
  -3   4   6-7.98998 114.693   1
  -3   4   732682.70 1007.68   1
  -3   4   8 3984.00 376.416   1
  -3   4   9 6198.87 514.406   1
  -3   4  10  332.22 126.206   1
  -3   5   0 7910.72  354.63   1
  -3   5   122398.70 649.297   1
  -3   5   2 71.2841 50.2083   1
  -3   5   3 2453.24 151.727   1
  -3   5   4 115.077 80.1135   1
  -3   5   5 244.124 93.0677   1
  -3   5   6 2562.76  336.47   1
  -3   5   7 7297.67 410.731   1
  -3   5   8 5900.86 714.628   1
  -3   5   9 734.044 121.873   1
  -3   5  10 33.6852 76.5768   1
  -3   6   0 6454.91 542.896   1
  -3   6   1 4669.71 226.426   1
  -3   6   212615.90 414.186   1
  -3   6   3 982.258 98.4102   1
  -3   6   4 560.407 101.799   1
  -3   6   5 6719.58 333.451   1
  -3   6   6  423.97 160.975   1
  -3   6   7 5060.82 379.842   1
  -3   6   8 358.738 214.136   1
  -3   6   9  411.85 387.196   1
  -3   6  10 3017.70 252.657   1
  -3   7   0 2519.03  199.10   1
  -3   7   1 31.4902 138.817   1
  -3   7   2 9994.38 365.805   1
  -3   7   3 3975.12 223.269   1
  -3   7   419967.20 648.377   1
  -3   7   5 971.856 124.885   1
  -3   7   6 5971.69 439.297   1
  -3   7   7 3465.68 398.923   1
  -3   7   8  164.68 222.809   1
  -3   7   9 4184.88 396.091   1
  -3   8   019515.80  706.24   1
  -3   8   1 3185.74 254.866   1
  -3   8   2  328.13 86.6003   1
  -3   8   329269.30 1005.66   1
  -3   8   4 2396.52 182.622   1
  -3   8   5 7540.66 419.701   1
  -3   8   6 491.968 145.973   1
  -3   8   7 218.951 114.722   1
  -3   8   8 7258.90 516.299   1
  -3   9   040847.70 1380.86   1
  -3   9   117964.90 835.416   1
  -3   9   220118.90 1060.69   1
  -3   9   3 93.1715 81.0783   1
  -3   9   4 63.5543 65.5337   1
  -3   9   5 2071.75 187.172   1
  -3   9   6 761.823 130.429   1
  -3   9   734486.10 1318.02   1
  -3  10   0 3799.45 357.846   1
  -3  10   152256.60 2126.71   1
  -3  10   2 3207.81 366.861   1
  -3  10   3 2945.41 273.059   1
  -3  10   4 669.038  162.68   1
  -3  10   5 1409.55 203.023   1
  -3  10   6-75.3081 314.808   1
  -3  11   0 835.904 178.826   1
  -3  11   1 6099.42 426.916   1
  -3  11   2 1075.80 176.237   1
  -3  11   3 1597.79 226.004   1
  -3  11   4-63.8333 189.193   1
  -2 -13   1-26.1245 189.678   1
  -2 -12   1 7772.79 455.132   1
  -2 -12   2 322.377 91.2839   1
  -2 -12   310495.60 596.894   1
  -2 -11   1 204.217 106.829   1
  -2 -11   2-139.667 186.513   1
  -2 -11   319585.40 1054.64   1
  -2 -11   4 2071.33 252.464   1
  -2 -11   5 1455.32 188.263   1
  -2 -10   128860.70 1509.72   1
  -2 -10   2 282.513 71.7584   1
  -2 -10   3 308.024 89.1286   1
  -2 -10   412966.70 544.824   1
  -2 -10   5 185.722 116.578   1
  -2 -10   6 2077.12 275.019   1
  -2  -9   192848.40 2228.84   1
  -2  -9   2 3894.26 228.348   1
  -2  -9   3 2370.59 159.599   1
  -2  -9   4 8899.70 436.007   1
  -2  -9   5 7306.82 443.035   1
  -2  -9   6 3341.56 293.452   1
  -2  -9   735711.70 1279.43   1
  -2  -9   8 9111.37 558.258   1
  -2  -8   1 5317.18 218.311   1
  -2  -8   2 7610.72 286.524   1
  -2  -8   3 375.501 80.0157   1
  -2  -8   4 6649.62 409.043   1
  -2  -8   512181.40 479.082   1
  -2  -8   6-92.2888  141.10   1
  -2  -8   7  72.217  108.41   1
  -2  -8   8 596.764 138.779   1
  -2  -8   9 882.108 221.831   1
  -2  -7   1 9806.67 321.709   1
  -2  -7   2 5523.95 265.141   1
  -2  -7   3 2159.79 148.829   1
  -2  -7   4 4056.08 275.989   1
  -2  -7   518526.90 588.641   1
  -2  -7   616033.90 644.497   1
  -2  -7   7 5023.63 339.013   1
  -2  -7   815019.70 681.344   1
  -2  -7   9 787.211 259.675   1
  -2  -6   1 571.122  63.538   1
  -2  -6   210162.00  343.02   1
  -2  -6   329355.00 753.184   1
  -2  -6   424352.20 667.132   1
  -2  -6   5  745.50 85.1035   1
  -2  -6   610097.80 397.104   1
  -2  -6   719324.40  730.71   1
  -2  -6   8 919.612 153.705   1
  -2  -6   9 2631.43 397.955   1
  -2  -6  10-141.541 208.942   1
  -2  -5   114981.10 509.644   1
  -2  -5   2 7510.30 259.495   1
  -2  -5   326039.10 665.795   1
  -2  -5   432302.80 924.141   1
  -2  -5   515722.30 504.408   1
  -2  -5   6 9346.87 447.193   1
  -2  -5   7 97.8687 65.4817   1
  -2  -5   838769.90 1506.50   1
  -2  -5   9 -52.218 145.506   1
  -2  -5  1010034.50 551.693   1
  -2  -5  11 565.006 149.921   1
  -2  -4   1229463.0 7159.95   1
  -2  -4   2 204.889 35.6853   1
  -2  -4   3 2352.97 110.891   1
  -2  -4   449627.30 1178.08   1
  -2  -4   574936.20 1853.78   1
  -2  -4   6 1254.96  105.56   1
  -2  -4   7 656.248 82.9442   1
  -2  -4   8 5934.32 304.994   1
  -2  -4   9 4006.34 259.888   1
  -2  -4  10 1863.72  221.40   1
  -2  -4  11 3343.36  397.07   1
  -2  -3   142489.30 1069.59   1
  -2  -3   258784.20 1357.20   1
  -2  -3   3 1298.19 73.2096   1
  -2  -3   422918.30 600.573   1
  -2  -3   535482.30 905.203   1
  -2  -3   688920.50 2658.80   1
  -2  -3   7 5619.35 285.945   1
  -2  -3   8 6801.27  303.24   1
  -2  -3   9 1270.75 139.258   1
  -2  -3  10 217.689 85.4077   1
  -2  -3  11 8348.32 508.861   1
  -2  -2   1 1582.31 77.9932   1
  -2  -2   223486.50 574.458   1
  -2  -2   3 9772.65 282.886   1
  -2  -2   4 55.7267 23.8772   1
  -2  -2   581915.50 1901.06   1
  -2  -2   654702.60 1578.65   1
  -2  -2   7 970.188 128.226   1
  -2  -2   8 3209.52 176.623   1
  -2  -2   9 104.759 79.6785   1
  -2  -2  1018094.50 607.225   1
  -2  -2  11 944.238 123.398   1
  -2  -2  1213808.80 1226.80   1
  -2  -1   1 7.10401 15.4344   1
  -2  -1   231706.80  835.79   1
  -2  -1   3167660.0 3833.81   1
  -2  -1   4 734.894 91.7891   1
  -2  -1   5 853.851 60.1428   1
  -2  -1   6 830.616 78.6525   1
  -2  -1   7 2054.75 129.308   1
  -2  -1   8 2183.78 141.499   1
  -2  -1   913354.00 527.121   1
  -2  -1  1017558.30 588.353   1
  -2  -1  11 265.909 115.167   1
  -2  -1  12 513.856 146.075   1
  -2   0   149397.40 1140.78   1
  -2   0   2 26.9105 19.9677   1
  -2   0   323823.60 673.687   1
  -2   0   485586.60 2092.76   1
  -2   0   530080.70 813.812   1
  -2   0   613534.00 407.096   1
  -2   0   7-4.96329 85.6763   1
  -2   0   8 2487.26  159.83   1
  -2   0   9 5342.69 368.144   1
  -2   0  10 2044.28 158.194   1
  -2   0  11 664.449 156.632   1
  -2   0  12 700.446 162.577   1
  -2   1   0119845.0 3207.21   1
  -2   1   1308808.0 7096.40   1
  -2   1   289230.30 2066.90   1
  -2   1   3  508.73  77.328   1
  -2   1   439703.90 1021.73   1
  -2   1   526029.40 685.584   1
  -2   1   6  119.87 38.9386   1
  -2   1   7 3803.38 195.886   1
  -2   1   8 5005.92 236.184   1
  -2   1   912792.80 446.096   1
  -2   1  10 305.922 72.1131   1
  -2   1  11 6542.22 435.518   1
  -2   1  1216892.20 624.727   1
  -2   2   041546.40 1148.23   1
  -2   2   1135986.0 3130.35   1
  -2   2   248681.90 1155.65   1
  -2   2   347168.60 1125.09   1
  -2   2   4 6463.79 228.984   1
  -2   2   5 9654.90 304.354   1
  -2   2   644907.90 1202.38   1
  -2   2   7 1812.38 116.961   1
  -2   2   828827.30 802.511   1
  -2   2   9 1060.71 110.031   1
  -2   2  10 407.873 73.8767   1
  -2   2  11 2187.13 178.311   1
  -2   2  12 586.345 115.252   1
  -2   3   0 1320.91  67.626   1
  -2   3   1 2856.45 108.716   1
  -2   3   235817.90 852.643   1
  -2   3   375026.80 1849.09   1
  -2   3   419941.20 524.609   1
  -2   3   5 1841.87 107.964   1
  -2   3   620262.70 554.926   1
  -2   3   7 257.389 116.598   1
  -2   3   8  21.888 85.1866   1
  -2   3   9 5296.67 279.803   1
  -2   3  1066642.40 1741.41   1
  -2   3  11 6471.94 324.712   1
  -2   3  12 322.715 95.8465   1
  -2   4   0 1519.24 78.2007   1
  -2   4   1 519.866 48.8729   1
  -2   4   220890.30 542.969   1
  -2   4   3127405.0 2955.66   1
  -2   4   497679.00 2338.91   1
  -2   4   5 8495.65  255.90   1
  -2   4   624728.50 957.658   1
  -2   4   7 1476.01 143.193   1
  -2   4   8 441.815 91.0143   1
  -2   4   913159.10 542.653   1
  -2   4  1021825.40 746.258   1
  -2   4  1131987.40 1120.02   1
  -2   4  12 2948.05 233.249   1
  -2   5   0 8309.43 291.742   1
  -2   5   1 1405.62 87.5438   1
  -2   5   2 9002.78  309.74   1
  -2   5   319304.70 539.249   1
  -2   5   455426.30 1438.23   1
  -2   5   5 40.1919 38.9361   1
  -2   5   6 358.739 73.0984   1
  -2   5   7 627.804 136.811   1
  -2   5   825244.80 820.596   1
  -2   5   9 985.917 143.854   1
  -2   5  1012328.30 559.206   1
  -2   5  11 1250.70 259.833   1
  -2   5  12 292.598  87.759   1
  -2   6   0 1441.55 95.8402   1
  -2   6   1104838.0 3256.99   1
  -2   6   2 1053.48 78.6755   1
  -2   6   3 400.624 56.4255   1
  -2   6   4 7.07536  37.695   1
  -2   6   5 60.0002 46.7061   1
  -2   6   6 3.19177 41.7307   1
  -2   6   7 8728.67 351.159   1
  -2   6   827389.00 890.541   1
  -2   6   9 400.919 127.202   1
  -2   6  10-84.5252 164.516   1
  -2   6  11 202.654 98.1095   1
  -2   7   0 1696.18 107.947   1
  -2   7   1 246.738 97.3603   1
  -2   7   211995.10 477.978   1
  -2   7   319371.30  628.20   1
  -2   7   4 2314.69 191.949   1
  -2   7   5 4090.90 201.771   1
  -2   7   6 264.416 93.5364   1
  -2   7   7 443.466 94.7055   1
  -2   7   8  818.68  233.46   1
  -2   7   9 922.834 169.357   1
  -2   7  10 2709.87 310.487   1
  -2   7  11 3907.74  394.91   1
  -2   8   022236.10 1298.32   1
  -2   8   1 3872.24 197.129   1
  -2   8   2 -1.0558 133.888   1
  -2   8   3 5041.85  236.45   1
  -2   8   4 6960.90 298.149   1
  -2   8   518580.80 592.798   1
  -2   8   6 5372.21 271.838   1
  -2   8   722414.90 883.641   1
  -2   8   8 692.792 149.251   1
  -2   8   9 2229.36 273.699   1
  -2   8  1016918.90 864.568   1
  -2   9   0-77.9849 128.667   1
  -2   9   1 9711.46 935.384   1
  -2   9   2 4018.16 216.087   1
  -2   9   316472.00 602.797   1
  -2   9   418406.70 597.531   1
  -2   9   5 2555.12 214.645   1
  -2   9   621889.80  753.38   1
  -2   9   7 474.774 166.869   1
  -2   9   8 419.639 139.684   1
  -2   9   9 2674.05 316.139   1
  -2  10   0 365.117 141.139   1
  -2  10   120537.90 1000.58   1
  -2  10   218700.10 840.712   1
  -2  10   313449.10 491.957   1
  -2  10   4 6169.03 447.999   1
  -2  10   5 1060.45 203.864   1
  -2  10   6 1368.43  268.50   1
  -2  10   7-13.7604 130.936   1
  -2  10   841031.80 1515.75   1
  -2  11   0 1028.68 200.448   1
  -2  11   139127.20 1397.88   1
  -2  11   234140.00 3387.61   1
  -2  11   3 1976.13 277.826   1
  -2  11   4 4636.18 341.987   1
  -2  11   5 419.373  142.25   1
  -2  11   6 1200.51 220.313   1
  -2  11   7 2703.13 319.037   1
  -2  12   0 2967.14 747.354   1
  -2  12   1 3449.66 360.987   1
  -2  12   2 9136.78 2371.99   1
  -2  12   3 427.967 176.775   1
  -2  12   4 777.801 190.889   1
  -2  12   5 4119.85 328.635   1
  -1 -13   1 5931.45 547.529   1
  -1 -13   2 8222.26 456.216   1
  -1 -12   1 4763.92 387.512   1
  -1 -12   2 2625.01 455.878   1
  -1 -12   3 1012.92 143.743   1
  -1 -12   4 3011.26 262.493   1
  -1 -12   510742.50 619.664   1
  -1 -11   1 6.85493 72.6292   1
  -1 -11   210082.00 487.337   1
  -1 -11   313588.40 507.341   1
  -1 -11   4 139.201 91.9472   1
  -1 -11   5 138.319 77.6888   1
  -1 -11   6 6286.78 353.916   1
  -1 -10   1 149.046 66.5705   1
  -1 -10   2 2649.16 270.685   1
  -1 -10   3 57.3603 52.5471   1
  -1 -10   442279.00 1250.11   1
  -1 -10   5 788.886 124.232   1
  -1 -10   6 98.9619 75.6683   1
  -1 -10   7 2197.21 224.422   1
  -1  -9   161998.00 1596.83   1
  -1  -9   2 5199.24 262.387   1
  -1  -9   3 4375.58  229.26   1
  -1  -9   4 899.805 110.655   1
  -1  -9   5 2716.64 237.566   1
  -1  -9   6 7311.32 372.958   1
  -1  -9   7 7408.06 548.579   1
  -1  -9   827295.30 955.655   1
  -1  -9   9 2492.79 246.353   1
  -1  -8   184201.00 2071.10   1
  -1  -8   266521.90 1674.36   1
  -1  -8   310539.60 644.425   1
  -1  -8   4 2655.23 170.375   1
  -1  -8   5 2945.63 300.337   1
  -1  -8   6 8420.70 383.018   1
  -1  -8   7 2406.89 314.181   1
  -1  -8   836335.40 1674.72   1
  -1  -8   931286.00 1055.54   1
  -1  -7   128895.50 786.224   1
  -1  -7   249737.10 1409.38   1
  -1  -7   3 9629.64 376.948   1
  -1  -7   4 8350.85 375.885   1
  -1  -7   5 515.709 93.5139   1
  -1  -7   663334.00 1663.37   1
  -1  -7   730642.90 933.705   1
  -1  -7   8 139.667  88.554   1
  -1  -7   9 430.064 127.788   1
  -1  -7  10 2584.26  237.28   1
  -1  -6   1 462.579 50.1695   1
  -1  -6   247320.70 1192.38   1
  -1  -6   340753.50 982.613   1
  -1  -6   459605.50 1558.35   1
  -1  -6   512372.30 490.729   1
  -1  -6   6 3727.45 212.429   1
  -1  -6   726739.00 812.105   1
  -1  -6   8 1920.59  169.23   1
  -1  -6   911964.60 504.229   1
  -1  -6  10 1353.79 163.205   1
  -1  -6  11 5041.38 637.917   1
  -1  -5   124946.20 617.418   1
  -1  -5   2 5768.78 191.933   1
  -1  -5   356471.90 1353.80   1
  -1  -5   487275.10 2099.52   1
  -1  -5   541258.80 1076.15   1
  -1  -5   6 164.098 54.0256   1
  -1  -5   7 5215.10 258.474   1
  -1  -5   8 7175.53 467.122   1
  -1  -5   9 423.918 109.522   1
  -1  -5  10 3467.56 338.926   1
  -1  -5  11 6935.59 453.532   1
  -1  -4   1267647.0 6172.51   1
  -1  -4   2 3634.54 166.106   1
  -1  -4   3 4127.79 150.817   1
  -1  -4   426010.40 653.373   1
  -1  -4   5 4998.90 258.404   1
  -1  -4   6 873.274 106.716   1
  -1  -4   7 5481.22 235.002   1
  -1  -4   826489.00 903.549   1
  -1  -4   9 3307.76 219.737   1
  -1  -4  10 124.211 70.8873   1
  -1  -4  1120064.00 743.867   1
  -1  -4  12 8504.14  523.72   1
  -1  -3   1 353.962 39.2269   1
  -1  -3   2248001.0 5779.27   1
  -1  -3   340757.40 961.979   1
  -1  -3   4 844.866 53.9146   1
  -1  -3   5 17.1403 29.0098   1
  -1  -3   6 3957.61 161.946   1
  -1  -3   7 4433.87 200.922   1
  -1  -3   8 2424.21 249.791   1
  -1  -3   932443.90 904.394   1
  -1  -3  10 2384.39 197.427   1
  -1  -3  11 1361.70 154.848   1
  -1  -3  12 649.457 180.164   1
  -1  -2   126895.70 806.971   1
  -1  -2   238801.60 899.963   1
  -1  -2   324484.30 581.412   1
  -1  -2   436458.30 872.438   1
  -1  -2   511583.40 354.909   1
  -1  -2   6212434.0 5452.48   1
  -1  -2   710640.30 353.364   1
  -1  -2   8 1314.48 108.011   1
  -1  -2   9 6147.66 245.808   1
  -1  -2  10 1315.26 110.327   1
  -1  -2  11 2252.77 254.451   1
  -1  -2  1222049.30 897.096   1
  -1  -2  1327735.50 1109.70   1
  -1  -1   1198536.0 5354.31   1
  -1  -1   2106675.0 2468.59   1
  -1  -1   3141661.0 3218.09   1
  -1  -1   456341.80 1320.80   1
  -1  -1   512714.40 337.611   1
  -1  -1   681294.00 1973.33   1
  -1  -1   765673.50 1601.20   1
  -1  -1   8 4585.61 190.946   1
  -1  -1   9 4283.05 192.277   1
  -1  -1  10 9184.74 332.689   1
  -1  -1  11 251.385 84.4684   1
  -1  -1  12 2265.45 246.376   1
  -1  -1  1312281.90 652.764   1
  -1   0   1571395.013264.00   1
  -1   0   2 7989.22 310.567   1
  -1   0   3 1658.80 73.6844   1
  -1   0   4451286.010437.10   1
  -1   0   536674.50 871.078   1
  -1   0   6 1189.80 81.4477   1
  -1   0   7 1585.44 102.683   1
  -1   0   8 3062.63  147.77   1
  -1   0   9 50.9811 41.2906   1
  -1   0  1011768.30 394.473   1
  -1   0  1149333.50 1288.88   1
  -1   0  1210516.70 485.562   1
  -1   0  13 1723.16 280.681   1
  -1   1   0540642.012596.00   1
  -1   1   1473424.010933.10   1
  -1   1   2142719.0 3298.76   1
  -1   1   3120675.0 2895.32   1
  -1   1   432482.10 894.856   1
  -1   1   511072.20 300.472   1
  -1   1   6 649.274 78.7335   1
  -1   1   726435.70 672.044   1
  -1   1   836043.30 1103.53   1
  -1   1   915417.80 464.678   1
  -1   1  10 9653.61 343.226   1
  -1   1  11 666.234 83.9855   1
  -1   1  12 8227.69 512.548   1
  -1   1  13 794.398 200.159   1
  -1   2   0 6060.91 161.623   1
  -1   2   180372.00 1827.31   1
  -1   2   2285088.0 6726.99   1
  -1   2   363658.00 1466.68   1
  -1   2   4 1391.54 61.5666   1
  -1   2   5 1874.75 102.437   1
  -1   2   6  66.661 33.1545   1
  -1   2   7 164.393 42.8584   1
  -1   2   810456.50 365.652   1
  -1   2   923198.80 663.911   1
  -1   2  1018143.60 547.368   1
  -1   2  11 484.677 77.6708   1
  -1   2  12 4034.80  224.96   1
  -1   2  1314682.60 737.101   1
  -1   3   0225547.0 5148.40   1
  -1   3   1 8909.20 235.131   1
  -1   3   213925.70 347.964   1
  -1   3   336982.90 911.437   1
  -1   3   4 216.991 31.1745   1
  -1   3   526825.30 807.573   1
  -1   3   6122341.0 2894.25   1
  -1   3   7 8354.66 335.679   1
  -1   3   8 0.61221 41.3041   1
  -1   3   942108.90 1123.80   1
  -1   3  10 789.375 101.422   1
  -1   3  11 907.157 97.6579   1
  -1   3  12-8.92572  166.53   1
  -1   3  13 9493.72 436.202   1
  -1   4   043555.50 1146.49   1
  -1   4   164871.40 1505.68   1
  -1   4   221991.70 551.639   1
  -1   4   329518.10 702.361   1
  -1   4   4 9043.52 251.837   1
  -1   4   5 1746.61 96.6209   1
  -1   4   6 234.316   43.12   1
  -1   4   721027.40  613.32   1
  -1   4   8 3652.51 207.891   1
  -1   4   9  196.25 71.6753   1
  -1   4  10 1098.69 122.682   1
  -1   4  1123444.50 1016.09   1
  -1   4  12 4677.87 431.984   1
  -1   4  13 28.0951 97.2381   1
  -1   5   051477.10 1221.97   1
  -1   5   183822.20 1933.84   1
  -1   5   2 7.62704 35.1953   1
  -1   5   310076.00 297.443   1
  -1   5   4242356.0 5575.79   1
  -1   5   558067.60 1375.32   1
  -1   5   6 1689.07  165.74   1
  -1   5   7 3616.26 200.164   1
  -1   5   8 3723.01 253.016   1
  -1   5   9 3871.89 223.376   1
  -1   5  1021976.30 1031.02   1
  -1   5  1162903.80 1821.12   1
  -1   5  12 6867.03  410.00   1
  -1   5  13 4610.29 298.309   1
  -1   6   012935.90 371.833   1
  -1   6   184469.40 2170.22   1
  -1   6   2 2607.90 121.258   1
  -1   6   3 953.996 78.6449   1
  -1   6   477011.50 2068.86   1
  -1   6   512982.70 385.563   1
  -1   6   6 4395.66 199.811   1
  -1   6   7 3170.66 189.865   1
  -1   6   834614.50 967.857   1
  -1   6   9 20.5842 64.0405   1
  -1   6  10 483.422 120.653   1
  -1   6  11 8019.21 683.884   1
  -1   6  12 4754.21 489.337   1
  -1   7   0 891.175 74.0826   1
  -1   7   1 4817.29 200.215   1
  -1   7   271701.80 1695.70   1
  -1   7   3 1144.16  84.799   1
  -1   7   4 91.2156 37.9987   1
  -1   7   517855.50 507.152   1
  -1   7   614653.20 462.504   1
  -1   7   7-49.6513 103.242   1
  -1   7   8 4987.71 290.481   1
  -1   7   951214.30 1477.96   1
  -1   7  10 6914.17 348.259   1
  -1   7  11 265.562 103.301   1
  -1   7  12 9.62095 74.8146   1
  -1   8   0 871.243 78.0042   1
  -1   8   1 55.7029  37.144   1
  -1   8   222630.80 610.485   1
  -1   8   3 4204.90 182.823   1
  -1   8   4 9846.70 328.108   1
  -1   8   519716.00 564.233   1
  -1   8   640066.20 1107.63   1
  -1   8   7 2922.14 273.241   1
  -1   8   8 4927.45 299.759   1
  -1   8   9 418.868 139.749   1
  -1   8  10 413.233 111.271   1
  -1   8  11 739.723 148.517   1
  -1   9   0 2838.36 158.858   1
  -1   9   111459.30  395.32   1
  -1   9   2 998.711 105.292   1
  -1   9   3 9567.73 328.835   1
  -1   9   4 259.101 79.8814   1
  -1   9   5 1367.86 109.399   1
  -1   9   613434.60 469.584   1
  -1   9   7 4559.91 275.356   1
  -1   9   813250.90  566.90   1
  -1   9   9 5.56062 114.021   1
  -1   9  10 34.2677 112.275   1
  -1   9  11 9058.80 530.933   1
  -1  10   0 338.722 101.351   1
  -1  10   113600.10 435.135   1
  -1  10   2 7579.77 340.723   1
  -1  10   3 4066.17 200.566   1
  -1  10   438246.90 1078.28   1
  -1  10   522206.40 658.753   1
  -1  10   6 1360.11 145.835   1
  -1  10   713888.30 520.289   1
  -1  10   8 1109.91 157.452   1
  -1  10   9 413.971 164.776   1
  -1  10  10 528.914 142.109   1
  -1  11   0 1263.80 373.739   1
  -1  11   1 5403.17 317.661   1
  -1  11   216336.20 553.666   1
  -1  11   3 6816.57 311.345   1
  -1  11   4 8.30259 71.7016   1
  -1  11   5 435.382 101.071   1
  -1  11   6 563.208 100.874   1
  -1  11   7-14.1359 131.682   1
  -1  11   8 6891.18 421.568   1
  -1  11   919357.30 827.862   1
  -1  12   0 73.3999 136.521   1
  -1  12   1 9366.31 747.259   1
  -1  12   236390.90 1623.12   1
  -1  12   332536.10 1042.28   1
  -1  12   4 4002.16 307.747   1
  -1  12   5 510.476  118.99   1
  -1  12   6 3201.13 272.321   1
  -1  12   7 925.213 162.298   1
  -1  13   0 1461.76 366.163   1
  -1  13   1 1156.03 300.825   1
  -1  13   228755.10 1523.71   1
  -1  13   3 106.674 149.377   1
  -1  13   4 66.9617 102.289   1
  -1  13   5 501.597 131.421   1
   0 -13   2 156.348 92.8199   1
   0 -13   319723.00 780.354   1
   0 -12   1 2954.46 258.429   1
   0 -12   222982.10 883.396   1
   0 -12   3 3328.21 408.792   1
   0 -12   4 1218.94 170.276   1
   0 -12   510709.90 602.543   1
   0 -11   122980.00 819.859   1
   0 -11   2 1840.63 307.252   1
   0 -11   316950.90 624.649   1
   0 -11   4 763.159 141.292   1
   0 -11   5 1747.49 189.674   1
   0 -11   6 8880.43 537.411   1
   0 -11   7 172.329 128.983   1
   0 -10   1 5798.92 357.082   1
   0 -10   2-12.7225 109.492   1
   0 -10   3 8129.80 339.812   1
   0 -10   4 9297.33 377.552   1
   0 -10   5 4954.04 313.296   1
   0 -10   6 2770.01 351.334   1
   0 -10   7 8.65086 92.3372   1
   0 -10   8 352.543 119.326   1
   0  -9   1 2647.15  170.22   1
   0  -9   2 7633.23 298.436   1
   0  -9   3 79.5102 40.6703   1
   0  -9   423892.50  707.93   1
   0  -9   5 132.984 84.1249   1
   0  -9   612132.40 559.238   1
   0  -9   7 733.429 128.357   1
   0  -9   8 9402.20 463.055   1
   0  -9   9 769.486 190.991   1
   0  -8   110166.00 340.534   1
   0  -8   2 6000.98 241.847   1
   0  -8   310663.30  363.55   1
   0  -8   4 4770.62 218.859   1
   0  -8   553062.70 1356.42   1
   0  -8   6 6427.17 315.371   1
   0  -8   712387.70 587.892   1
   0  -8   8 6231.02 366.404   1
   0  -8   932215.70 1058.38   1
   0  -8  10 133.447 142.096   1
   0  -7   110604.30 349.207   1
   0  -7   2322896.0 7576.89   1
   0  -7   3 748.902 80.0803   1
   0  -7   411461.60 401.402   1
   0  -7   522144.80 629.855   1
   0  -7   631694.90 976.654   1
   0  -7   723903.70 717.815   1
   0  -7   817129.30 754.861   1
   0  -7   950493.60 1397.69   1
   0  -7  10 5504.56 319.261   1
   0  -7  11 6110.95 348.225   1
   0  -6   154056.80 1299.40   1
   0  -6   2 6198.53 266.377   1
   0  -6   3182576.0 4297.42   1
   0  -6   417739.90 501.961   1
   0  -6   5 1611.69 110.123   1
   0  -6   6 2064.23 144.335   1
   0  -6   711945.50 414.197   1
   0  -6   826204.30 773.548   1
   0  -6   9 723.463 99.6252   1
   0  -6  1021070.30  707.72   1
   0  -6  11 1595.38  191.84   1
   0  -5   123732.60  720.11   1
   0  -5   217423.00 484.467   1
   0  -5   390269.10 2109.74   1
   0  -5   416770.70 466.987   1
   0  -5   516299.90 467.293   1
   0  -5   633178.00 1050.43   1
   0  -5   727567.00 876.221   1
   0  -5   8 670.927 92.9874   1
   0  -5   9 631.915 97.3842   1
   0  -5  1021827.30 752.619   1
   0  -5  1115054.50 613.334   1
   0  -5  1218347.70 739.428   1
   0  -4   186439.20 2016.56   1
   0  -4   2 4662.79 288.277   1
   0  -4   3 175.472 36.1486   1
   0  -4   4 506.108 97.1654   1
   0  -4   5 1623.11 97.8187   1
   0  -4   6 6895.82 295.804   1
   0  -4   7 3813.86 203.474   1
   0  -4   810397.40 397.904   1
   0  -4   9 719.039 100.635   1
   0  -4  10  194.82 82.6533   1
   0  -4  11 5335.47 426.396   1
   0  -4  12 1730.10 249.996   1
   0  -3   151177.20 1226.93   1
   0  -3   2 616.047 54.1929   1
   0  -3   3118743.0 2757.64   1
   0  -3   4 662.579 98.9368   1
   0  -3   531006.20 857.729   1
   0  -3   628349.40  735.29   1
   0  -3   7 8386.15 292.657   1
   0  -3   8 6359.06 249.087   1
   0  -3   932784.00 942.766   1
   0  -3  10 4124.25  298.05   1
   0  -3  11 451.747 177.203   1
   0  -3  12 4463.49 299.925   1
   0  -3  13 143.327 97.2135   1
   0  -2   1 3453.70 119.443   1
   0  -2   2992081.019348.70   1
   0  -2   3 1772.63 80.9868   1
   0  -2   463245.80 1465.28   1
   0  -2   549740.70 1245.13   1
   0  -2   623154.20 771.545   1
   0  -2   7 4093.18 205.313   1
   0  -2   8 1801.75 107.257   1
   0  -2   928465.40 777.725   1
   0  -2  10 740.227 124.095   1
   0  -2  1122325.90 754.374   1
   0  -2  12 2568.06 246.367   1
   0  -2  1313064.70  587.72   1
   0  -1   1261293.0 6204.63   1
   0  -1   2 359.196 34.2741   1
   0  -1   3476622.011119.50   1
   0  -1   474583.90 1736.95   1
   0  -1   5 9743.08 293.074   1
   0  -1   648963.40 1164.24   1
   0  -1   776921.90 1806.08   1
   0  -1   814253.90 411.692   1
   0  -1   9 1937.24 118.468   1
   0  -1  1012562.60 472.292   1
   0  -1  11 6325.43  441.97   1
   0  -1  12 2450.50 207.346   1
   0  -1  1316683.20 679.119   1
   0   0   121499.20 531.244   1
   0   0   251536.90 1352.51   1
   0   0   3294991.0 7037.54   1
   0   0   479234.10 1896.49   1
   0   0   5 9230.27  272.55   1
   0   0   646700.10 1121.88   1
   0   0   7272351.0 6315.35   1
   0   0   8 500.024 76.6934   1
   0   0   916663.50 480.588   1
   0   0  1021742.20 641.497   1
   0   0  1148492.30 1578.25   1
   0   0  1215264.90 731.584   1
   0   0  1311635.70 534.115   1
   0   0  1412776.00 939.854   1
   0   1   010686.20 266.638   1
   0   1   2121820.0 2776.10   1
   0   1   3 38.3208 20.7736   1
   0   1   4249339.0 5734.65   1
   0   1   513165.00 343.694   1
   0   1   627941.70 681.091   1
   0   1   7 9898.85 321.784   1
   0   1   860783.70 1472.38   1
   0   1   912187.60 377.112   1
   0   1  10 5128.71 218.364   1
   0   1  11 5712.96 267.923   1
   0   1  1221253.90 748.586   1
   0   1  13 7079.27 395.674   1
   0   1  14 1758.03 229.402   1
   0   2   0139690.0 3377.97   1
   0   2   1208511.0 5640.01   1
   0   2   2 259.634 20.7544   1
   0   2   325787.70 604.578   1
   0   2   447816.30 1110.82   1
   0   2   5225630.0 5195.42   1
   0   2   622011.90 622.774   1
   0   2   7 1809.78 105.945   1
   0   2   844560.40 1109.86   1
   0   2   930611.50 909.245   1
   0   2  1012761.30 458.554   1
   0   2  1120576.80 612.146   1
   0   2  12 194.318 59.9372   1
   0   2  13 167.035 78.6322   1
   0   2  14 291.227 101.723   1
   0   3   0 3031.86 129.215   1
   0   3   1 9495.75 263.907   1
   0   3   2269443.0 6433.46   1
   0   3   315215.30 486.988   1
   0   3   469611.60 1605.78   1
   0   3   551012.90 1194.43   1
   0   3   623907.80 644.717   1
   0   3   7 5115.19  194.88   1
   0   3   8 5173.13 219.736   1
   0   3   9 53.6285  69.435   1
   0   3  10  449.02 81.0859   1
   0   3  11 1178.78 128.911   1
   0   3  12 3997.55 223.393   1
   0   3  13 2860.47  318.01   1
   0   3  14 2305.69 236.333   1
   0   4   0 3473.65 122.832   1
   0   4   1211746.0 4852.19   1
   0   4   253056.30 1247.58   1
   0   4   336401.70 871.163   1
   0   4   439668.30 961.434   1
   0   4   5 1079.30 66.5856   1
   0   4   6 316.815 42.2127   1
   0   4   724658.90 631.463   1
   0   4   826661.80 733.687   1
   0   4   9 736.644 133.495   1
   0   4  10 2049.24 143.184   1
   0   4  11 4285.06 302.878   1
   0   4  12 2577.52 190.901   1
   0   4  13 250.676 72.2737   1
   0   5   0479209.011098.20   1
   0   5   1 4701.10 153.046   1
   0   5   228047.00 700.503   1
   0   5   324207.90 620.191   1
   0   5   4 203.175 68.5487   1
   0   5   536876.30 1002.53   1
   0   5   6 60.2884 31.9782   1
   0   5   769342.20 1903.89   1
   0   5   8 3061.96 162.568   1
   0   5   916628.60 561.426   1
   0   5  10 8861.22 343.036   1
   0   5  1120434.60 648.208   1
   0   5  12 6625.61 340.584   1
   0   5  13-1.62745 200.022   1
   0   6   015141.70 421.659   1
   0   6   143397.10 1026.00   1
   0   6   222851.10 598.362   1
   0   6   3 2356.98 124.299   1
   0   6   4145237.0 3927.59   1
   0   6   540996.30 1107.74   1
   0   6   634100.80  884.79   1
   0   6   716802.30 483.105   1
   0   6   812775.00 401.984   1
   0   6   910735.40 408.663   1
   0   6  10 57.8257 99.6627   1
   0   6  1132225.00 1262.17   1
   0   6  1240083.00 1278.48   1
   0   6  13 5069.17 395.157   1
   0   7   0 3459.95 153.481   1
   0   7   1 275.411 45.8227   1
   0   7   2 140.003 55.1137   1
   0   7   3 790.877 75.8188   1
   0   7   4 399.396 54.3396   1
   0   7   5260056.0 6223.96   1
   0   7   6 709.638 84.4247   1
   0   7   7 2011.35 137.664   1
   0   7   811546.30 406.534   1
   0   7   936456.70 1098.65   1
   0   7  10 1244.85 160.403   1
   0   7  11 5980.81 372.014   1
   0   7  1222340.70 882.229   1
   0   7  13 374.471 139.564   1
   0   8   010482.80 337.081   1
   0   8   1 1326.68  114.72   1
   0   8   2105905.0 3004.49   1
   0   8   3 6553.82 252.452   1
   0   8   414462.70 446.624   1
   0   8   5 7380.12 337.871   1
   0   8   621821.30 731.486   1
   0   8   7 4440.64 222.848   1
   0   8   8 3855.56 258.289   1
   0   8   919551.50 718.712   1
   0   8  10 8377.00 444.472   1
   0   8  11 5231.41 540.544   1
   0   8  12 3967.36 331.515   1
   0   9   0 416.453 72.3466   1
   0   9   1 2400.64 141.584   1
   0   9   2 206.022 55.7581   1
   0   9   338535.40 1256.22   1
   0   9   4 5631.73 245.788   1
   0   9   5 9389.40 387.127   1
   0   9   6 7112.26 400.828   1
   0   9   7 9134.61 366.839   1
   0   9   8 1267.16 132.775   1
   0   9   9 3612.20 377.504   1
   0   9  10 2270.60  331.54   1
   0   9  11 1262.57 198.943   1
   0  10   011059.50  653.70   1
   0  10   1 7.52182 51.0423   1
   0  10   214387.20 584.888   1
   0  10   3 1329.51 202.358   1
   0  10   4 25.5745 63.8277   1
   0  10   5 6757.35 337.616   1
   0  10   6 565.705 99.4277   1
   0  10   7 1090.66 144.245   1
   0  10   8 3058.24 213.962   1
   0  10   9 4743.04 338.279   1
   0  10  10 2363.84 407.792   1
   0  10  11 3510.54 320.079   1
   0  11   0 7261.02 659.743   1
   0  11   1 3848.58  307.07   1
   0  11   2 5460.42 308.588   1
   0  11   3 1022.96 138.647   1
   0  11   410273.10 754.073   1
   0  11   5 7076.23 421.861   1
   0  11   622848.30 741.577   1
   0  11   7 7161.78 353.583   1
   0  11   8 1535.53 171.138   1
   0  11   9 3055.98 289.058   1
   0  12   0 4368.61 1126.25   1
   0  12   1 2023.52 749.144   1
   0  12   2 1329.29 416.405   1
   0  12   315862.10 730.085   1
   0  12   4 7440.10 797.456   1
   0  12   523897.90  790.36   1
   0  12   6 1415.47 184.962   1
   0  12   7 1521.58 172.925   1
   0  12   8 580.607 117.823   1
   0  13   0 4201.74 390.454   1
   0  13   1 1071.65 215.947   1
   0  13   260975.70 2003.42   1
   0  13   314297.80 633.606   1
   0  13   413993.50 568.341   1
   0  13   5 7089.55 377.613   1
   0  13   6 2028.65 272.784   1
   1 -13   1 7626.84 769.949   1
   1 -13   2 190.155 101.516   1
   1 -12   1 6215.08 1124.78   1
   1 -12   2 4946.43 358.299   1
   1 -12   3 8691.43 494.242   1
   1 -12   437049.10 1295.93   1
   1 -12   5 5707.00 516.608   1
   1 -11   1 1589.29 262.419   1
   1 -11   2 1792.42 204.361   1
   1 -11   3 5972.40 370.995   1
   1 -11   4 3853.92 306.431   1
   1 -11   5 4969.05 379.942   1
   1 -11   6 266.612 118.345   1
   1 -10   114176.80 522.048   1
   1 -10   235269.50 1485.45   1
   1 -10   3 9821.03 395.723   1
   1 -10   4-50.7378 142.665   1
   1 -10   519862.60 679.031   1
   1 -10   6 2563.45  243.22   1
   1 -10   7 158.565 73.1351   1
   1 -10   817406.40 713.486   1
   1  -9   1 3297.40 196.671   1
   1  -9   2 210.063 65.9308   1
   1  -9   3 2095.04 135.809   1
   1  -9   413105.20 455.181   1
   1  -9   5 2676.83 167.614   1
   1  -9   6 8271.61 395.944   1
   1  -9   7 9.07876 86.9784   1
   1  -9   8 2122.83 193.312   1
   1  -9   9 675.026 127.248   1
   1  -8   127066.30 852.368   1
   1  -8   214209.30 533.459   1
   1  -8   322680.80  735.34   1
   1  -8   4 2615.49 147.043   1
   1  -8   579469.20 1977.32   1
   1  -8   6 5875.48 272.235   1
   1  -8   7 6414.65 304.405   1
   1  -8   8-7.42413 139.256   1
   1  -8   9 3758.91 246.184   1
   1  -8  10 4308.81 283.887   1
   1  -7   144819.00 1274.66   1
   1  -7   2104899.0 2669.66   1
   1  -7   3 2998.70 145.479   1
   1  -7   4  971.94 124.303   1
   1  -7   5 4017.62 207.273   1
   1  -7   636098.80 975.697   1
   1  -7   7 162.569 53.7849   1
   1  -7   8 6622.61 309.191   1
   1  -7   940281.60 1155.80   1
   1  -7  10 163.749 87.2749   1
   1  -7  11   52.27 77.3273   1
   1  -6   111859.00 349.807   1
   1  -6   2 2937.79 144.992   1
   1  -6   3254937.0 5967.83   1
   1  -6   4 92.6148 59.4395   1
   1  -6   5 647.625 123.961   1
   1  -6   6 196.972 58.1349   1
   1  -6   7 209.822 83.1422   1
   1  -6   810799.70 551.601   1
   1  -6   911373.20 437.927   1
   1  -6  1093340.00 2410.88   1
   1  -6  11 159.616 82.0037   1
   1  -5   118984.30 505.653   1
   1  -5   2197567.0 4500.95   1
   1  -5   362110.10 1486.90   1
   1  -5   414584.60 427.044   1
   1  -5   5 5601.11 221.693   1
   1  -5   6 5232.05 222.483   1
   1  -5   733563.90 901.086   1
   1  -5   811739.20 412.803   1
   1  -5   941476.60 1373.30   1
   1  -5  10 155.931 68.5653   1
   1  -5  1126100.90 838.644   1
   1  -5  12 159.659 72.8727   1
   1  -4   138602.30 902.205   1
   1  -4   2 1520.53 96.8687   1
   1  -4   3 5019.16 186.412   1
   1  -4   4 1429.08  114.18   1
   1  -4   529362.80 759.267   1
   1  -4   610011.40 332.416   1
   1  -4   712950.90 414.263   1
   1  -4   826552.10 776.879   1
   1  -4   9 240.919 68.0328   1
   1  -4  10 178.966 72.9329   1
   1  -4  11 4704.84 267.816   1
   1  -4  12 35.4142 81.6325   1
   1  -4  13 5328.22 358.447   1
   1  -3   1300292.0 6867.51   1
   1  -3   298593.10 2245.31   1
   1  -3   359697.90 1388.50   1
   1  -3   432708.50  805.62   1
   1  -3   559994.90 1431.84   1
   1  -3   623526.20 782.946   1
   1  -3   716047.70 511.483   1
   1  -3   8  445.54 73.3309   1
   1  -3   9 94.6796 60.2496   1
   1  -3  1020698.50 866.884   1
   1  -3  11 405.543 95.2534   1
   1  -3  12 2022.48 255.504   1
   1  -3  1312762.90 832.036   1
   1  -2   1171977.0 3917.20   1
   1  -2   2193077.0 4433.58   1
   1  -2   334677.70 830.947   1
   1  -2   420769.60 524.367   1
   1  -2   5 1331.77 60.0217   1
   1  -2   7 162.844 47.8433   1
   1  -2   812170.20 463.026   1
   1  -2   925837.00 784.874   1
   1  -2  10 1583.78 195.627   1
   1  -2  11 7724.54 367.948   1
   1  -2  12 1963.45 250.345   1
   1  -2  13 1936.51  197.87   1
   1  -1   157495.60 1309.10   1
   1  -1   221686.70 520.017   1
   1  -1   3723996.016349.30   1
   1  -1   4 8252.58 214.242   1
   1  -1   534030.50 792.327   1
   1  -1   6 1637.68 76.4646   1
   1  -1   714773.90 400.948   1
   1  -1   815325.40 487.837   1
   1  -1   9-9.99312 124.084   1
   1  -1  10104980.0 2717.49   1
   1  -1  11 4795.47 273.861   1
   1  -1  1218133.10 988.416   1
   1  -1  13 2506.31 224.878   1
   1  -1  1411964.60 576.248   1
   1   0   0835627.038985.90   1
   1   0   123223.30 565.521   1
   1   0   212082.60 297.286   1
   1   0   3107994.0 2451.40   1
   1   0   4 5342.88 168.531   1
   1   0   5 762.326 42.3336   1
   1   0   634866.40 874.623   1
   1   0   7273803.0 6432.04   1
   1   0   8 490.179 87.7502   1
   1   0   9 46.1258 49.8909   1
   1   0  10 9088.53 553.498   1
   1   0  1123951.00  767.76   1
   1   0  12 238.356 81.0292   1
   1   0  13 55.8458  81.146   1
   1   0  1436493.50 1427.65   1
   1   1   0342118.0 8332.74   1
   1   1   272761.70 1661.02   1
   1   1   394023.80 2143.36   1
   1   1   451830.90 1193.60   1
   1   1   522742.50 610.273   1
   1   1   641707.80 1028.44   1
   1   1   713167.10 364.279   1
   1   1   8248265.0 5784.36   1
   1   1   9 787.069 72.1443   1
   1   1  10 3967.65 227.456   1
   1   1  11 3171.38 265.303   1
   1   1  12 5275.53  396.40   1
   1   1  1311343.80  657.53   1
   1   1  14 9431.45 489.435   1
   1   2   0372750.010575.20   1
   1   2   1747255.017731.60   1
   1   2   2 4963.06  148.87   1
   1   2   3 1147.65 56.6543   1
   1   2   446225.30 1087.37   1
   1   2   5292068.0 6768.12   1
   1   2   6 619.904 50.1592   1
   1   2   783008.10 1920.20   1
   1   2   8 228.558 58.9575   1
   1   2   9 5246.02 215.974   1
   1   2  10 735.239 77.6523   1
   1   2  11 5502.23  542.17   1
   1   2  1229439.80 1133.23   1
   1   2  13 731.256 150.584   1
   1   2  14 6679.83 526.181   1
   1   3   0 2551.46 107.978   1
   1   3   113417.60 361.467   1
   1   3   250755.20 1294.93   1
   1   3   343154.50 1123.51   1
   1   3   4100939.0 2299.80   1
   1   3   526768.90 640.337   1
   1   3   619384.10 534.021   1
   1   3   7 1471.63 76.6612   1
   1   3   8 141.764 32.5423   1
   1   3   9 460.071 74.6968   1
   1   3  10 3412.87 179.916   1
   1   3  11 9543.46 413.876   1
   1   3  12 4779.00  292.17   1
   1   3  13 4586.42 307.167   1
   1   3  14 35.1195 95.7224   1
   1   4   0177680.0 4065.32   1
   1   4   1 2902.85 104.863   1
   1   4   235722.80 1050.96   1
   1   4   347441.60 1593.07   1
   1   4   4 584.126 51.6924   1
   1   4   530817.00 737.831   1
   1   4   6 7307.35 223.779   1
   1   4   725320.70 717.485   1
   1   4   818809.30 489.833   1
   1   4   9 122.666 49.7481   1
   1   4  1017707.80 618.117   1
   1   4  1112767.60 446.913   1
   1   4  12 516.797 103.071   1
   1   4  13 2866.52 345.903   1
   1   4  14 1220.77 172.397   1
   1   5   065820.90 1523.42   1
   1   5   1   98.81 20.2757   1
   1   5   238282.30 910.413   1
   1   5   333149.70 864.814   1
   1   5   438501.80 910.515   1
   1   5   5   87.01 31.0009   1
   1   5   621175.90 640.835   1
   1   5   779138.30 1846.79   1
   1   5   8 9.46769 38.9007   1
   1   5   9 7117.03 291.632   1
   1   5  10 5348.62 243.763   1
   1   5  11 1038.86  113.78   1
   1   5  12  64.574 55.7898   1
   1   5  13 1354.95 194.424   1
   1   6   0 4720.62  212.13   1
   1   6   1100165.0 2291.21   1
   1   6   229077.90 730.387   1
   1   6   371546.50 1657.50   1
   1   6   432030.90 905.645   1
   1   6   532960.10 828.002   1
   1   6   6 6994.95 289.619   1
   1   6   7 1822.60 231.902   1
   1   6   894426.70 2625.34   1
   1   6   9 224.421 91.2038   1
   1   6  1014083.50 507.215   1
   1   6  11 55.8028 65.1005   1
   1   6  12 2187.86 190.266   1
   1   6  13 3836.00  297.43   1
   1   7   022242.80 662.308   1
   1   7   170815.80 1695.27   1
   1   7   2 3653.61 164.891   1
   1   7   3 8095.18 286.575   1
   1   7   433034.80 895.332   1
   1   7   5216186.0 5182.44   1
   1   7   621284.20 951.195   1
   1   7   7 1391.38 139.429   1
   1   7   8 4101.79  230.01   1
   1   7   9 322.222 73.1288   1
   1   7  10  347.70  95.777   1
   1   7  11 177.027 183.639   1
   1   7  1279366.80 3048.63   1
   1   7  13 5374.73 389.968   1
   1   8   0 9185.67 366.414   1
   1   8   131323.30 887.311   1
   1   8   216192.70 717.969   1
   1   8   3 2892.62  266.26   1
   1   8   425593.50 855.666   1
   1   8   516376.40 985.466   1
   1   8   6106290.0 2626.97   1
   1   8   7 2994.97  228.60   1
   1   8   8 4968.69 352.061   1
   1   8   9 2173.91 162.699   1
   1   8  10 1885.01 265.805   1
   1   8  11 7311.83 422.687   1
   1   8  12 3009.89 282.837   1
   1   9   0 414.015 94.8495   1
   1   9   111946.70 463.776   1
   1   9   2 460.871 86.7217   1
   1   9   343675.80 1268.07   1
   1   9   4 8649.10 571.208   1
   1   9   520683.70 781.907   1
   1   9   6 4522.77 259.965   1
   1   9   7 510.372 100.856   1
   1   9   8 343.703 91.2159   1
   1   9   9 1103.72 143.842   1
   1   9  1039132.00 1263.71   1
   1   9  11 112.269 82.4074   1
   1   9  12 8085.71 498.872   1
   1  10   0 659.769 129.829   1
   1  10   1 143.616 143.475   1
   1  10   2 6114.67 371.065   1
   1  10   326645.30 931.231   1
   1  10   4 890.367 166.435   1
   1  10   5 137.989 97.0825   1
   1  10   6-10.0663 114.924   1
   1  10   7 5549.91 318.471   1
   1  10   8  89.452  82.414   1
   1  10   9 6125.02 384.162   1
   1  10  10 1105.77 271.424   1
   1  10  11 53.5668  84.153   1
   1  11   0 1727.40 192.363   1
   1  11   1 225.449 88.2946   1
   1  11   2 464.393 340.293   1
   1  11   3 300.467 80.5787   1
   1  11   410857.40 477.935   1
   1  11   513685.60 559.016   1
   1  11   6 3968.84 278.734   1
   1  11   7 812.055 133.061   1
   1  11   8 3024.22 229.773   1
   1  11   9 2657.06  219.63   1
   1  11  10 1279.88 208.255   1
   1  12   026893.90 1195.15   1
   1  12   1 7827.17  495.31   1
   1  12   227273.10 1617.92   1
   1  12   3 4084.51 347.586   1
   1  12   4 2337.26 217.711   1
   1  12   530011.20 1733.60   1
   1  12   6 3941.81 296.315   1
   1  12   710209.40 517.646   1
   1  12   8 1012.83 194.665   1
   1  13   0 1179.38 200.021   1
   1  13   121303.90 964.856   1
   1  13   2 9198.21 580.709   1
   1  13   3 2361.89 293.969   1
   1  13   4 3078.86 333.404   1
   1  13   5  92.172 100.632   1
   1  13   613210.80 924.093   1
   2 -12   1 1601.45  239.68   1
   2 -12   2 8826.35 503.881   1
   2 -12   3 850.475 146.206   1
   2 -11   1 183.565 83.4818   1
   2 -11   2 765.251 129.559   1
   2 -11   3 295.784 84.9462   1
   2 -11   4 4421.49 320.168   1
   2 -11   539377.40 1365.69   1
   2 -11   623726.20 1146.27   1
   2 -10   1 1707.06 350.818   1
   2 -10   2 485.157 101.529   1
   2 -10   315381.10 583.563   1
   2 -10   415749.10 605.732   1
   2 -10   5 1662.42 206.925   1
   2 -10   6 1910.56 230.694   1
   2 -10   7 5770.00 417.393   1
   2  -9   124586.20 945.883   1
   2  -9   2 9396.48 565.567   1
   2  -9   312640.70 545.549   1
   2  -9   434938.80 1257.93   1
   2  -9   5 5079.76 472.248   1
   2  -9   618141.30 1035.30   1
   2  -9   7 1578.52 206.791   1
   2  -9   8 924.499 174.737   1
   2  -8   132215.30 1089.81   1
   2  -8   241411.70 1159.03   1
   2  -8   3 895.015 185.813   1
   2  -8   4 6817.61 352.808   1
   2  -8   523496.70 931.859   1
   2  -8   6 159.227 63.6186   1
   2  -8   7 2933.07 219.805   1
   2  -8   8 3872.44 315.666   1
   2  -8   9 6899.48 456.353   1
   2  -7   1 7430.81 457.366   1
   2  -7   231426.20 971.315   1
   2  -7   3 1112.73  121.17   1
   2  -7   4 7274.98 398.672   1
   2  -7   5 2133.48 165.646   1
   2  -7   611500.90 388.977   1
   2  -7   7 279.983 85.3201   1
   2  -7   8 9645.64 430.477   1
   2  -7   917277.70 745.616   1
   2  -7  10 391.101 122.542   1
   2  -6   1 937.752 86.7916   1
   2  -6   214598.70 485.131   1
   2  -6   321168.70 628.743   1
   2  -6   4 1304.24 116.561   1
   2  -6   5 7685.23  461.66   1
   2  -6   647672.00 1200.18   1
   2  -6   7 1039.05 145.961   1
   2  -6   8 1431.19  130.24   1
   2  -6   9 9072.80 526.926   1
   2  -6  1051477.20 1632.70   1
   2  -6  11 89.2775 126.426   1
   2  -5   1 5071.58 218.316   1
   2  -5   215018.80 690.898   1
   2  -5   398272.70 2328.94   1
   2  -5   416346.60 454.654   1
   2  -5   5 253.968 56.3446   1
   2  -5   6 4897.74 240.968   1
   2  -5   712143.80 409.102   1
   2  -5   8-55.7187 140.135   1
   2  -5   929095.80 897.609   1
   2  -5  1015866.00 1177.37   1
   2  -5  1121369.60 878.803   1
   2  -5  12 3336.92 636.726   1
   2  -4   128153.80 790.388   1
   2  -4   2 4990.33 151.038   1
   2  -4   3116229.0 3291.24   1
   2  -4   4166462.0 3848.06   1
   2  -4   5 35.9421 29.4844   1
   2  -4   6 5045.10  183.72   1
   2  -4   7 1431.85 117.888   1
   2  -4   8 1157.50 105.529   1
   2  -4   9 5394.19 255.187   1
   2  -4  1045855.70 1306.45   1
   2  -4  1112513.10 604.767   1
   2  -4  12 381.514 162.837   1
   2  -3   1279449.0 6428.32   1
   2  -3   251736.10 1207.41   1
   2  -3   3 5257.76 216.322   1
   2  -3   4 1189.75 78.9391   1
   2  -3   5 348.831 40.4621   1
   2  -3   6 1377.96 84.6261   1
   2  -3   719716.40 537.384   1
   2  -3   853025.80 1335.84   1
   2  -3   913818.10  466.74   1
   2  -3  10 3707.41 235.776   1
   2  -3  11 2078.73 227.226   1
   2  -3  12 6493.53 428.578   1
   2  -3  13 9230.22 630.886   1
   2  -2   116989.10 506.328   1
   2  -2   2153094.0 3514.76   1
   2  -2   322082.20 559.829   1
   2  -2   427590.70 667.323   1
   2  -2   5 2849.88 128.703   1
   2  -2   611618.20 340.329   1
   2  -2   7 7326.97  233.25   1
   2  -2   8 189.752 39.9303   1
   2  -2   934278.70 1129.87   1
   2  -2  1010049.60 405.448   1
   2  -2  1112706.80 841.995   1
   2  -2  12  243.07 130.306   1
   2  -2  13 532.369 175.603   1
   2  -1   1 7392.89 225.436   1
   2  -1   220498.70 710.955   1
   2  -1   3 9311.80 246.818   1
   2  -1   4 4378.27 141.335   1
   2  -1   515491.90 675.848   1
   2  -1   691949.80 2164.81   1
   2  -1   748296.10 1154.07   1
   2  -1   8 2076.48 121.934   1
   2  -1   930881.20 945.673   1
   2  -1  1056605.40 1489.14   1
   2  -1  11 1326.15 156.279   1
   2  -1  12  858.19 182.146   1
   2  -1  13 99.7107 118.758   1
   2   0   013965.30 371.913   1
   2   0   1 2350.82 98.4118   1
   2   0   226644.30 712.587   1
   2   0   3161755.0 4715.96   1
   2   0   416135.70  450.18   1
   2   0   5 2150.48 88.8013   1
   2   0   692666.80 2167.45   1
   2   0   736928.70 896.862   1
   2   0   8 2603.83 152.918   1
   2   0   9 201.165 51.5597   1
   2   0  10 2760.47 185.845   1
   2   0  1127021.40 834.752   1
   2   0  12 492.293 513.195   1
   2   0  1317236.60 1332.16   1
   2   0  14 8056.84 841.446   1
   2   1   0 164.357  26.579   1
   2   1   120492.00 494.771   1
   2   1   2 8761.32 262.472   1
   2   1   3 2883.71 115.923   1
   2   1   4249193.0 5727.40   1
   2   1   5 442.232 47.2129   1
   2   1   6 1303.27 81.7238   1
   2   1   715805.50 460.117   1
   2   1   877549.90 2152.20   1
   2   1   9 5526.84 226.396   1
   2   1  10 3341.03  176.64   1
   2   1  11 4858.42 341.258   1
   2   1  12 372.345 128.943   1
   2   1  13 406.261 245.419   1
   2   1  14 422.485 149.837   1
   2   2   014606.00 482.939   1
   2   2   1621630.015264.60   1
   2   2   271964.00 1684.04   1
   2   2   3 253.541 32.4735   1
   2   2   445192.20 1175.64   1
   2   2   5 7479.74 226.788   1
   2   2   6  836.34 92.7716   1
   2   2   768049.60 1807.38   1
   2   2   8102859.0 2579.29   1
   2   2   920958.30 591.645   1
   2   2  10 9041.84 395.976   1
   2   2  1111801.30 530.665   1
   2   2  12 8154.85 441.941   1
   2   2  13-52.6755 475.655   1
   2   2  1427684.60 2230.74   1
   2   3   010904.70 303.583   1
   2   3   1113810.0 2645.36   1
   2   3   2270359.0 6538.22   1
   2   3   310093.20 281.533   1
   2   3   4 497.604 46.1849   1
   2   3   510595.80 311.164   1
   2   3   6 210.687 31.6532   1
   2   3   7 12.3505 28.7401   1
   2   3   828752.10 726.815   1
   2   3   936404.40 963.508   1
   2   3  10 1371.05 113.938   1
   2   3  11 177.246 68.0754   1
   2   3  12 2048.71  181.42   1
   2   3  13 8656.91 603.352   1
   2   3  14 767.984  211.37   1
   2   4   0 6764.18 213.998   1
   2   4   1 9471.70 266.263   1
   2   4   2 8559.04 693.453   1
   2   4   323556.50 655.718   1
   2   4   4 16.5429  28.818   1
   2   4   514970.20 414.363   1
   2   4   6177559.0 4089.48   1
   2   4   722018.80  722.77   1
   2   4   8 641.976 65.8903   1
   2   4   9 8005.10 293.787   1
   2   4  10 4849.42 223.886   1
   2   4  11 3064.46 343.737   1
   2   4  1215337.00 1431.36   1
   2   4  1310952.40 1331.30   1
   2   4  14 3461.65 408.405   1
   2   5   013300.80 366.469   1
   2   5   112447.30 402.875   1
   2   5   235720.50 895.062   1
   2   5   352576.70 1937.66   1
   2   5   429313.60  792.25   1
   2   5   5 8228.75 260.363   1
   2   5   6 3347.30  160.81   1
   2   5   727469.30 715.095   1
   2   5   811151.50  351.66   1
   2   5   9 3852.25 216.647   1
   2   5  10 2259.37 155.186   1
   2   5  11 327.974 92.3512   1
   2   5  12 2639.71 251.853   1
   2   5  13 1799.07  413.72   1
   2   6   0 6851.52 226.608   1
   2   6   1 6180.01 218.259   1
   2   6   2 1804.60 109.378   1
   2   6   351294.20 1246.65   1
   2   6   493611.90 2184.63   1
   2   6   539676.40 1159.16   1
   2   6   6 1709.63 141.712   1
   2   6   713660.80 531.115   1
   2   6   824842.30 746.518   1
   2   6   9 1914.92 133.543   1
   2   6  10 5679.30 286.164   1
   2   6  11 3112.15 218.169   1
   2   6  1213116.70 745.318   1
   2   6  13 262.244 195.468   1
   2   7   015856.90 443.254   1
   2   7   196732.20 2275.51   1
   2   7   224635.30 876.701   1
   2   7   3 269.771 52.4936   1
   2   7   461059.80 1888.27   1
   2   7   5 2303.09  137.46   1
   2   7   6 211.391 73.9747   1
   2   7   7 159.677 80.7669   1
   2   7   824655.50 1123.22   1
   2   7   910359.90  484.84   1
   2   7  10 710.762 120.836   1
   2   7  1133751.70 1508.81   1
   2   7  1211537.70 781.084   1
   2   7  13 92.6381 167.888   1
   2   8   0 3856.18 168.385   1
   2   8   1 5342.42  243.79   1
   2   8   238145.70 1271.56   1
   2   8   3 1852.26 232.603   1
   2   8   4 2550.31 151.504   1
   2   8   5 772.636 104.719   1
   2   8   635411.10 1669.32   1
   2   8   714778.20 613.968   1
   2   8   8 2533.09 250.476   1
   2   8   9 7784.46  374.97   1
   2   8  10 83.6499 107.739   1
   2   8  11 1648.51 244.762   1
   2   8  12-144.793 261.696   1
   2   9   056691.60 1459.87   1
   2   9   1 675.387 74.3621   1
   2   9   2 1089.74 118.547   1
   2   9   3 6216.97 355.113   1
   2   9   4 1210.12 159.617   1
   2   9   513853.30 545.358   1
   2   9   699347.30 2994.78   1
   2   9   714361.60 660.378   1
   2   9   8 1388.67 154.287   1
   2   9   910554.30 475.583   1
   2   9  10 2819.22 348.121   1
   2   9  11 1613.01 266.046   1
   2  10   0 7767.52 392.309   1
   2  10   1 1090.68 517.967   1
   2  10   2 11.4434 80.1431   1
   2  10   332629.90 1200.79   1
   2  10   4 44.2159  134.72   1
   2  10   5  134.07 65.2741   1
   2  10   6 5687.20 322.615   1
   2  10   712070.90 576.627   1
   2  10   8 111.318 68.2268   1
   2  10   9 716.429 160.717   1
   2  10  10 9118.66 427.174   1
   2  10  11 1757.03 365.095   1
   2  11   019195.50 734.171   1
   2  11   112281.60 608.541   1
   2  11   2 64.7235 267.161   1
   2  11   3 120.559 134.597   1
   2  11   457701.80 1779.01   1
   2  11   5 6039.33 437.782   1
   2  11   6  809.54 137.809   1
   2  11   7-9.88726 233.544   1
   2  11   8 30.2438 80.6302   1
   2  11   9-80.0969 168.277   1
   2  12   0 8876.81 814.115   1
   2  12   125549.10 1453.75   1
   2  12   2 3221.18 318.622   1
   2  12   3 2158.71  252.35   1
   2  12   4 152.508 322.421   1
   2  12   5 1833.70 301.459   1
   2  12   6 2681.47 390.138   1
   2  12   7 4103.35 557.778   1
   2  12   8 8190.40 470.374   1
   2  13   0 418.722 129.122   1
   2  13   119678.50 933.953   1
   2  13   2 5237.26 562.552   1
   2  13   311150.00 661.316   1
   2  13   4 1347.92 328.929   1
   2  13   5 748.263 336.191   1
   2  13   6 5974.25 737.225   1
   3 -11   1 5851.35 625.399   1
   3 -11   211856.10 1023.49   1
   3 -11   3-128.426 252.412   1
   3 -10   1 673.676 125.605   1
   3 -10   2 1120.38 162.754   1
   3 -10   3 5630.40 388.344   1
   3 -10   4 9742.27 566.587   1
   3 -10   5 7443.44 473.263   1
   3 -10   627331.50 1251.50   1
   3  -9   1 1886.28 205.606   1
   3  -9   2 3085.70 436.333   1
   3  -9   3 485.716 124.363   1
   3  -9   4 8219.68 526.502   1
   3  -9   528889.00 1051.48   1
   3  -9   6 5348.86 425.151   1
   3  -9   7 8565.28 981.881   1
   3  -8   1 3416.41 408.424   1
   3  -8   219811.60 731.163   1
   3  -8   318778.90 884.307   1
   3  -8   4 9029.56 519.611   1
   3  -8   5 3368.93 276.549   1
   3  -8   6 77.4893  117.82   1
   3  -8   714694.70 936.959   1
   3  -8   8 4004.79 416.424   1
   3  -7   111002.80 639.697   1
   3  -7   2 1364.34 166.437   1
   3  -7   317983.60 1083.74   1
   3  -7   4 852.234 131.407   1
   3  -7   5 2053.94 204.491   1
   3  -7   6 2040.58 210.766   1
   3  -7   7 529.466 165.221   1
   3  -7   8 6823.52 518.795   1
   3  -7   9 5926.81 508.116   1
   3  -6   1 5973.95 351.465   1
   3  -6   2 809.779 113.078   1
   3  -6   3 629.265 212.743   1
   3  -6   4 4310.55 274.365   1
   3  -6   5 7384.77  383.36   1
   3  -6   622512.40 801.874   1
   3  -6   7 816.611 177.357   1
   3  -6   8 2354.73 559.595   1
   3  -6   9 6846.52 523.526   1
   3  -6  10 6119.31 517.121   1
   3  -5   1 9189.54 331.756   1
   3  -5   2 1891.41 136.013   1
   3  -5   3 4344.56 215.224   1
   3  -5   4 1275.91 182.842   1
   3  -5   5 121.178 52.3716   1
   3  -5   6 8975.64 362.057   1
   3  -5   716432.70 874.811   1
   3  -5   8 7630.34 498.431   1
   3  -5   9 251.712 116.809   1
   3  -5  10 1342.01 432.442   1
   3  -5  11 2478.39 783.536   1
   3  -4   111023.70 339.592   1
   3  -4   2 6705.89 438.486   1
   3  -4   3 7076.58 281.238   1
   3  -4   479080.40 2518.33   1
   3  -4   5 3037.34 182.737   1
   3  -4   6 2122.91  154.37   1
   3  -4   7 3631.58  266.93   1
   3  -4   8 1260.73 126.152   1
   3  -4   9 4811.40 390.692   1
   3  -4  1017143.50 846.035   1
   3  -4  1144008.00 1661.49   1
   3  -4  12 380.979 635.955   1
   3  -3   119126.20 499.869   1
   3  -3   222957.50  643.00   1
   3  -3   333172.80 920.729   1
   3  -3   4135654.0 3312.33   1
   3  -3   512782.80 425.989   1
   3  -3   611149.90  366.74   1
   3  -3   712296.80 402.392   1
   3  -3   823396.90 813.332   1
   3  -3   925011.90 786.893   1
   3  -3  1011654.00 639.886   1
   3  -3  1114988.40  883.37   1
   3  -3  1219160.40 981.648   1
   3  -2   1 4008.17 181.466   1
   3  -2   234874.30 869.782   1
   3  -2   327583.60 743.055   1
   3  -2   4 2496.14 146.779   1
   3  -2   532210.60 862.263   1
   3  -2   616363.90 479.043   1
   3  -2   7  286.70 80.1797   1
   3  -2   8 1060.04 191.774   1
   3  -2   947472.00 1467.36   1
   3  -2  1021137.50 933.623   1
   3  -2  11 314.292  98.745   1
   3  -2  12 163.711 148.413   1
   3  -1   135885.30 1022.01   1
   3  -1   263569.30 1536.80   1
   3  -1   3 2093.69 127.126   1
   3  -1   4 230.916 61.8207   1
   3  -1   561933.30 1921.83   1
   3  -1   635257.30 897.037   1
   3  -1   732900.20 853.942   1
   3  -1   828536.40 1093.24   1
   3  -1   9 369.372 84.9516   1
   3  -1  10 7958.39 439.341   1
   3  -1  11 249.722 120.612   1
   3  -1  12 5144.21 361.874   1
   3  -1  13 4963.34 486.406   1
   3   0   0 3230.40  509.64   1
   3   0   125446.40  740.59   1
   3   0   2 5840.17 216.117   1
   3   0   321077.10 723.581   1
   3   0   4 16.3895 41.2921   1
   3   0   5 885.614 84.4681   1
   3   0   611679.20 402.612   1
   3   0   714856.10 473.422   1
   3   0   8 4388.72 215.725   1
   3   0   9 532.057  78.221   1
   3   0  10 26.2145 65.6771   1
   3   0  11 3388.40 245.307   1
   3   0  12-2.56392 159.085   1
   3   0  13 4482.91 706.956   1
   3   1   011068.30 351.588   1
   3   1   115381.80 458.771   1
   3   1   2 50.6641 32.1226   1
   3   1   319887.10  516.81   1
   3   1   470707.30 1757.87   1
   3   1   519624.60 576.961   1
   3   1   6 2843.85  126.45   1
   3   1   7 8157.16  313.25   1
   3   1   8  758.30 91.2285   1
   3   1   9 5670.08  262.41   1
   3   1  10-40.3266 102.351   1
   3   1  1128521.20 1159.59   1
   3   1  12 638.259 402.045   1
   3   1  13-10.4569 175.023   1
   3   2   017048.10 494.871   1
   3   2   110926.30 426.887   1
   3   2   210462.10 322.017   1
   3   2   3 3252.41 134.524   1
   3   2   427906.10 701.058   1
   3   2   5 8607.93 348.733   1
   3   2   626032.00 960.076   1
   3   2   7 3689.44 268.466   1
   3   2   816596.80 670.161   1
   3   2   9 2301.18 157.752   1
   3   2  10-19.1273 96.6648   1
   3   2  11 309.467 110.505   1
   3   2  12 5908.80 737.038   1
   3   2  13 5489.88 773.227   1
   3   3   133659.60 950.155   1
   3   3   285830.30 2064.23   1
   3   3   345864.70 1349.63   1
   3   3   4  524.88 53.5044   1
   3   3   518830.70 535.227   1
   3   3   623096.50 710.073   1
   3   3   7 736.292 66.5794   1
   3   3   822880.90 1208.03   1
   3   3   9106556.0 3207.02   1
   3   3  10 4193.25 261.126   1
   3   3  11 1286.49 149.789   1
   3   3  12 468.113 114.606   1
   3   3  13-58.3433 150.958   1
   3   4   0 7232.39 237.975   1
   3   4   117008.80 533.857   1
   3   4   2254405.0 6022.17   1
   3   4   3 1355.84 106.612   1
   3   4   4 7256.52 277.233   1
   3   4   524412.60 839.607   1
   3   4   657280.00 1920.46   1
   3   4   712792.80 541.139   1
   3   4   818076.10 596.465   1
   3   4   924619.30 721.333   1
   3   4  10 5386.67 266.699   1
   3   4  11 3366.25 271.579   1
   3   4  12 325.952  95.031   1
   3   4  1325437.80 1159.65   1
   3   5   011570.90 402.558   1
   3   5   1 9101.67 305.439   1
   3   5   2 1699.05 140.888   1
   3   5   353431.20 1386.98   1
   3   5   428728.10 821.931   1
   3   5   5 7020.24  303.95   1
   3   5   6 5065.65 338.129   1
   3   5   748236.90 1281.00   1
   3   5   8 7502.98 369.666   1
   3   5   9 717.533  124.17   1
   3   5  10 3343.72 205.734   1
   3   5  11 3079.60 333.454   1
   3   5  12 2564.66 259.112   1
   3   5  13 1175.26 226.231   1
   3   6   067718.90 1631.80   1
   3   6   1 6071.36 341.684   1
   3   6   210782.70 367.873   1
   3   6   344726.30 1144.24   1
   3   6   425698.40 713.271   1
   3   6   5 6815.15 274.495   1
   3   6   618013.80 588.348   1
   3   6   7 1680.37 145.862   1
   3   6   8 455.594 72.1896   1
   3   6   9 54.1176 51.7943   1
   3   6  1012342.70 509.898   1
   3   6  1122485.10 1324.32   1
   3   6  12 9791.11 889.095   1
   3   7   0 4726.52 193.591   1
   3   7   1 3286.84 207.835   1
   3   7   2 532.068 71.8536   1
   3   7   3 403.345 64.0491   1
   3   7   4 1220.76 129.052   1
   3   7   5 487.694 81.1051   1
   3   7   6 3944.00 232.912   1
   3   7   7 3076.77 265.968   1
   3   7   8 4399.94 333.869   1
   3   7   9 1835.36  318.41   1
   3   7  10 543.125  137.45   1
   3   7  1111283.20 928.987   1
   3   7  12 2368.41 452.154   1
   3   8   0 5711.69 240.227   1
   3   8   1 84.8073 52.3538   1
   3   8   215983.50 507.595   1
   3   8   334204.00 1051.90   1
   3   8   4 1770.15  159.06   1
   3   8   5 630.862  177.92   1
   3   8   6 7784.36 353.854   1
   3   8   7 6.44083 120.433   1
   3   8   8 708.696 295.398   1
   3   8   934799.40 1193.48   1
   3   8  10 6749.85 814.294   1
   3   8  11-54.9295 209.892   1
   3   9   011665.00 402.078   1
   3   9   1 1272.33 121.051   1
   3   9   227307.30 829.586   1
   3   9   3-33.4929  100.50   1
   3   9   4 4491.52 328.433   1
   3   9   5 3701.17 442.121   1
   3   9   618407.20 878.219   1
   3   9   711124.30 1507.03   1
   3   9   8 68.1743  90.831   1
   3   9   9 453.891 141.953   1
   3   9  10 106.734  103.93   1
   3   9  11 5212.60  380.41   1
   3  10   017362.80 581.282   1
   3  10   124793.40 936.598   1
   3  10   2 7137.00  439.22   1
   3  10   311251.70 573.643   1
   3  10   411788.80 591.868   1
   3  10   5 414.012 255.504   1
   3  10   617627.00 1363.83   1
   3  10   744335.00 2310.50   1
   3  10   813041.70 1240.28   1
   3  10   9 2705.48 294.141   1
   3  10  10 1083.45 392.581   1
   3  11   079961.00 4969.78   1
   3  11   1-18.1353 128.954   1
   3  11   2-87.6699 156.632   1
   3  11   3 2458.02 283.157   1
   3  11   420320.90 1437.95   1
   3  11   5 212.505 96.0086   1
   3  11   6 2730.19 340.449   1
   3  11   727370.80 1916.26   1
   3  11   8 120.424 145.383   1
   3  12   0 1187.40 447.163   1
   3  12   114121.00 750.727   1
   3  12   2 4524.65 501.647   1
   3  12   3 1948.03 359.124   1
   3  12   4 7957.63 539.378   1
   3  12   5 6873.64 508.421   1
   3  12   6 3372.01 342.359   1
   4 -10   1 -118.14 304.233   1
   4  -9   1 183.178 332.707   1
   4  -9   2-158.262 239.253   1
   4  -9   3 59.0801 109.799   1
   4  -9   4 1798.72 477.816   1
   4  -9   5 5516.65 534.855   1
   4  -8   117097.50 900.701   1
   4  -8   2 15.9852 125.861   1
   4  -8   3 1831.61 291.785   1
   4  -8   4 829.728 201.434   1
   4  -8   5 1743.34 602.565   1
   4  -8   623898.80 2009.18   1
   4  -7   1 3567.38  428.79   1
   4  -7   2 357.783 114.427   1
   4  -7   3 6690.79 898.537   1
   4  -7   4 9530.64 642.328   1
   4  -7   5 9556.82 649.109   1
   4  -7   6 717.395 207.855   1
   4  -7   7 336.615 202.377   1
   4  -7   8 7868.37 600.261   1
   4  -6   1 4949.79 419.922   1
   4  -6   2-24.2981 185.147   1
   4  -6   3 7661.24 1251.68   1
   4  -6   413512.90 740.144   1
   4  -6   5-75.6477 173.899   1
   4  -6   6 3079.77 268.756   1
   4  -6   7 6486.51 415.011   1
   4  -6   8 14.3525 138.667   1
   4  -6   9 716.054 209.567   1
   4  -5   1 4913.44 397.423   1
   4  -5   2 1792.67 261.027   1
   4  -5   3 1451.17 216.568   1
   4  -5   4 228.597 101.002   1
   4  -5   5 3162.77 365.452   1
   4  -5   6 541.516 102.992   1
   4  -5   7 1056.16 215.426   1
   4  -5   8 2722.99 244.615   1
   4  -5   9 679.126 253.627   1
   4  -5  10 846.371 381.499   1
   4  -4   1 119.225 66.3599   1
   4  -4   2 2854.09 268.864   1
   4  -4   3 255.019 107.511   1
   4  -4   4 195.386 155.102   1
   4  -4   5 6616.03 359.607   1
   4  -4   6 603.747 110.513   1
   4  -4   738219.40 1393.71   1
   4  -4   8 553.754 199.089   1
   4  -4   9 8447.80 605.557   1
   4  -4  10 1176.41 225.234   1
   4  -3   118465.50 846.399   1
   4  -3   2 348.715  129.14   1
   4  -3   3 5999.77 322.411   1
   4  -3   440339.60 1180.07   1
   4  -3   5 3005.93 227.825   1
   4  -3   6 41.3844 56.9669   1
   4  -3   7-2.36631 118.474   1
   4  -3   824173.00 825.263   1
   4  -3   9 1970.80 319.736   1
   4  -3  10 187.089 87.1589   1
   4  -3  1113094.50 773.208   1
   4  -2   1 361.794 69.5186   1
   4  -2   2 382.929  74.475   1
   4  -2   312170.50 755.791   1
   4  -2   418441.40 642.625   1
   4  -2   5135616.0 3596.95   1
   4  -2   6 14.4732  51.843   1
   4  -2   7 2264.40 189.324   1
   4  -2   8 9683.36 437.246   1
   4  -2   9 9030.43 437.403   1
   4  -2  1013224.80 1058.18   1
   4  -2  1114353.20 719.888   1
   4  -1   1 2872.19 186.341   1
   4  -1   223591.30 713.799   1
   4  -1   3 1065.19  112.46   1
   4  -1   445798.50 1525.24   1
   4  -1   5 76.3251 59.6158   1
   4  -1   618998.40 595.247   1
   4  -1   7 345.957 89.2175   1
   4  -1   8 3355.53 232.779   1
   4  -1   9 5196.23 310.445   1
   4  -1  10 75.3249 152.994   1
   4  -1  11 7256.88 420.529   1
   4  -1  12 1322.13 293.328   1
   4   0   0 6808.72 305.556   1
   4   0   115680.80 555.052   1
   4   0   211169.50 411.471   1
   4   0   327815.30 808.078   1
   4   0   4 300.698 105.099   1
   4   0   5 761.268 138.799   1
   4   0   612369.50 474.037   1
   4   0   7-16.1112 110.281   1
   4   0   8 8458.97 346.999   1
   4   0   911190.10  618.40   1
   4   0  10 5351.58 369.053   1
   4   0  11  70.856 87.4216   1
   4   0  12 21.1628 158.781   1
   4   1   0 4241.27 260.521   1
   4   1   1 2724.94 203.735   1
   4   1   219434.40 605.762   1
   4   1   3 106.995 60.1218   1
   4   1   4 916.596 162.113   1
   4   1   511595.50 695.883   1
   4   1   6 60.2829 47.8368   1
   4   1   7 4058.40 219.479   1
   4   1   8 6883.64 284.364   1
   4   1   9 564.201 105.542   1
   4   1  10 4039.06  275.82   1
   4   1  11 2835.23 788.391   1
   4   1  12 2322.47 354.371   1
   4   2   0 1069.18 160.882   1
   4   2   1 210.834 77.1672   1
   4   2   2 35.9626 67.0015   1
   4   2   3 2235.01 189.044   1
   4   2   4 8723.86 394.373   1
   4   2   5 260.861 92.2598   1
   4   2   610054.00 557.988   1
   4   2   7 888.616 101.535   1
   4   2   8 1024.70 117.214   1
   4   2   9 730.729 359.541   1
   4   2  10 1017.29 172.886   1
   4   2  11 1756.59 229.844   1
   4   2  12 3876.56 482.168   1
   4   3   0 8193.88  547.57   1
   4   3   1 659.425  103.69   1
   4   3   2 6600.42 334.744   1
   4   3   3 7179.36 389.388   1
   4   3   4 37.2858 68.1748   1
   4   3   589503.30 2763.24   1
   4   3   6 246.667 81.3833   1
   4   3   7 9758.09 571.278   1
   4   3   8 4707.42 312.207   1
   4   3   9 6135.61 382.525   1
   4   3  10 2965.15 280.446   1
   4   3  11 1040.75 172.864   1
   4   3  1214233.50 1756.89   1
   4   4   0 2337.79 163.137   1
   4   4   1 5861.65 269.471   1
   4   4   293112.10 2683.18   1
   4   4   3 8439.70 794.583   1
   4   4   4 3819.79 252.346   1
   4   4   5 2823.94 282.767   1
   4   4   612012.70 521.292   1
   4   4   7 2526.97 193.026   1
   4   4   8 334.848 82.8594   1
   4   4   946791.80 1449.15   1
   4   4  10 9430.58 510.556   1
   4   4  11 2708.95 666.775   1
   4   4  12 6243.65 858.429   1
   4   5   0 4064.07 199.107   1
   4   5   114435.10  642.72   1
   4   5   2 9608.41 370.781   1
   4   5   3137038.0 3424.27   1
   4   5   4 1294.83 123.262   1
   4   5   5 803.449 136.988   1
   4   5   6 2532.90 193.671   1
   4   5   7 2663.19 1159.69   1
   4   5   8 7858.48 572.132   1
   4   5   9 9270.23 1083.95   1
   4   5  1056485.90 5615.21   1
   4   5  11 134.286 83.7922   1
   4   5  12 383.434 135.605   1
   4   6   027767.20  812.67   1
   4   6   1 1130.59 103.788   1
   4   6   227290.80  800.01   1
   4   6   3 365.037 76.4706   1
   4   6   4 2212.00 208.199   1
   4   6   5 1027.31 98.8936   1
   4   6   6 2274.73 260.473   1
   4   6   730154.60 930.337   1
   4   6   8 89.5615 70.4846   1
   4   6   910269.40 676.522   1
   4   6  10 6664.71 1138.83   1
   4   6  11 8767.51 1128.81   1
   4   7   0 6395.32 382.062   1
   4   7   1 6694.64 422.714   1
   4   7   2 90.2676 78.7009   1
   4   7   3 1031.12  116.75   1
   4   7   4 198.507 59.9118   1
   4   7   5 753.585 121.174   1
   4   7   6 5962.44 322.818   1
   4   7   7 1732.36 202.038   1
   4   7   8 6658.13 369.859   1
   4   7   9 181.399 74.9892   1
   4   7  10 1142.37 171.003   1
   4   7  11 2843.82 381.407   1
   4   8   0 5748.75  313.90   1
   4   8   1 1686.64 201.527   1
   4   8   2 7242.95 322.942   1
   4   8   3 4160.31 247.443   1
   4   8   4 1808.65  176.98   1
   4   8   5 6980.42 362.294   1
   4   8   6 3139.92 375.356   1
   4   8   7 2993.77  232.60   1
   4   8   8 2834.03 419.496   1
   4   8   9 498.108  322.70   1
   4   8  10 6787.11 475.491   1
   4   9   0 905.251  115.40   1
   4   9   1  905.70 118.423   1
   4   9   216763.10 579.141   1
   4   9   3 884.298 132.671   1
   4   9   4 8209.98 412.322   1
   4   9   5 2916.09 264.969   1
   4   9   6  617.82 172.833   1
   4   9   7 396.336 207.635   1
   4   9   8-48.8606 158.804   1
   4   9   9 9107.04 1103.12   1
   4  10   0 4121.31 468.842   1
   4  10   1 2124.35 196.413   1
   4  10   2 778.154 160.421   1
   4  10   331764.20 3242.08   1
   4  10   4-52.6698 240.706   1
   4  10   5 2659.75 334.694   1
   4  10   6 23.6134 87.6176   1
   4  10   7 682.489 371.198   1
   4  10   8 6228.47 480.266   1
   4  11   045078.00 1419.49   1
   4  11   1 8887.14 574.157   1
   4  11   2 2755.15 346.353   1
   4  11   3 549.425 180.412   1
   4  11   4 580.183 242.691   1
   4  11   5 1679.18 271.387   1
   5  -7   117865.70 1383.86   1
   5  -7   2 1856.31  318.42   1
   5  -7   3 517.394 197.664   1
   5  -7   4 678.641  230.81   1
   5  -6   1 1521.68 240.858   1
   5  -6   2 191.474 110.657   1
   5  -6   3 931.182 257.974   1
   5  -6   4 4554.15 468.523   1
   5  -6   5 7226.46 928.857   1
   5  -6   6 24.0833 146.672   1
   5  -5   1 7969.54 815.279   1
   5  -5   2 992.955 368.403   1
   5  -5   3 1406.26 225.801   1
   5  -5   4 7832.28 861.099   1
   5  -5   5 6217.38 530.102   1
   5  -5   6 4538.36 454.573   1
   5  -5   7-2.32201 162.002   1
   5  -4   1 62.3947 87.9946   1
   5  -4   2 1999.74 243.368   1
   5  -4   3 4782.85 742.955   1
   5  -4   4 3036.73 300.028   1
   5  -4   5 107.898 85.1196   1
   5  -4   6 4510.39 431.034   1
   5  -4   710377.10 543.305   1
   5  -4   8 332.493 391.197   1
   5  -3   111897.10 495.918   1
   5  -3   3 3518.77 246.233   1
   5  -3   4 3899.65  495.81   1
   5  -3   5 80.7132 67.3805   1
   5  -3   6 811.556 145.118   1
   5  -3   7 438.248 156.955   1
   5  -3   819067.20 874.485   1
   5  -3   9 341.442 225.085   1
   5  -2   122213.10 749.325   1
   5  -2   2 1882.35 217.288   1
   5  -2   3 73.4536 148.473   1
   5  -2   4 4817.13  317.35   1
   5  -2   528559.60 1077.38   1
   5  -2   6 323.968 120.746   1
   5  -2   7 3596.85 416.687   1
   5  -2   8 1104.31  284.86   1
   5  -2   9 4340.18 645.574   1
   5  -1   1 833.021 205.101   1
   5  -1   2 588.364 196.362   1
   5  -1   3 161.417 72.6535   1
   5  -1   418120.60 644.664   1
   5  -1   521388.20 897.298   1
   5  -1   627297.90 1423.29   1
   5  -1   7 1225.18 181.094   1
   5  -1   8 917.514 130.538   1
   5  -1   9 368.349 149.783   1
   5  -1  10 30.4649 80.8799   1
   5   0   0 1263.45 168.637   1
   5   0   1 59.3148 112.839   1
   5   0   2 586.013 111.615   1
   5   0   3 749.547 178.094   1
   5   0   4 1996.86 213.699   1
   5   0   533667.50 1907.51   1
   5   0   6 8652.77 544.868   1
   5   0   7 230.596 123.781   1
   5   0   8 436.826 113.174   1
   5   0   9 487.645 146.314   1
   5   0  10 5394.81 438.962   1
   5   1   0 1778.99 235.769   1
   5   1   1 1235.73 169.158   1
   5   1   2 9597.00 473.658   1
   5   1   326021.90 911.501   1
   5   1   4 758.756 274.206   1
   5   1   5 281.914 198.718   1
   5   1   6 1045.23  177.88   1
   5   1   7 86.9441 232.917   1
   5   1   8 3354.07 339.468   1
   5   1   9 7236.90 1466.77   1
   5   1  10 3663.02 455.904   1
   5   2   0-13.5618 138.715   1
   5   2   1 2642.43 324.419   1
   5   2   2 2920.77 287.929   1
   5   2   3 1967.01 198.622   1
   5   2   4 6770.15 388.251   1
   5   2   5 4449.01 308.284   1
   5   2   6 4965.64 328.237   1
   5   2   7 235.578 141.262   1
   5   2   8 504.832 271.526   1
   5   2   9 3633.15 454.058   1
   5   2  10 318.746  171.76   1
   5   3   0 5142.68 373.801   1
   5   3   111877.80 603.728   1
   5   3   2 7482.27 406.156   1
   5   3   3 171.294 88.8795   1
   5   3   4 8050.40 496.674   1
   5   3   513296.50 576.438   1
   5   3   6 146.299 153.531   1
   5   3   7 1005.85  150.67   1
   5   3   8 212.222 179.303   1
   5   3   9 2068.07 339.769   1
   5   3  10 872.736 231.921   1
   5   4   0 936.328 214.679   1
   5   4   110434.80  498.63   1
   5   4   2 2853.99 245.574   1
   5   4   3 1414.85 240.352   1
   5   4   4 117.394 89.5398   1
   5   4   5 3080.59 251.721   1
   5   4   621081.60 789.077   1
   5   4   7 589.517 127.692   1
   5   4   810950.30 900.982   1
   5   4   9 2548.84 379.328   1
   5   4  10-134.918 134.252   1
   5   5   0 577.151 107.776   1
   5   5   1 1235.18 167.656   1
   5   5   2 1216.96 187.385   1
   5   5   327587.50 1428.54   1
   5   5   4 4855.11 392.477   1
   5   5   5  159.37 112.879   1
   5   5   6 3567.93 271.565   1
   5   5   7 60.1143 84.5334   1
   5   5   8 128.197 95.2305   1
   5   5   9 341.643  264.93   1
   5   6   0 113.612 80.9073   1
   5   6   1  86.937 73.5304   1
   5   6   214499.30 636.408   1
   5   6   333281.10 1227.42   1
   5   6   421379.80 724.669   1
   5   6   5 1210.65 174.668   1
   5   6   6 4222.96 300.027   1
   5   6   7 1618.20 586.816   1
   5   6   8 129.337 164.973   1
   5   6   917941.30 1631.51   1
   5   7   0 1147.59 197.786   1
   5   7   1 464.717 113.298   1
   5   7   2 36.2871 85.4136   1
   5   7   312092.40 536.613   1
   5   7   410076.30 1485.50   1
   5   7   5 182.461 321.612   1
   5   7   6 1009.39 186.237   1
   5   7   7 839.588 168.344   1
   5   7   8 6845.21 596.014   1
   5   8   0 2648.23 290.985   1
   5   8   121764.70 1160.96   1
   5   8   2 1224.66 221.722   1
   5   8   3 317.457 98.5416   1
   5   8   4 590.772 331.588   1
   5   8   5 147.997  158.93   1
   5   8   6 145.178 90.5335   1
   5   8   7 7333.91 484.738   1
   5   9   1 103.442 138.895   1
   5   9   2 3438.05 360.006   1
   5   9   3 3604.38 345.508   1
   5   9   4 924.933 391.613   1
   5   9   5 304.112 225.469   1
   6  -3   1  496.75 372.721   1
   6  -3   2 3.96146 284.169   1
   6  -3   3 1399.08 369.444   1
   6  -2   1 4305.53 630.656   1
   6  -2   2 2819.41 284.639   1
   6  -2   3 617.223  318.82   1
   6  -2   4 1077.74 185.882   1
   6  -2   5 863.156 260.437   1
   6  -1   1 4601.88 374.689   1
   6  -1   2 7507.53 483.099   1
   6  -1   3 1975.01 247.834   1
   6  -1   4-46.8167 223.852   1
   6  -1   5 279.784 139.936   1
   6  -1   6 3369.39 387.921   1
   6   0   0 4620.13 369.061   1
   6   0   1 749.328 156.962   1
   6   0   2 907.078 238.148   1
   6   0   3 566.864 322.621   1
   6   0   4-125.909 179.525   1
   6   0   5 9431.94 895.752   1
   6   0   622987.70 1359.36   1
   6   1   0 5308.27 579.473   1
   6   1   1 982.478 262.025   1
   6   1   2 1244.21  240.00   1
   6   1   3 1818.35  314.87   1
   6   1   4 2809.93 283.304   1
   6   1   5 6203.76 425.701   1
   6   1   615229.70 907.096   1
   6   2   0 2799.24 280.359   1
   6   2   1 3382.09 343.888   1
   6   2   2 456.653 136.928   1
   6   2   3 2573.90 522.919   1
   6   2   413265.70 650.896   1
   6   2   5 3982.08 338.571   1
   6   2   6 31.0544 210.295   1
   6   3   0 5760.24 402.852   1
   6   3   1 689.917 151.607   1
   6   3   2 4200.84 344.538   1
   6   3   3 5604.90  395.63   1
   6   3   4 480.959 166.252   1
   6   3   5 1151.46 177.636   1
   6   3   6-92.3834 177.151   1
   6   4   0 158.126 145.643   1
   6   4   1 1826.73 226.428   1
   6   4   2 2244.04 303.381   1
   6   4   3 2314.50 244.631   1
   6   4   4 52.7149  170.36   1
   6   4   5 199.699 110.494   1
   6   4   6 1538.27 245.289   1
   6   5   1-12.8755 204.356   1
   6   5   2 1285.75 220.022   1
   6   5   3 147.172 162.297   1
   6   5   4-126.277 347.296   1
   0   0   0    0.00    0.00   1
;
_shelx_hkl_checksum              79190
loop_
_space_group_symop_operation_xyz
'x, y, z'
'-x, -y, -z'
loop_
_atom_site_label
_atom_site_type_symbol
_atom_site_fract_x
_atom_site_fract_y
_atom_site_fract_z
_atom_site_U_iso_or_equiv
_atom_site_adp_type
_atom_site_occupancy
_atom_site_site_symmetry_order
_atom_site_calc_flag
O2 O 0.41998(15) 0.80126(6) 0.08829(6) 0.01658(11) Uani 1 1 d
O1 O 0.63780(18) 1.00473(7) 0.18325(6) 0.02247(13) Uani 1 1 d
N1 N 0.46415(13) 0.60354(6) 0.36338(6) 0.00985(10) Uani 1 1 d
C4 C 0.64365(15) 0.45969(7) 0.35446(6) 0.00933(10) Uani 1 1 d
C2 C 0.31937(15) 0.64561(7) 0.50636(6) 0.00939(10) Uani 1 1 d
C5 C 0.79842(18) 0.41660(8) 0.19272(7) 0.01414(12) Uani 1 1 d
H5A H 0.725(4) 0.3147(16) 0.1740(15) 0.024(3) Uiso 1 1 d
H5B H 1.053(4) 0.4059(16) 0.1794(17) 0.032(3) Uiso 1 1 d
H5C H 0.728(4) 0.5008(16) 0.1107(16) 0.029(3) Uiso 1 1 d
C3 C 0.12661(18) 0.80796(7) 0.51120(8) 0.01394(12) Uani 1 1 d
H3A H 0.039(4) 0.8430(17) 0.4114(17) 0.034(3) Uiso 1 1 d
H3B H 0.272(4) 0.8834(18) 0.5350(18) 0.038(4) Uiso 1 1 d
H3C H -0.079(3) 0.8034(15) 0.5934(14) 0.025(3) Uiso 1 1 d
C1 C 0.52225(18) 0.94955(7) 0.08055(7) 0.01364(12) Uani 1 1 d
H2 H 0.438(5) 0.744(2) 0.184(2) 0.046(4) Uiso 1 1 d
loop_
_atom_site_aniso_label
_atom_site_aniso_U_11
_atom_site_aniso_U_22
_atom_site_aniso_U_33
_atom_site_aniso_U_23
_atom_site_aniso_U_13
_atom_site_aniso_U_12
O2 0.0300(3) 0.00891(19) 0.0118(2) 0.00184(14) -0.00739(17) -0.00403(17)
O1 0.0405(3) 0.0156(2) 0.0146(2) 0.00174(17) -0.0140(2) -0.0085(2)
N1 0.0131(2) 0.00750(19) 0.00880(19) -0.00011(14) -0.00190(15) -0.00118(15)
C4 0.0115(2) 0.0082(2) 0.0083(2) -0.00081(15) -0.00129(16) -0.00145(16)
C2 0.0117(2) 0.0071(2) 0.0094(2) -0.00072(15) -0.00205(16) -0.00084(16)
C5 0.0169(3) 0.0158(3) 0.0093(2) -0.00325(18) -0.00019(18) 0.0005(2)
C3 0.0160(3) 0.0088(2) 0.0169(3) -0.00217(18) -0.0030(2) 0.00235(18)
C1 0.0210(3) 0.0098(2) 0.0105(2) 0.00091(17) -0.00503(19) -0.00176(19)
loop_
_atom_type_symbol
_atom_type_description
_atom_type_scat_dispersion_real
_atom_type_scat_dispersion_imag
_atom_type_scat_source
C C 0.0033 0.0016 'International Tables Vol C Tables 4.2.6.8 and 6.1.1.4'
H H 0.0000 0.0000 'International Tables Vol C Tables 4.2.6.8 and 6.1.1.4'
N N 0.0061 0.0033 'International Tables Vol C Tables 4.2.6.8 and 6.1.1.4'
O O 0.0106 0.0060 'International Tables Vol C Tables 4.2.6.8 and 6.1.1.4'
loop_
_geom_angle_atom_site_label_1
_geom_angle_atom_site_label_2
_geom_angle_atom_site_label_3
_geom_angle
_geom_angle_site_symmetry_1
_geom_angle_site_symmetry_3
C1 O2 H2 111.3(10) . .
C4 N1 C2 119.57(5) . .
N1 C4 C2 120.14(5) . 2_666
N1 C4 C5 117.96(5) . .
C2 C4 C5 121.90(5) 2_666 .
N1 C2 C4 120.29(5) . 2_666
N1 C2 C3 117.87(5) . .
C4 C2 C3 121.83(5) 2_666 .
C4 C5 H5A 112.9(8) . .
C4 C5 H5B 111.3(9) . .
H5A C5 H5B 105.3(11) . .
C4 C5 H5C 109.9(8) . .
H5A C5 H5C 108.5(11) . .
H5B C5 H5C 108.8(11) . .
C2 C3 H3A 110.1(8) . .
C2 C3 H3B 110.9(10) . .
H3A C3 H3B 112.0(12) . .
C2 C3 H3C 111.2(7) . .
H3A C3 H3C 106.4(11) . .
H3B C3 H3C 106.2(12) . .
O1 C1 O2 126.19(6) . .
O1 C1 C1 122.43(7) . 2_675
O2 C1 C1 111.37(6) . 2_675
loop_
_geom_bond_atom_site_label_1
_geom_bond_atom_site_label_2
_geom_bond_distance
_geom_bond_site_symmetry_2
O2 C1 1.3140(8) .
O2 H2 0.904(16) .
O1 C1 1.2083(8) .
N1 C4 1.3426(7) .
N1 C2 1.3435(7) .
C4 C2 1.4027(8) 2_666
C4 C5 1.4988(8) .
C2 C3 1.4954(8) .
C5 H5A 0.957(13) .
C5 H5B 0.956(14) .
C5 H5C 0.980(13) .
C3 H3A 0.972(15) .
C3 H3B 0.934(15) .
C3 H3C 0.962(13) .
C1 C1 1.5450(12) 2_675
