#------------------------------------------------------------------------------
#$Date: 2018-09-26 06:29:44 +0300 (Wed, 26 Sep 2018) $
#$Revision: 211175 $
#$URL: file:///home/coder/svn-repositories/cod/cif/8/00/00/8000026.cif $
#------------------------------------------------------------------------------
#
# This file is available in the Crystallography Open Database (COD),
# http://www.crystallography.net/
#
# All data on this site have been placed in the public domain by the
# contributors.
#
data_8000026
loop_
_publ_author_name
'Manabu Hoshino'
'Akiko Sekine'
'Hidehiro Uekusa'
'Yuji Ohashi'
_publ_section_title
;
 X-ray Analysis of Bond Elongation in VO(acac)2 at the Excited State
;
_journal_issue                   9
_journal_name_full               'Chemistry Letters'
_journal_page_first              1228
_journal_paper_doi               10.1246/cl.2005.1228
_journal_volume                  34
_journal_year                    2005
_chemical_formula_sum            'C10 H14 O5 V'
_chemical_formula_weight         265.15
_space_group_IT_number           2
_symmetry_cell_setting           triclinic
_symmetry_space_group_name_Hall  '-P 1'
_symmetry_space_group_name_H-M   'P -1'
_atom_sites_solution_hydrogens   geom
_atom_sites_solution_primary     direct
_atom_sites_solution_secondary   difmap
_audit_creation_method           SHELXL-97
_cell_angle_alpha                72.886(1)
_cell_angle_beta                 72.175(1)
_cell_angle_gamma                66.911(1)
_cell_formula_units_Z            2
_cell_length_a                   7.3529(1)
_cell_length_b                   8.1521(2)
_cell_length_c                   11.1916(2)
_cell_measurement_temperature    141(2)
_cell_volume                     575.74(2)
_computing_cell_refinement       'Siemens SMART'
_computing_data_collection       'Siemens SMART'
_computing_data_reduction        'Siemens SAINT & SADABS'
_computing_molecular_graphics    'ORTEP-3 for Windows (Farrugia, 1998)'
_computing_publication_material  'SHELXL-97 (Sheldrick, 1997)'
_computing_structure_refinement  'SHELXL-97 (Sheldrick, 1997)'
_computing_structure_solution    'SHELXS-97 (Sheldrick, 1990)'
_diffrn_ambient_temperature      141(2)
_diffrn_measured_fraction_theta_full 0.992
_diffrn_measured_fraction_theta_max 0.931
_diffrn_measurement_device_type  'Siemens SMART CCD area detector system'
_diffrn_measurement_method       'omega scan'
_diffrn_radiation_monochromator  graphite
_diffrn_radiation_source         'Rigaku ratating anode Ultrax18'
_diffrn_radiation_type           MoK\a
_diffrn_radiation_wavelength     0.71073
_diffrn_reflns_av_R_equivalents  0.0237
_diffrn_reflns_av_sigmaI/netI    0.0295
_diffrn_reflns_limit_h_max       11
_diffrn_reflns_limit_h_min       -11
_diffrn_reflns_limit_k_max       12
_diffrn_reflns_limit_k_min       -12
_diffrn_reflns_limit_l_max       16
_diffrn_reflns_limit_l_min       -16
_diffrn_reflns_number            10360
_diffrn_reflns_theta_full        30.00
_diffrn_reflns_theta_max         32.88
_diffrn_reflns_theta_min         1.95
_exptl_absorpt_coefficient_mu    0.864
_exptl_absorpt_correction_T_max  1.000000
_exptl_absorpt_correction_T_min  0.781012
_exptl_absorpt_correction_type   multi-scan
_exptl_absorpt_process_details   'PROGRAM SADABS was used.'
_exptl_crystal_colour            blue
_exptl_crystal_density_diffrn    1.529
_exptl_crystal_density_method    'not measured'
_exptl_crystal_description       block
_exptl_crystal_F_000             274
_exptl_crystal_size_max          0.25
_exptl_crystal_size_mid          0.25
_exptl_crystal_size_min          0.10
_refine_diff_density_max         0.466
_refine_diff_density_min         -0.498
_refine_diff_density_rms         0.061
_refine_ls_extinction_method     none
_refine_ls_goodness_of_fit_ref   1.074
_refine_ls_hydrogen_treatment    refxyz
_refine_ls_matrix_type           full
_refine_ls_number_parameters     187
_refine_ls_number_reflns         3996
_refine_ls_number_restraints     0
_refine_ls_restrained_S_all      1.074
_refine_ls_R_factor_all          0.0286
_refine_ls_R_factor_gt           0.0256
_refine_ls_shift/su_max          0.002
_refine_ls_shift/su_mean         0.000
_refine_ls_structure_factor_coef Fsqd
_refine_ls_weighting_details
'calc w=1/[\s^2^(Fo^2^)+(0.0494P)^2^+0.0000P] where P=(Fo^2^+2Fc^2^)/3'
_refine_ls_weighting_scheme      calc
_refine_ls_wR_factor_gt          0.0754
_refine_ls_wR_factor_ref         0.0763
_reflns_number_gt                3529
_reflns_number_total             3996
_reflns_threshold_expression     >2sigma(I)
_cod_original_sg_symbol_H-M      P-1
_cod_database_code               8000026
loop_
_symmetry_equiv_pos_as_xyz
'x, y, z'
'-x, -y, -z'
loop_
_atom_site_label
_atom_site_type_symbol
_atom_site_fract_x
_atom_site_fract_y
_atom_site_fract_z
_atom_site_U_iso_or_equiv
_atom_site_adp_type
_atom_site_occupancy
_atom_site_symmetry_multiplicity
_atom_site_calc_flag
V1 V 0.14159(2) 0.29200(2) 0.722455(15) 0.01463(6) Uani 1 1 d
O1 O -0.00807(12) 0.11887(10) 0.76925(7) 0.01906(14) Uani 1 1 d
O2 O -0.06320(12) 0.41767(10) 0.85672(7) 0.01876(14) Uani 1 1 d
O3 O 0.14923(12) 0.53829(10) 0.63451(7) 0.01881(14) Uani 1 1 d
O4 O 0.21963(12) 0.22971(10) 0.55273(7) 0.01824(14) Uani 1 1 d
O5 O 0.33988(12) 0.18920(11) 0.78013(7) 0.02341(16) Uani 1 1 d
C1 C -0.21125(18) -0.06460(15) 0.88560(11) 0.02133(19) Uani 1 1 d
H1A H -0.334(3) -0.012(2) 0.8493(16) 0.032 Uiso 1 1 d
H1B H -0.245(2) -0.114(2) 0.9708(16) 0.032 Uiso 1 1 d
H1C H -0.117(3) -0.150(2) 0.8435(16) 0.032 Uiso 1 1 d
C2 C -0.13723(15) 0.08830(13) 0.87225(9) 0.01634(17) Uani 1 1 d
C3 C -0.21593(16) 0.19150(14) 0.96836(10) 0.01871(18) Uani 1 1 d
H3 H -0.307(2) 0.156(2) 1.0417(15) 0.022 Uiso 1 1 d
C4 C -0.17739(15) 0.35078(14) 0.95569(10) 0.01712(17) Uani 1 1 d
C5 C -0.27293(18) 0.45923(17) 1.05977(12) 0.0259(2) Uani 1 1 d
H5A H -0.162(3) 0.469(2) 1.0854(17) 0.039 Uiso 1 1 d
H5B H -0.368(3) 0.414(3) 1.1274(18) 0.039 Uiso 1 1 d
H5C H -0.364(3) 0.587(3) 1.0355(17) 0.039 Uiso 1 1 d
C6 C 0.22772(17) 0.78538(14) 0.48257(11) 0.02061(19) Uani 1 1 d
H6A H 0.112(3) 0.860(2) 0.4510(16) 0.031 Uiso 1 1 d
H6B H 0.343(3) 0.790(2) 0.4205(16) 0.031 Uiso 1 1 d
H6C H 0.219(3) 0.834(2) 0.5506(16) 0.031 Uiso 1 1 d
C7 C 0.22664(14) 0.59371(13) 0.51759(9) 0.01603(17) Uani 1 1 d
C8 C 0.30093(16) 0.48999(14) 0.42210(10) 0.01865(18) Uani 1 1 d
H8 H 0.355(2) 0.543(2) 0.3369(14) 0.022 Uiso 1 1 d
C9 C 0.29109(15) 0.31559(13) 0.44385(9) 0.01650(17) Uani 1 1 d
C10 C 0.3650(2) 0.21548(16) 0.33600(11) 0.0250(2) Uani 1 1 d
H10A H 0.495(3) 0.123(3) 0.3421(17) 0.038 Uiso 1 1 d
H10B H 0.380(3) 0.289(3) 0.2503(17) 0.038 Uiso 1 1 d
H10C H 0.284(3) 0.153(3) 0.3444(17) 0.038 Uiso 1 1 d
loop_
_atom_site_aniso_label
_atom_site_aniso_U_11
_atom_site_aniso_U_22
_atom_site_aniso_U_33
_atom_site_aniso_U_23
_atom_site_aniso_U_13
_atom_site_aniso_U_12
V1 0.01678(8) 0.01468(8) 0.01240(8) -0.00301(6) -0.00187(5) -0.00596(6)
O1 0.0255(4) 0.0183(3) 0.0148(3) -0.0033(3) -0.0018(3) -0.0107(3)
O2 0.0210(3) 0.0180(3) 0.0171(3) -0.0051(3) 0.0002(3) -0.0084(3)
O3 0.0238(3) 0.0166(3) 0.0166(3) -0.0044(3) -0.0010(3) -0.0090(3)
O4 0.0241(3) 0.0167(3) 0.0143(3) -0.0034(2) -0.0013(3) -0.0091(3)
O5 0.0211(4) 0.0266(4) 0.0209(4) -0.0046(3) -0.0059(3) -0.0054(3)
C1 0.0275(5) 0.0201(4) 0.0207(5) -0.0015(4) -0.0068(4) -0.0130(4)
C2 0.0179(4) 0.0163(4) 0.0161(4) -0.0001(3) -0.0068(3) -0.0068(3)
C3 0.0188(4) 0.0207(4) 0.0170(4) -0.0039(3) -0.0011(3) -0.0089(3)
C4 0.0146(4) 0.0195(4) 0.0172(4) -0.0053(3) -0.0020(3) -0.0055(3)
C5 0.0246(5) 0.0306(6) 0.0248(5) -0.0155(4) 0.0057(4) -0.0128(4)
C6 0.0238(5) 0.0144(4) 0.0240(5) -0.0029(4) -0.0046(4) -0.0079(4)
C7 0.0148(4) 0.0151(4) 0.0183(4) -0.0025(3) -0.0036(3) -0.0057(3)
C8 0.0223(4) 0.0162(4) 0.0158(4) -0.0026(3) -0.0005(3) -0.0078(3)
C9 0.0166(4) 0.0171(4) 0.0152(4) -0.0043(3) -0.0020(3) -0.0053(3)
C10 0.0359(6) 0.0221(5) 0.0168(4) -0.0077(4) 0.0007(4) -0.0114(4)
loop_
_atom_type_symbol
_atom_type_description
_atom_type_scat_dispersion_real
_atom_type_scat_dispersion_imag
_atom_type_scat_source
C C 0.0033 0.0016 'International Tables Vol C Tables 4.2.6.8 and 6.1.1.4'
H H 0.0000 0.0000 'International Tables Vol C Tables 4.2.6.8 and 6.1.1.4'
O O 0.0106 0.0060 'International Tables Vol C Tables 4.2.6.8 and 6.1.1.4'
V V 0.3005 0.5294 'International Tables Vol C Tables 4.2.6.8 and 6.1.1.4'
loop_
_geom_angle_atom_site_label_1
_geom_angle_atom_site_label_2
_geom_angle_atom_site_label_3
_geom_angle
O5 V1 O4 104.87(4)
O5 V1 O2 104.86(4)
O4 V1 O2 150.26(3)
O5 V1 O3 106.82(4)
O4 V1 O3 87.90(3)
O2 V1 O3 84.08(3)
O5 V1 O1 106.77(4)
O4 V1 O1 83.58(3)
O2 V1 O1 87.42(3)
O3 V1 O1 146.41(3)
C2 O1 V1 128.52(6)
C4 O2 V1 127.59(7)
C7 O3 V1 128.93(6)
C9 O4 V1 128.92(6)
C2 C1 H1A 107.4(10)
C2 C1 H1B 109.1(11)
H1A C1 H1B 109.0(14)
C2 C1 H1C 111.3(11)
H1A C1 H1C 109.7(15)
H1B C1 H1C 110.3(15)
O1 C2 C3 124.31(9)
O1 C2 C1 116.23(9)
C3 C2 C1 119.42(9)
C4 C3 C2 123.14(9)
C4 C3 H3 118.9(9)
C2 C3 H3 117.8(9)
O2 C4 C3 124.29(9)
O2 C4 C5 115.11(9)
C3 C4 C5 120.60(9)
C4 C5 H5A 106.6(10)
C4 C5 H5B 113.1(11)
H5A C5 H5B 115.7(15)
C4 C5 H5C 116.1(10)
H5A C5 H5C 106.4(14)
H5B C5 H5C 98.9(14)
C7 C6 H6A 107.9(11)
C7 C6 H6B 108.3(10)
H6A C6 H6B 110.5(14)
C7 C6 H6C 115.3(10)
H6A C6 H6C 104.6(14)
H6B C6 H6C 110.2(14)
O3 C7 C8 124.39(9)
O3 C7 C6 116.27(9)
C8 C7 C6 119.29(9)
C9 C8 C7 123.19(9)
C9 C8 H8 118.0(9)
C7 C8 H8 118.8(9)
O4 C9 C8 124.56(9)
O4 C9 C10 115.00(9)
C8 C9 C10 120.43(9)
C9 C10 H10A 109.9(10)
C9 C10 H10B 116.2(11)
H10A C10 H10B 106.8(14)
C9 C10 H10C 109.9(11)
H10A C10 H10C 104.2(15)
H10B C10 H10C 109.2(16)
loop_
_geom_bond_atom_site_label_1
_geom_bond_atom_site_label_2
_geom_bond_distance
V1 O5 1.5950(8)
V1 O4 1.9665(7)
V1 O2 1.9712(7)
V1 O3 1.9735(7)
V1 O1 1.9768(7)
O1 C2 1.2803(12)
O2 C4 1.2898(12)
O3 C7 1.2799(12)
O4 C9 1.2828(12)
C1 C2 1.4983(14)
C1 H1A 0.991(17)
C1 H1B 0.917(17)
C1 H1C 0.896(17)
C2 C3 1.4033(14)
C3 C4 1.3937(14)
C3 H3 0.940(15)
C4 C5 1.4999(14)
C5 H5A 0.977(19)
C5 H5B 0.954(19)
C5 H5C 0.999(19)
C6 C7 1.4975(14)
C6 H6A 0.931(17)
C6 H6B 0.922(17)
C6 H6C 0.932(17)
C7 C8 1.4028(14)
C8 C9 1.3971(14)
C8 H8 0.956(15)
C9 C10 1.4995(14)
C10 H10A 0.967(18)
C10 H10B 0.969(18)
C10 H10C 0.895(19)
loop_
_geom_hbond_atom_site_label_D
_geom_hbond_atom_site_label_H
_geom_hbond_atom_site_label_A
_geom_hbond_distance_DH
_geom_hbond_distance_HA
_geom_hbond_distance_DA
_geom_hbond_angle_DHA
_geom_hbond_site_symmetry_A
C1 H1A O5 0.991(17) 2.519(17) 3.4870(14) 165.3(13) 1_455
C1 H1B O5 0.917(17) 2.602(17) 3.5032(14) 167.6(14) 2_557
C5 H5A O2 0.977(19) 2.499(19) 3.4497(14) 164.3(15) 2_567
loop_
_geom_torsion_atom_site_label_1
_geom_torsion_atom_site_label_2
_geom_torsion_atom_site_label_3
_geom_torsion_atom_site_label_4
_geom_torsion
O5 V1 O1 C2 86.25(9)
O4 V1 O1 C2 -170.10(9)
O2 V1 O1 C2 -18.50(9)
O3 V1 O1 C2 -93.75(10)
O5 V1 O2 C4 -83.24(9)
O4 V1 O2 C4 95.70(10)
O3 V1 O2 C4 170.90(9)
O1 V1 O2 C4 23.43(9)
O5 V1 O3 C7 90.53(9)
O4 V1 O3 C7 -14.38(9)
O2 V1 O3 C7 -165.70(9)
O1 V1 O3 C7 -89.47(10)
O5 V1 O4 C9 -92.09(9)
O2 V1 O4 C9 88.97(10)
O3 V1 O4 C9 14.76(9)
O1 V1 O4 C9 162.21(9)
V1 O1 C2 C3 7.91(14)
V1 O1 C2 C1 -174.34(7)
O1 C2 C3 C4 6.92(16)
C1 C2 C3 C4 -170.77(10)
V1 O2 C4 C3 -18.18(14)
V1 O2 C4 C5 162.76(8)
C2 C3 C4 O2 -1.54(16)
C2 C3 C4 C5 177.46(10)
V1 O3 C7 C8 8.98(15)
V1 O3 C7 C6 -173.65(7)
O3 C7 C8 C9 2.52(17)
C6 C7 C8 C9 -174.76(10)
V1 O4 C9 C8 -9.77(15)
V1 O4 C9 C10 170.82(8)
C7 C8 C9 O4 -2.14(17)
C7 C8 C9 C10 177.24(10)
