#------------------------------------------------------------------------------
#$Date: 2019-11-07 02:30:38 +0200 (Thu, 07 Nov 2019) $
#$Revision: 223434 $
#$URL: file:///home/coder/svn-repositories/cod/cif/8/00/03/8000324.cif $
#------------------------------------------------------------------------------
#
# This file is available in the Crystallography Open Database (COD),
# http://www.crystallography.net/
#
# All data on this site have been placed in the public domain by the
# contributors.
#
data_8000324
loop_
_publ_author_name
'Zhang, Haoke'
'Du, Lili'
'Wang, Lin'
'Liu, Junkai'
'Wan, Qing'
'Kwok, Ryan T. K.'
'Lam, Jacky W. Y.'
'Phillips, David Lee'
'Tang, Ben Zhong'
_publ_section_title
;
 Visualization and Manipulation of Molecular Motion in the Solid State
 through Photoinduced Clusteroluminescence.
;
_journal_name_full               'The journal of physical chemistry letters'
_journal_page_first              7077
_journal_page_last               7085
_journal_paper_doi               10.1021/acs.jpclett.9b02752
_journal_year                    2019
_chemical_formula_moiety         'C20 H26'
_chemical_formula_sum            'C20 H26'
_chemical_formula_weight         266.41
_space_group_crystal_system      triclinic
_space_group_IT_number           2
_space_group_name_Hall           '-P 1'
_space_group_name_H-M_alt        'P -1'
_atom_sites_solution_hydrogens   geom
_atom_sites_solution_primary     iterative
_audit_creation_date             2016-05-12
_audit_creation_method
;
Olex2 1.2
(compiled 2016.02.19 svn.r3266 for OlexSys, GUI svn.r5155)
;
_cell_angle_alpha                102.817(7)
_cell_angle_beta                 100.053(8)
_cell_angle_gamma                102.883(8)
_cell_formula_units_Z            1
_cell_length_a                   5.5945(6)
_cell_length_b                   6.5367(5)
_cell_length_c                   11.7666(9)
_cell_measurement_reflns_used    991
_cell_measurement_temperature    199.99(11)
_cell_measurement_theta_max      28.3690
_cell_measurement_theta_min      3.8510
_cell_volume                     397.49(7)
_computing_cell_refinement
;
CrysAlisPro, Agilent Technologies,
Version 1.171.37.35 (release 13-08-2014 CrysAlis171 .NET)
(compiled Aug 13 2014,18:06:01)
;
_computing_data_collection
;
CrysAlisPro, Agilent Technologies,
Version 1.171.37.35 (release 13-08-2014 CrysAlis171 .NET)
(compiled Aug 13 2014,18:06:01)
;
_computing_data_reduction
;
CrysAlisPro, Agilent Technologies,
Version 1.171.37.35 (release 13-08-2014 CrysAlis171 .NET)
(compiled Aug 13 2014,18:06:01)
;
_computing_molecular_graphics    'Olex2 (Dolomanov et al., 2009)'
_computing_publication_material  'Olex2 (Dolomanov et al., 2009)'
_computing_structure_refinement  'ShelXL (Sheldrick, 2015)'
_computing_structure_solution
;
Superflip (Palatinus & Chapuis, 2007;Palatinus & van der Lee, 2008;
Palatinus et al., 2012)
;
_diffrn_ambient_environment      N~2~
_diffrn_ambient_temperature      199.99(11)
_diffrn_detector                 'CCD plate'
_diffrn_detector_area_resol_mean 10.3587
_diffrn_detector_type            Atlas
_diffrn_measured_fraction_theta_full 0.971
_diffrn_measured_fraction_theta_max 0.969
_diffrn_measurement_details
;
#__ type_ start__ end____ width___ exp.time_
  1 omega  -55.00   44.00   1.0000   45.0000
omega____ theta____ kappa____ phi______ frames
    -       16.7871  -57.0000  -60.0000 99

#__ type_ start__ end____ width___ exp.time_
  2 omega  -20.00   63.00   1.0000   45.0000
omega____ theta____ kappa____ phi______ frames
    -       16.7871   57.0000  120.0000 83

#__ type_ start__ end____ width___ exp.time_
  3 omega  -45.00   53.00   1.0000   45.0000
omega____ theta____ kappa____ phi______ frames
    -       16.7871  -57.0000 -180.0000 98
;
_diffrn_measurement_device       'kappa diffractometer'
_diffrn_measurement_device_type  'SuperNova, Dual, Mo at zero, Atlas'
_diffrn_measurement_method       '\w scans'
_diffrn_orient_matrix_UB_11      0.0372003000
_diffrn_orient_matrix_UB_12      0.0720500000
_diffrn_orient_matrix_UB_13      -0.0347060000
_diffrn_orient_matrix_UB_21      0.1268979000
_diffrn_orient_matrix_UB_22      -0.0025078000
_diffrn_orient_matrix_UB_23      0.0178568000
_diffrn_orient_matrix_UB_31      -0.0205321000
_diffrn_orient_matrix_UB_32      -0.0904489000
_diffrn_orient_matrix_UB_33      -0.0502312000
_diffrn_radiation_monochromator  mirror
_diffrn_radiation_probe          x-ray
_diffrn_radiation_type           MoK\a
_diffrn_radiation_wavelength     0.71073
_diffrn_reflns_av_R_equivalents  0.0123
_diffrn_reflns_av_unetI/netI     0.0327
_diffrn_reflns_Laue_measured_fraction_full 0.971
_diffrn_reflns_Laue_measured_fraction_max 0.969
_diffrn_reflns_limit_h_max       4
_diffrn_reflns_limit_h_min       -6
_diffrn_reflns_limit_k_max       7
_diffrn_reflns_limit_k_min       -8
_diffrn_reflns_limit_l_max       13
_diffrn_reflns_limit_l_min       -14
_diffrn_reflns_number            2113
_diffrn_reflns_point_group_measured_fraction_full 0.971
_diffrn_reflns_point_group_measured_fraction_max 0.969
_diffrn_reflns_theta_full        25.000
_diffrn_reflns_theta_max         25.998
_diffrn_reflns_theta_min         3.322
_diffrn_source                   'SuperNova (Mo) X-ray Source'
_diffrn_source_current           0.80
_diffrn_source_power             0.040
_diffrn_source_target            Mo
_diffrn_source_voltage           50
_exptl_absorpt_coefficient_mu    0.062
_exptl_absorpt_correction_T_max  1.00000
_exptl_absorpt_correction_T_min  0.24365
_exptl_absorpt_correction_type   multi-scan
_exptl_absorpt_process_details
;
CrysAlisPro, Agilent Technologies,
Version 1.171.37.35 (release 13-08-2014 CrysAlis171 .NET)
(compiled Aug 13 2014,18:06:01)
Empirical absorption correction using spherical harmonics,
 implemented in SCALE3 ABSPACK scaling algorithm.
;
_exptl_crystal_colour            colourless
_exptl_crystal_colour_primary    colourless
_exptl_crystal_density_diffrn    1.113
_exptl_crystal_density_method    'not measured'
_exptl_crystal_description       block
_exptl_crystal_F_000             146
_exptl_crystal_size_max          0.25
_exptl_crystal_size_mid          0.22
_exptl_crystal_size_min          0.2
_refine_diff_density_max         0.204
_refine_diff_density_min         -0.210
_refine_diff_density_rms         0.039
_refine_ls_extinction_method     none
_refine_ls_goodness_of_fit_ref   1.002
_refine_ls_hydrogen_treatment    constr
_refine_ls_matrix_type           full
_refine_ls_number_parameters     94
_refine_ls_number_reflns         1503
_refine_ls_number_restraints     0
_refine_ls_restrained_S_all      1.002
_refine_ls_R_factor_all          0.0679
_refine_ls_R_factor_gt           0.0527
_refine_ls_shift/su_max          0.000
_refine_ls_shift/su_mean         0.000
_refine_ls_structure_factor_coef Fsqd
_refine_ls_weighting_details
'w=1/[\s^2^(Fo^2^)+(0.0880P)^2^+0.0100P] where P=(Fo^2^+2Fc^2^)/3'
_refine_ls_weighting_scheme      calc
_refine_ls_wR_factor_gt          0.1444
_refine_ls_wR_factor_ref         0.1583
_reflns_Friedel_coverage         0.000
_reflns_number_gt                1096
_reflns_number_total             1503
_reflns_threshold_expression     'I > 2\s(I)'
_cod_data_source_file            jz9b02752_si_002.cif
_cod_data_source_block           haoke4c_200k
_cod_original_cell_volume        397.50(6)
_cod_database_code               8000324
_chemical_oxdiff_formula         'ph4 C2 '
_shelx_space_group_comment
;
The symmetry employed for this shelxl refinement is uniquely defined
by the following loop, which should always be used as a source of
symmetry information in preference to the above space-group names.
They are only intended as comments.
;
_reflns_odcompleteness_completeness 98.36
_reflns_odcompleteness_iscentric 1
_reflns_odcompleteness_theta     26.32
_olex2_refinement_description
;
1. Fixed Uiso
 At 1.2 times of:
  All C(H) groups, All C(H,H) groups
 At 1.5 times of:
  All C(H,H,H) groups
2.a Secondary CH2 refined with riding coordinates:
 C10(H10A,H10B)
2.b Aromatic/amide H refined with riding coordinates:
 C3(H3), C6(H6)
2.c Idealised Me refined as rotating group:
 C7(H7A,H7B,H7C), C8(H8A,H8B,H8C), C9(H9A,H9B,H9C)
;
_shelx_res_file
;
    haoke4c_200k.res created by SHELXL-2014/7

TITL haoke4c_200K solution in P-1
CELL 0.71073 5.594507 6.536709 11.766605 102.8168 100.0527 102.8827
ZERR 1 0.000598 0.000517 0.000905 0.0066 0.0077 0.0079
LATT 1
SFAC C H
UNIT 20 26

L.S. 6
PLAN  25
TEMP -73
CONF
BOND
fmap 2
acta 50
OMIT 0 52
OMIT 3 -3 6
OMIT 3 0 6
OMIT 0 0 7
OMIT 4 -4 8
OMIT 0 3 3
OMIT 0 0 6
OMIT 3 0 3
OMIT 3 3 3
OMIT 3 0 0
OMIT -5 3 10
OMIT 0 3 2
OMIT 0 -3 6
OMIT 0 -4 2
OMIT 3 -6 4
OMIT 0 -3 3
OMIT 4 0 4
OMIT 4 0 0
OMIT -1 1 4
OMIT -2 0 4
OMIT 0 0 8
OMIT 2 4 1
OMIT 2 -2 1
OMIT -4 5 4
OMIT 2 -4 10
OMIT 1 0 5
OMIT -2 -6 9
OMIT 4 0 9
OMIT 3 0 10
OMIT 3 -3 3
OMIT -1 7 1
OMIT 4 0 8
OMIT 1 -1 8
REM <olex2.extras>
REM <HklSrc "%.\\haoke4c_200K.hkl">
REM </olex2.extras>

WGHT    0.088000    0.010000
FVAR      13.87893
C1    1    0.512859    0.193401    0.152877    11.00000    0.03468    0.04498 =
         0.02534    0.00681    0.00554    0.01445
C2    1    0.617380    0.416114    0.171502    11.00000    0.03259    0.04581 =
         0.02773    0.01033    0.00499    0.01035
C3    1    0.543516    0.561806    0.254140    11.00000    0.03883    0.03969 =
         0.02977    0.00547    0.00336    0.01013
AFIX  43
H3    2    0.615463    0.713523    0.267031    11.00000   -1.20000
AFIX   0
C4    1    0.369556    0.496314    0.318810    11.00000    0.03628    0.04914 =
         0.02568    0.00447    0.00417    0.01593
C5    1    0.265450    0.273229    0.300273    11.00000    0.03345    0.05216 =
         0.02746    0.01008    0.00614    0.01156
C6    1    0.339145    0.127574    0.218343    11.00000    0.03994    0.04039 =
         0.02986    0.00937    0.00567    0.00858
AFIX  43
H6    2    0.268266   -0.024112    0.206107    11.00000   -1.20000
AFIX   0
C7    1    0.807839    0.500453    0.104931    11.00000    0.04127    0.05610 =
         0.04147    0.01640    0.01432    0.01065
AFIX 137
H7A   2    0.949965    0.436911    0.117632    11.00000   -1.50000
H7B   2    0.869008    0.659639    0.134830    11.00000   -1.50000
H7C   2    0.728322    0.459619    0.019067    11.00000   -1.50000
AFIX   0
C8    1    0.295188    0.663068    0.405578    11.00000    0.05611    0.06674 =
         0.03411    0.00284    0.01038    0.02874
AFIX 137
H8A   2    0.336055    0.643095    0.486137    11.00000   -1.50000
H8B   2    0.113450    0.645067    0.380869    11.00000   -1.50000
H8C   2    0.387583    0.809737    0.406286    11.00000   -1.50000
AFIX   0
C9    1    0.077591    0.191638    0.368785    11.00000    0.04501    0.07329 =
         0.04293    0.01897    0.01815    0.01485
AFIX 137
H9A   2    0.154210    0.246619    0.455031    11.00000   -1.50000
H9B   2    0.028689    0.031847    0.345784    11.00000   -1.50000
H9C   2   -0.072171    0.243441    0.350049    11.00000   -1.50000
AFIX   0
C10   1    0.578460    0.023303    0.064067    11.00000    0.04675    0.04683 =
         0.03098    0.00726    0.01023    0.01881
AFIX  23
H10A  2    0.551117   -0.113527    0.088964    11.00000   -1.20000
H10B  2    0.759581    0.073019    0.065013    11.00000   -1.20000
AFIX   0
HKLF 4

REM  haoke4c_200K solution in P-1
REM R1 =  0.0527 for    1096 Fo > 4sig(Fo)  and  0.0679 for all    1503 data
REM     94 parameters refined using      0 restraints

END

WGHT      0.0906      0.0000

REM Highest difference peak  0.204,  deepest hole -0.210,  1-sigma level  0.039
Q1    1   0.5018  0.5165  0.3184  11.00000  0.05    0.20
Q2    1   0.3791  0.1754  0.1585  11.00000  0.05    0.17
Q3    1   0.2495  0.3987  0.2798  11.00000  0.05    0.17
Q4    1   0.7827  0.6430  0.0779  11.00000  0.05    0.16
Q5    1   0.3567  0.3686  0.3433  11.00000  0.05    0.16
Q6    1   0.3774  0.5425  0.2572  11.00000  0.05    0.15
Q7    1   0.5059  0.3092  0.1202  11.00000  0.05    0.14
Q8    1   0.5020  0.1501  0.2182  11.00000  0.05    0.13
Q9    1   0.7594  0.4323  0.1618  11.00000  0.05    0.13
Q10   1   0.5164  0.6993  0.2245  11.00000  0.05    0.13
Q11   1   0.6474  0.3047  0.2001  11.00000  0.05    0.12
Q12   1   0.4624  0.8711  0.4019  11.00000  0.05    0.12
Q13   1   0.4635 -0.1644  0.0824  11.00000  0.05    0.12
Q14   1   0.6231 -0.1041  0.0882  11.00000  0.05    0.12
Q15   1   0.2675  0.7989  0.3783  11.00000  0.05    0.12
Q16   1   0.0877  0.0667  0.4010  11.00000  0.05    0.11
Q17   1   0.1238  0.2369  0.3070  11.00000  0.05    0.11
Q18   1   0.6589  0.4527  0.1168  11.00000  0.05    0.11
Q19   1   0.2459  0.2063  0.3613  11.00000  0.05    0.10
Q20   1   0.8463  0.3418  0.0225  11.00000  0.05    0.10
Q21   1   0.0499 -0.0955  0.3504  11.00000  0.05    0.10
Q22   1   0.5665 -0.2310  0.1361  11.00000  0.05    0.10
Q23   1   0.6355  0.4900  0.2367  11.00000  0.05    0.10
Q24   1   0.8247  0.7947  0.1204  11.00000  0.05    0.10
Q25   1   0.9760  0.5702  0.1459  11.00000  0.05    0.10
;
_shelx_res_checksum              92312
_shelx_hkl_file
;
   0   2  -1 251124. 839.726   1
   0  -2   1 261815. 1557.80   3
   0  -4   2 193.690 60.8792   3
   0  -4   2 274.764 58.5641   2
   0   4  -2 160.363 27.4062   1
   0  -6   3 4455.82 403.956   3
   0  -8   4 552.977 177.861   3
   0  -7   4 5238.49 490.790   3
   0  -5   3 967.513 162.171   3
   0   5  -3 876.760 77.3080   1
   0   3  -2 97568.6 754.934   1
   0  -3   2 95311.0 1239.31   3
   0  -3   2 96682.7 1012.78   2
   0   1  -1 191381. 700.985   1
   0   1   0 80003.8 444.338   2
   0  -3   1 8726.34 345.113   3
   0  -3   1 8548.00 259.279   2
   0  -5   2-2.32579 32.6353   3
   0  -7   3 395.308 137.535   3
   0  -8   5 105.698 71.8004   3
   0  -6   4 1793.99 255.927   3
   0  -4   3 1068.93 153.727   3
   0   4  -3 1063.42 95.4050   1
   0   2  -2 5137.78 170.173   1
   0  -2   2 5164.59 173.850   1
   0  -2   0 15333.5 384.960   3
   0  -2   0 15436.4 288.610   2
   0   2   0 15581.2 285.516   2
   0  -4   1 476.977 72.2591   2
   0  -4   1 535.068 104.656   3
   0  -6   2 2838.76 318.805   3
   0  -8   3 398.803 146.578   3
   0  -7   5 60.9500 50.0000   3
   0   5  -4 9.52973 9.84816   1
   0  -5   4 4.21874 16.2684   3
   0  -3   3 12544.5 479.783   3
   0   3  -3 12175.2 335.323   1
   0  -3   3 11760.2 327.394   1
   0   1  -2 88139.8 705.982   1
   0   1   1 57909.6 408.125   1
   0  -1  -1 54997.4 568.092   3
   0   1   1 56065.3 447.117   2
   0  -3   0 24244.3 600.823   3
   0   3   0 24607.8 621.870   3
   0  -3   0 24242.3 456.396   2
   0  -5   1 515.711 119.602   3
   0  -5   1 412.287 81.6306   2
   0  -7   2 377.395 126.569   3
   0  -8   6 3.81114 70.7360   3
   0  -6   5 446.570 133.269   3
   0  -4   4 9750.20 345.560   1
   0   4  -4 9952.02 347.055   1
   0  -4   4 10368.8 518.283   3
   0   2  -3 291.903 50.7706   1
   0  -2   3 312.019 53.4810   1
   0  -2  -1 1554.67 96.7179   2
   0   2   1 1576.49 93.5920   2
   0   2   1 1428.13 68.2611   1
   0  -2  -1 1449.02 124.025   3
   0   2   1 1586.72 134.567   3
   0  -4   0 6576.58 286.670   2
   0  -4   0 6505.48 372.957   3
   0  -6   1 52.7225 38.8749   3
   0  -8   2 11.0549 30.9805   3
   0  -7   6 170.608 90.2808   3
   0   5  -5 2018.39 169.199   1
   0  -5   5 2195.34 272.250   3
   0   3  -4 312.517 62.7745   1
   0  -3   4 214.933 47.8994   1
   0   1  -3 6752.32 241.955   1
   0  -1  -2 3560.54 149.666   1
   0  -1  -2 3729.83 179.791   3
   0   1   2 3856.76 147.183   1
   0   3   1 10.4460 19.8071   2
   0   3   1 7.18985 6.18345   1
   0  -3  -1 17.1695 12.8512   2
   0   3   1-3.84769 11.2503   3
   0  -3  -1 7.72193 18.4259   3
   0  -5   0 90.4969 58.1362   3
   0  -5   0 98.3661 41.1121   2
   0  -7   1 65.2531 55.7181   3
   0   6  -6 132.845 46.0135   1
   0  -6   6 164.006 83.2601   3
   0  -4   5 269.351 63.7869   1
   0   4  -5 320.949 69.2200   1
   0  -4   5 403.779 103.800   3
   0   2  -4 30.9279 27.8101   1
   0   0  -3 1784.02 125.341   1
   0   2   2 9880.17 355.031   3
   0  -2  -2 9776.58 350.384   3
   0   2   2 9941.02 248.787   1
   0   2   2 9906.72 267.977   2
   0  -2  -2 9822.22 256.718   1
   0   4   1 6344.14 269.983   2
   0  -4  -1 5481.53 259.240   2
   0  -4  -1 5385.37 348.332   3
   0  -6   0 1295.40 215.593   3
   0  -8   1 398.048 138.559   3
   0  -7   7 33.4067 19.1962   3
   0   5  -6 346.946 75.4245   1
   0  -5   6 340.106 115.440   3
   0   3  -5 1086.44 129.739   1
   0  -3   5 1025.22 127.840   1
   0   1  -4 6153.29 268.780   1
   0   1   3 5736.20 219.227   1
   0  -1  -3 5690.06 231.046   1
   0  -1  -3 5309.37 238.553   3
   0   1   3 5702.00 251.131   3
   0  -3  -2 461.641 90.3092   3
   0   3   2 519.061 97.5599   3
   0   3   2 440.128 51.4436   1
   0   3   2 475.256 63.9991   2
   0  -3  -2 406.629 60.4163   2
   0  -5  -1 1145.00 181.794   3
   0  -5  -1 986.745 119.186   2
   0  -7   0 330.955 122.420   3
   0  -6   7 1177.09 227.104   3
   0   6  -7 1151.30 147.183   1
   0   4  -6 493.168 97.3757   1
   0   2  -5 2591.47 194.159   1
   0   0  -4 52739.1 781.641   1
   0   2   3 863.760 111.073   3
   0   2   3 785.851 84.4206   2
   0  -2  -3 934.174 118.981   3
   0  -2  -3 865.290 92.6133   1
   0   2   3 856.748 88.9618   1
   0  -4  -2 502.426 76.1849   2
   0  -4  -2 496.994 104.828   3
   0   4   2 364.982 42.6347   1
   0   4   2 670.128 90.7480   2
   0  -6  -1 32.2535 47.5214   3
   0  -8   0-5.47456 54.6319   3
   0  -7   8 115.707 78.6691   3
   0   5  -7 2057.26 217.743   1
   0  -5   7 1840.56 260.766   3
   0   3  -6 1002.61 143.837   1
   0   1  -5 3688.33 228.703   1
   0  -1  -4 231.141 55.7956   1
   0   1   4 222.277 56.0103   3
   0  -1  -4 219.396 52.6281   3
   0   1   4 202.871 47.3964   1
   0   3   3 629.860 86.3444   2
   0  -3  -3 510.921 74.1557   1
   0   3   3 444.434 67.6539   1
   0  -3  -3 551.622 112.949   3
   0  -5  -2 1080.98 180.523   3
   0  -7  -1 419.053 135.953   3
   0  -6   8 888.264 199.477   3
   0   6  -8 711.374 133.820   1
   0   4  -7 17.3866 16.9418   1
   0   2  -6 633.514 105.841   1
   0   0  -5 1525.18 150.997   1
   0  -2  -4 11213.6 388.929   1
   0   2   4 10928.0 425.799   3
   0   2   4 10659.8 355.594   2
   0  -2  -4 11176.2 442.943   3
   0   2   4 11136.8 363.639   1
   0  -4  -3 25528.5 827.220   3
   0   4   3 25843.8 548.476   2
   0   4   3 25252.8 452.723   1
   0  -6  -2 134.762 71.9729   3
   0  -8  -1 277.628 129.038   3
   0  -7   9-51.5524 65.3830   3
   0   5  -8 3891.95 326.863   1
   0   3  -7 4936.87 329.039   1
   0   1  -6 1920.83 184.204   1
   0   1   5 66027.7 957.611   1
   0   1   5 65981.2 1055.89   3
   0  -1  -5 66377.4 1040.35   1
   0   3   4 9127.73 338.254   2
   0   3   4 9435.63 332.631   1
   0  -3  -4 8973.53 445.260   3
   0  -3  -4 8971.27 350.841   1
   0   5   3 13074.7 429.249   2
   0  -5  -3 13274.1 679.010   3
   0  -7  -2 1467.65 268.272   3
   0   6  -9 5378.77 396.425   1
   0  -6   9 5547.94 507.491   3
   0   4  -8 8026.59 470.828   1
   0   2  -7 47147.9 988.779   1
   0   0   6 2543.88 263.971   3
   0   0  -6 2560.70 222.125   1
   0   2   5 26681.1 643.048   2
   0  -2  -5 25975.7 715.374   3
   0   2   5 27232.2 632.803   1
   0  -2  -5 26992.6 681.104   1
   0   4   4 15231.8 453.113   2
   0  -4  -4 14798.1 654.787   3
   0   4   4 15338.1 410.727   1
   0  -6  -3 91.2444 65.8787   3
   0  -8  -2 158.178 97.4979   3
   0  -7  10 604.642 193.614   3
   0   5  -9 28552.1 970.448   1
   0   3  -8 11007.3 527.545   1
   0   1  -7 415.759 95.9604   1
   0  -1  -6 1346.92 163.553   1
   0  -3  -5 1172.48 170.233   3
   0   3   5 1153.34 128.987   2
   0   3   5 1255.88 137.012   1
   0  -3  -5 1233.55 145.688   1
   0  -5  -4 2127.05 282.528   3
   0  -7  -3 1145.02 247.211   3
   0   6 -10 815.527 171.997   1
   0  -6  10 1110.70 243.123   3
   0   4  -9 112.186 67.8294   1
   0   2  -8 4643.85 334.848   1
   0   0  -7 2561.07 239.526   1
   0  -2  -6 18705.8 628.014   1
   0   2   6 19928.7 626.940   2
   0   4   5 52782.6 889.826   2
   0  -4  -5 53019.6 1290.61   3
   0  -6  -4 2508.35 343.286   3
   0   5 -10 16156.1 783.072   1
   0   3  -9 18197.6 718.397   1
   0   1  -8 1694.37 201.842   1
   0  -1  -7 68022.4 1249.66   1
   0  -3  -6 18113.0 620.447   1
   0  -3  -6 17151.4 665.922   3
   0   3   6 17281.9 551.956   2
   0  -5  -5 3149.77 354.897   3
   0  -7  -4 441.336 159.169   3
   0  -6  11 6587.43 587.256   3
   0   6 -11 6745.72 527.299   1
   0   4 -10 1434.95 222.430   1
   0   2  -9 12607.9 587.683   1
   0   0  -8 2803.72 266.439   1
   0  -2  -7 539.428 115.589   1
   0   4   6 1064.51 133.643   2
   0  -4  -6 1136.15 190.716   3
   0  -6  -5 62.6975 66.6739   3
   0   5 -11 2795.97 342.800   1
   0   3 -10 438.348 114.602   1
   0   1  -9 130.735 53.0219   1
   0  -1  -8 406.883 92.7690   1
   0  -3  -7 1293.77 185.649   3
   0   3   7 1389.54 170.392   2
   0  -3  -7 1414.32 187.536   1
   0  -5  -6 731.353 167.446   3
   0  -7  -5 387.052 137.410   3
   0   6 -12-72.8457 91.0889   1
   0   4 -11 43.3820 46.1382   1
   0   2 -10 255.328 94.7565   1
   0   0  -9 3594.46 323.985   1
   0  -2  -8 900.108 159.045   1
   0  -4  -7 1280.66 170.485   1
   0  -4  -7 1212.64 203.286   3
   0  -6  -6 94.9385 70.4150   3
   0   5 -12 112.920 66.2342   1
   0   3 -11 347.326 108.938   1
   0   1 -10 6247.59 446.652   1
   0  -1  -9 1000.25 169.598   1
   0  -3  -8 225.816 75.7658   1
   0   3   8 214.102 70.9704   2
   0  -5  -7 526.620 148.078   3
   0   6 -13 206.307 83.6958   1
   0   4 -12 51.5342 19.6721   1
   0   2 -11 1.09541 17.6490   1
   0   0 -10 176.450 75.1733   1
   0  -2  -9 24.8541 28.6060   1
   0  -4  -8-41.9591 62.5511   1
   0  -6  -7-74.3083 59.9239   3
   0   5 -13 39.7905 59.3351   1
   0   3 -12 18.9899 22.4558   1
   0   1 -11 31.4682 42.5161   1
   0  -1 -10 344.307 103.129   1
   0  -3  -9 1055.70 186.597   1
   0   3   9 975.350 164.296   2
   0  -5  -8 147.185 71.9664   3
   0   4 -13-21.8514 34.4757   1
   0   2 -12 172.434 81.8550   1
   0   0 -11 2009.40 275.422   1
   0  -2 -10 1497.00 233.499   1
   0   5 -14 343.694 135.270   1
   0   3 -13 109.519 88.0391   1
   0   1 -12 8310.16 577.843   1
   0  -1 -11 284.686 107.657   1
   0  -3 -10 477.786 136.766   1
   0   4 -14 1883.03 317.263   1
   0   2 -13 2672.75 345.846   1
   0   0 -12 1485.92 250.377   1
   0  -2 -11 82.4661 42.2486   1
   0   2  11 171.969 77.2357   2
   0   3 -14 9.44685 17.0171   1
   0   1 -13 881.051 205.662   1
   0  -1 -12 1189.18 223.731   1
   0  -3 -11 27.8958 26.2231   1
   0   2 -14 4159.31 447.491   1
   0   0 -13 4342.51 451.869   1
   0  -2 -12 5573.28 503.908   1
   0   2  12 5873.44 499.734   2
   0   1 -14 26166.8 1149.11   1
   0  -1 -13 5096.01 501.070   1
   0  -3 -12-24.3396 55.1554   1
   0   0 -14 628.900 201.063   1
   0  -2 -13-14.4083 65.7259   1
   0  -1 -14 683.473 199.769   1
  -1   2  14 43.9089 34.9924   2
   1  -3 -13 294.904 117.316   1
   1  -1 -14 30.3678 40.8903   1
   1  -2 -13 15.1941 51.1721   1
  -1   2  13-42.6834 80.2110   2
   1   0 -14 639.023 175.299   1
   1  -3 -12 1069.91 213.994   1
   1  -1 -13 77.0477 46.4803   1
   1   1 -14 6509.40 581.936   1
   1  -2 -12 1541.21 264.711   1
  -1   2  12 1515.99 255.898   2
   1   0 -13 5802.86 537.498   1
   1   2 -14 169.558 108.003   1
   1  -3 -11 33.8739 16.6501   1
  -1   3  11-34.1904 38.7517   2
   1  -1 -12 113.088 88.9543   1
   1   1 -13 1110.62 233.902   1
   1   3 -14 1019.21 231.502   1
  -1   2  11 3933.97 406.595   2
   1  -2 -11 4331.60 434.272   1
   1   0 -12 22872.5 1015.38   1
   1   2 -13 91.6583 72.8933   1
   1   4 -14 1501.08 290.331   1
  -1   3  10 1712.24 265.167   2
   1  -3 -10 1629.20 247.346   1
   1  -1 -11 255.308 94.4566   1
   1   1 -12 40204.6 1296.12   1
   1   3 -13 8125.62 622.917   1
   1   5 -14 27.6176 42.6950   1
  -1   4   9 407.286 108.001   2
  -1   2  10 13304.5 722.397   2
   1  -2 -10 12869.1 707.615   1
   1   0 -11 18471.9 850.737   1
   1   2 -12 160.407 93.4161   1
   1   4 -13 68.4206 63.7693   1
   1  -3  -9 450.565 121.442   1
  -1   3   9 489.177 132.900   2
   1  -1 -10 16.5496 38.5912   1
   1   1 -11 3994.93 384.793   1
   1   3 -12 3261.15 374.529   1
  -1  -5  13-5.34524 19.2050   3
   1   5 -13-4.32051 45.0575   1
  -1   4   8-42.4196 40.2766   2
   1  -2  -9 3285.49 336.034   1
  -1   2   9 3395.04 341.938   2
   1   0 -10 16272.6 750.036   1
   1   2 -11 83.8667 46.4832   1
   1   4 -12 1754.28 286.469   1
   1  -5  -7-13.7041 28.7830   3
   1  -3  -8 3979.84 340.485   1
  -1   3   8 4689.96 378.648   2
   1  -1  -9 4272.82 370.198   1
   1   1 -10 2554.35 284.036   1
   1   3 -11 118.933 62.8767   1
   1   5 -12 158.017 84.2849   1
  -1  -5  12 211.718 108.414   3
  -1   4   7 1436.27 191.802   2
   1  -4  -7 1208.25 178.016   3
   1  -2  -8 547.595 127.047   1
  -1   2   8 547.706 129.206   2
   1   0  -9 2.49547 30.7699   1
   1   2 -10 91.7730 54.5196   1
   1   4 -11 96.3990 60.8992   1
  -1  -6  12 59.9435 63.2194   3
  -1   5   6 24.0828 19.4372   2
   1  -5  -6 8.17983 16.3044   3
  -1   3   7 60.3285 53.3644   2
   1  -1  -8 167.649 69.8265   1
   1   1  -9 77.2716 26.5813   1
   1   3 -10 376.777 105.473   1
  -1  -5  11 131.410 87.6235   3
   1   5 -11 63.2088 59.3264   1
   1  -6  -5 122.144 62.6619   3
   1  -4  -6 408.861 99.7574   3
  -1   4   6 425.355 96.2800   2
   1  -2  -7 3463.21 301.768   1
  -1   2   7 3976.00 319.588   2
  -1   2   7 3809.13 286.801   3
   1   0  -8 11077.5 529.543   1
   1   2  -9 1045.38 171.661   1
   1   4 -10 79.5375 63.7596   1
  -1  -6  11 778.906 205.782   3
   1  -5  -5 1208.30 191.743   3
  -1   5   5 1156.99 158.941   2
  -1   3   6 906.602 141.233   2
   1  -3  -6 710.952 115.174   3
  -1   1   7 3701.71 250.937   3
   1  -1  -7 3885.65 304.823   1
   1   1  -8 4063.24 314.607   1
   1   3  -9 149.366 77.0483   1
  -1  -5  10 855.690 199.469   3
   1   5 -10 838.324 169.527   1
   1  -6  -4 563.799 142.830   3
   1  -4  -5 1943.27 212.556   3
  -1   4   5 1976.49 206.229   2
  -1   2   6 184.590 62.1155   2
   1  -2  -6 132.019 53.2772   1
  -1   2   6 218.210 61.9974   3
   1   0  -7 753.139 127.042   1
   1   2  -8 53.3160 39.9161   1
   1   4  -9 355.033 113.995   1
  -1  -6  10 575.469 167.888   3
   1  -7  -3 168.050 90.1126   3
  -1   5   4 178.592 53.8032   2
   1  -5  -4 233.849 83.0813   3
  -1   3   5 10.0157 12.8686   3
  -1   3   5-31.1545 39.7016   2
   1  -3  -5 33.6306 32.8709   3
   1  -1  -6 5114.19 320.811   1
  -1   1   6 5046.43 259.560   3
   1   1  -7 8099.35 411.897   1
   1   3  -8 118.895 74.0888   1
   1   5  -9 16301.2 693.987   1
  -1  -5   9 15593.9 812.976   3
   1  -6  -3 148.022 75.2528   3
  -1   6   3 261.626 83.6349   2
   1  -4  -4 15895.1 589.270   3
  -1   4   4 15539.5 491.489   1
  -1   4   4 16029.5 552.814   2
   1  -2  -5 43714.7 883.475   1
  -1   2   5 43051.3 883.578   2
  -1   2   5 44136.5 837.341   1
  -1   2   5 44599.8 755.403   3
   1   0  -6 2172.25 201.480   1
   1   2  -7 54906.4 1080.94   1
  -1  -4   8 27785.9 962.600   3
   1   4  -8 28563.7 863.928   1
  -1  -6   9 66.1798 40.5595   3
   1  -7  -2 2215.54 304.664   3
  -1   5   3 35520.8 828.318   2
   1  -5  -3 37153.7 998.059   3
   1  -3  -4 56.5792 25.7511   3
  -1   3   4 25.6844 14.7079   2
  -1   3   4 34.1212 22.1616   3
  -1   3   4 42.2227 24.2685   1
  -1   1   5 30781.0 567.947   3
  -1   1   5 30531.2 669.874   1
   1  -1  -5 30736.9 720.396   1
   1   1  -6 17246.7 550.002   1
   1   3  -7 127.082 57.0517   1
  -1  -5   8 1125.92 216.728   3
   1   5  -8 1054.27 166.856   1
  -1  -7   9 71.8687 65.3334   3
   1  -8  -1 376.988 131.587   3
   1  -6  -2 241.235 111.078   3
  -1   6   2 144.535 67.8172   2
  -1   4   3 26522.2 686.348   2
   1  -4  -3 25760.1 714.249   3
  -1   4   3 26051.1 587.644   1
   1  -2  -4 24165.3 510.201   3
  -1   2   4 23742.3 563.892   1
  -1   2   4 23732.3 486.962   3
  -1   2   4 23141.0 589.188   2
   1   0  -5 6.21895 14.6681   1
   1   2  -6 5721.23 322.321   1
  -1  -4   7 12817.1 642.743   3
   1   4  -7 12560.7 535.293   1
  -1  -6   8 34.9681 55.5551   3
   1  -7  -1 991.128 191.250   3
  -1   5   2 199.203 79.0705   2
   1  -5  -2 34.6706 13.8913   3
  -1   3   3 1755.19 169.075   2
  -1   3   3 1523.39 137.564   3
  -1   3   3 1822.75 149.279   1
   1  -3  -3 1803.09 166.134   2
   1  -3  -3 1755.79 157.557   3
   1  -1  -4 4520.52 251.159   1
  -1   1   4 4782.29 194.855   3
   1   1  -5 37015.3 739.730   1
   1   3  -6 264.011 71.0397   1
  -1  -3   6 245.199 79.8233   3
   1   5  -7 31372.2 817.177   1
  -1  -5   7 30445.1 1077.93   3
  -1  -7   8 3094.65 419.071   3
   1  -8   0 146.493 87.6662   3
   1  -6  -1 919.361 167.065   3
   1  -4  -2 32574.0 778.065   3
  -1   4   2 33572.2 612.975   1
  -1   4   2 32404.8 781.295   3
  -1   4   2 33630.4 737.813   2
  -1   2   3 200309. 1626.97   2
  -1   2   3 200504. 1518.18   1
  -1   2   3 200820. 1248.30   3
   1  -2  -3 201922. 1328.28   3
   1   0  -4 42753.7 734.708   1
  -1  -2   5 96577.1 1170.33   1
   1   2  -5 95775.5 1191.30   1
   1   4  -6 25190.9 687.565   1
  -1  -4   6 26182.6 890.724   3
  -1  -6   7 74.9891 29.5792   3
   1  -7   0 2168.61 297.669   3
  -1   5   1 43803.2 925.784   2
  -1   5   1 43369.5 663.776   1
   1  -5  -1 44045.5 1075.12   3
   1  -3  -2 16266.8 456.124   3
   1  -3  -2 16775.2 496.810   2
  -1   3   2 16650.3 483.522   2
  -1   3   2 16331.3 420.228   1
  -1   3   2 16497.1 457.915   3
  -1   1   3 3632.24 201.635   2
  -1   1   3 4028.75 139.949   3
   1   1  -4 8826.84 328.285   1
  -1  -3   5 15.4133 29.0974   3
  -1  -3   5-22.0214 28.1845   1
   1   3  -5 1.49286 19.0446   1
   1   5  -6 192.597 69.5894   1
  -1  -5   6 60.7295 54.7388   3
  -1  -7   7 315.796 131.267   3
   1  -8   1 1142.48 237.964   3
   1  -6   0 2622.64 287.121   3
  -1   4   1 1000.30 128.625   2
   1  -4  -1 998.746 133.583   2
   1  -4  -1 945.480 129.730   3
  -1   4   1 1070.18 103.737   1
  -1   2   2 1699.30 141.026   2
   1  -2  -2 1637.61 104.343   3
  -1   2   2 1656.40 127.587   1
  -1   2   2 1641.76 102.605   3
   1   0  -3 559.140 75.6760   1
   1   2  -4 1746.67 143.994   1
  -1  -2   4 1734.48 138.946   1
  -1  -2   4 1883.23 173.600   3
   1   4  -5 3003.42 214.160   1
  -1  -4   5 2678.56 183.955   1
  -1  -4   5 2761.61 273.948   3
  -1  -6   6 619.065 161.035   3
   1  -7   1 92.6354 52.3066   3
  -1   5   0 469.842 91.2757   2
  -1   5   0 472.443 62.4238   1
   1  -5   0 569.736 115.374   3
  -1   5   0 635.945 76.5992   1
   1  -3  -1 61.5799 27.2323   2
  -1   3   1 16.7593 12.3335   2
   1  -3  -1 55.4156 29.6493   3
  -1   1   2 14959.9 369.841   2
  -1  -1   3 41.7102 21.2921   3
   1   1  -3 41.3515 18.8759   1
  -1  -3   4 139.269 33.7205   1
  -1  -3   4 127.073 54.1113   3
   1   3  -4 156.014 44.1238   1
  -1  -5   5 1956.92 150.376   1
  -1  -5   5 1895.94 252.509   3
  -1  -7   6 100.106 93.0065   3
   1  -8   2 409.402 143.347   3
   1  -6   1 2195.67 262.246   3
   1  -4   0 846.763 120.880   3
  -1   4   0 987.562 130.712   2
   1  -2  -1 17840.4 329.967   3
  -1   2   1 17920.5 433.289   2
  -1   0   2 113546. 635.993   3
  -1  -2   3 14565.7 354.752   1
  -1  -2   3 14423.0 438.672   3
   1   2  -3 14551.5 362.575   1
  -1  -4   4 2537.20 152.195   1
  -1  -4   4 2533.78 251.272   3
  -1  -6   5 449.248 145.293   3
   1  -7   2 569.179 160.248   3
   1  -5   1 1970.93 214.930   3
  -1   5  -1 2127.43 141.827   1
  -1   3   0 4953.35 248.176   2
   1  -3   0 4870.10 247.262   2
   1  -3   0 4704.00 230.889   3
  -1   1   1 10024.3 281.247   2
  -1  -1   2 3109.09 154.765   3
  -1  -3   3-6.56675 15.1892   1
  -1  -3   3 9.72996 18.8632   3
  -1  -5   4 65.0561 46.8640   3
  -1  -7   5 41.9830 48.3428   3
   1  -8   3 50.3650 61.4324   3
   1  -6   2 21.2123 32.8579   3
   1  -4   1 548.055 96.7069   3
  -1   4  -1 518.562 75.6668   1
  -1   2   0 119.310 36.0791   2
  -1   0   1 206.723 27.8583   3
  -1  -2   2 4414.37 164.532   1
  -1  -2   2 4303.49 232.822   3
  -1  -4   3 5183.60 165.707   1
  -1  -4   3 5714.85 374.528   3
  -1  -6   4 102.887 59.2571   3
   1  -7   3 185.136 94.7301   3
  -1   5  -2 1170.36 118.366   1
   1  -5   2 847.973 142.024   3
   1  -3   1 88.6842 36.1045   3
  -1   3  -1 68.0533 32.7707   2
  -1   1   0 29174.6 452.960   2
  -1  -1   1 21336.5 426.507   3
  -1  -3   2 9959.28 211.526   1
  -1  -3   2 10794.4 444.107   3
  -1  -5   3 414.696 118.748   3
  -1  -7   4 128.584 97.4124   3
   1  -8   4 106.206 73.4108   3
   1  -6   3 204.765 83.9217   3
  -1   6  -3 147.762 35.1217   1
   1  -4   2 10398.0 457.827   3
  -1   4  -2 10701.2 340.396   1
  -1   2  -1 5252.79 224.284   2
  -1   0   0 260432. 1267.67   3
  -1  -2   1 15112.7 254.892   1
  -1  -2   1 15411.3 450.506   3
  -1  -4   2 203.731 50.7897   2
  -1  -4   2 176.531 70.4551   3
  -1  -6   3 767.179 174.685   3
   1  -7   4 1809.46 270.153   3
  -1   5  -3 181.153 50.2459   1
   1  -5   3 128.245 63.0256   3
  -1   3  -2 24846.9 493.769   1
  -1   1  -1 146605. 958.982   2
  -1  -1   0 496.390 68.6575   3
  -1  -3   1 205.671 35.6552   2
  -1  -3   1 155.404 54.4647   3
  -1  -5   2-10.6519 24.0440   2
  -1  -5   2 26.4748 34.1937   3
  -1  -7   3 137.146 77.5358   3
   1  -8   5 151.420 77.5679   3
   1  -6   4 141.343 81.4463   3
  -1   6  -4 86.2596 30.2649   1
  -1   4  -3 572.315 88.6535   1
  -1   2  -2 15.2335 17.4403   1
   1   0   1 179587. 819.713   2
  -1   0  -1 186606. 1246.52   3
  -1   0  -1 180822. 799.388   2
  -1  -2   0 79694.1 527.903   1
  -1  -2   0 80716.0 1069.36   3
  -1  -4   1 1166.33 96.8632   2
  -1  -4   1 1219.68 178.847   3
  -1  -6   2 9387.96 622.134   3
   1  -7   5 262.972 109.374   3
   1  -5   4 126.261 66.4275   3
  -1   5  -4 165.239 50.8312   1
  -1   3  -3 61642.7 842.006   1
  -1  -1  -1 84951.7 667.628   1
  -1  -1  -1 84383.1 1023.15   3
  -1  -3   0 13013.9 500.869   3
  -1  -3   0 12295.9 239.930   2
  -1  -5   1 1361.66 125.337   2
  -1  -5   1 1451.72 217.174   3
  -1  -7   2 44.7025 49.0824   3
   1  -8   6 362.315 128.113   3
   1  -6   5 326.218 108.227   3
  -1   6  -5 411.380 87.3014   1
  -1   4  -4 20783.3 561.735   1
  -1   2  -3 84.0824 26.1054   1
  -1   0  -2 581328. 2563.23   3
  -1   0  -2 586063. 2085.86   1
  -1  -2  -1 72416.0 593.210   1
  -1  -2  -1 71833.9 1079.37   3
  -1  -4   0 150.563 58.3258   3
  -1  -4   0 131.953 28.1192   2
  -1  -6   1-24.1552 41.3960   3
   1  -7   6 4804.57 466.578   3
  -1   5  -5-1.50927 12.1637   1
   1  -3   4 21124.6 582.746   1
  -1   3  -4 20423.7 524.845   1
  -1   1  -3 97193.5 966.834   1
  -1  -1  -2 314.320 50.2908   1
  -1  -1  -2 195.476 51.5397   3
  -1  -3  -1 98.9489 18.1750   1
  -1  -3  -1 153.072 58.2681   3
  -1  -5   0 901.912 169.413   3
  -1  -7   1 0.70189 45.5239   3
   1  -8   7 80.5824 80.2348   3
   1  -6   6-86.5388 65.7882   3
  -1   6  -6-30.5981 32.5947   1
  -1   4  -5 163.372 56.0602   1
  -1   2  -4 1391.41 133.685   1
  -1   0  -3 85031.6 892.537   1
  -1  -2  -2 26107.7 718.620   3
  -1  -2  -2 26292.0 442.906   1
  -1  -4  -1 328.326 98.7713   3
  -1  -6   0 1532.71 251.485   3
   1  -7   7 829.114 199.997   3
  -1   5  -6 481.786 105.652   1
  -1   3  -5 6544.81 323.068   1
  -1   1  -4 166358. 1409.75   1
  -1  -1  -3 364.462 59.7004   1
  -1  -1  -3 314.308 72.8025   3
   1   1   3 434.707 71.9249   1
  -1  -3  -2 10624.5 269.936   1
  -1  -3  -2 11304.2 526.402   3
  -1  -5  -1 27.3740 36.4307   3
  -1  -7   0 46.2982 49.6844   3
   1  -6   7 125.077 69.6953   3
  -1   6  -7 67.7696 37.7083   1
  -1   4  -6 6308.76 359.080   1
  -1   2  -5 9416.73 373.795   1
  -1   0  -4 8809.39 323.159   1
  -1  -2  -3 440.988 67.9512   1
   1   2   3 296.399 37.1611   2
   1   2   3 528.926 87.1180   1
  -1  -2  -3 417.599 98.0711   3
  -1  -4  -2 115.870 63.4042   3
  -1  -6  -1 45.3164 64.6664   3
   1  -7   8 104.923 32.5730   3
  -1   5  -7 2135.54 241.716   1
  -1   3  -6 195.015 57.5486   1
  -1   1  -5 96.8830 35.7502   1
  -1  -1  -4 10.1866 5.70833   3
   1   1   4 40.9479 26.4759   1
  -1  -1  -4 27.3958 17.0495   1
  -1  -3  -3 1666.83 129.761   1
   1   3   3 1437.14 67.8523   2
  -1  -3  -3 1631.31 210.286   3
  -1  -5  -2 471.959 135.532   3
  -1  -7  -1 150.672 110.732   3
  -1   6  -8-30.8316 66.1098   1
  -1   4  -7 84.1615 37.8878   1
  -1   2  -6 458.344 90.5053   1
  -1   0  -5 293.391 65.7096   1
   1   0   5 396.566 84.0794   1
  -1  -2  -4 84.2150 34.3725   1
  -1  -2  -4 72.5827 45.3293   3
   1   2   4 119.464 48.1100   1
  -1  -4  -3 11.6862 23.5150   3
  -1  -4  -3 15.4281 14.7124   1
  -1  -6  -2 43.4043 46.7482   3
   1  -7   9 335.472 133.259   3
  -1   5  -8 855.334 159.125   1
  -1   3  -7 1872.50 204.893   1
  -1   1  -6 14715.6 499.838   1
  -1  -1  -5 3746.04 247.367   1
   1   1   5 4165.85 273.813   1
  -1  -1  -5 3585.84 286.050   3
  -1  -3  -4 111.086 59.3506   3
   1   3   4 56.4878 44.4676   1
   1   3   4 39.0125 19.2397   2
  -1  -3  -4 44.9986 61.3971   1
  -1  -5  -3 1177.87 221.321   3
  -1  -7  -2 291.998 145.431   3
  -1   6  -9 792.778 161.873   1
  -1   4  -8 117.610 50.1956   1
  -1   2  -7 2009.39 200.803   1
  -1   0  -6 821.594 118.568   1
   1   2   5 35.5605 17.3786   1
  -1  -2  -5 44.3646 33.0250   1
  -1  -2  -5 68.6311 46.0062   3
  -1  -4  -4 78.5974 34.6107   1
  -1  -4  -4 125.309 82.1544   3
  -1  -6  -3 28.1215 40.6450   3
   1  -7  10 225.509 95.5932   3
  -1   5  -9 1174.82 198.515   1
  -1   3  -8 372.192 96.8504   1
  -1   1  -7 73.8217 29.6379   1
  -1  -1  -6 69.2537 31.4706   1
  -1  -3  -5 2749.29 215.674   1
   1   3   5 2570.51 152.717   2
   1   3   5 3240.13 254.046   1
  -1  -3  -5 2680.91 291.499   3
  -1  -5  -4 780.118 189.457   3
  -1  -7  -3 742.522 221.795   3
  -1   6 -10 80.0885 65.8398   1
  -1   4  -9 13.5815 22.6620   1
  -1   2  -8 3722.57 295.687   1
  -1   0  -7 5892.93 361.727   1
  -1  -2  -6-17.9623 26.5795   1
  -1  -2  -6 11.8947 21.7814   3
  -1  -4  -5 23461.5 967.937   3
  -1  -4  -5 22788.5 611.879   1
  -1  -6  -4 2779.20 387.730   3
  -1   5 -10 8368.77 571.185   1
  -1   3  -9 18181.3 725.827   1
  -1   1  -8 194.424 68.1196   1
  -1  -1  -7 32905.5 874.087   1
   1   3   6 24152.2 529.375   2
  -1  -3  -6 24982.5 920.823   3
  -1  -3  -6 25249.2 721.872   1
  -1  -5  -5-102.333 87.0742   3
  -1   6 -11 17084.1 893.400   1
  -1   4 -10 2511.84 291.632   1
  -1   2  -9 798.076 149.576   1
  -1   0  -8 4867.56 352.175   1
  -1  -2  -7 135.611 62.9567   1
  -1  -4  -6 241.642 97.3964   3
  -1  -6  -5 747.138 213.436   3
  -1   5 -11 1540.74 261.146   1
  -1   3 -10 224.240 90.8178   1
  -1   1  -9 50.9984 42.9726   1
  -1  -1  -8 8529.42 479.579   1
  -1  -3  -7 22670.4 743.096   1
  -1  -3  -7 22450.1 906.018   3
  -1  -5  -6 257.495 108.889   3
  -1   6 -12 1614.12 290.569   1
  -1   4 -11 1321.62 223.171   1
  -1   2 -10 290.847 102.643   1
  -1   0  -9 14263.0 642.542   1
  -1  -2  -8 2234.80 249.041   1
  -1  -4  -7 11619.9 713.674   3
  -1  -6  -6 1231.59 276.922   3
  -1   5 -12 4948.30 482.809   1
  -1   3 -11 9506.63 579.242   1
  -1   1 -10 10.9779 17.2768   1
  -1  -1  -9 7086.99 466.014   1
  -1  -3  -8 6584.18 429.588   1
  -1  -5  -7-2.84387 35.2360   3
  -1   6 -13 4896.86 530.757   1
  -1   4 -12 338.085 120.873   1
  -1   2 -11 456.891 125.834   1
  -1   0 -10 344.065 108.064   1
  -1  -2  -9 79.1464 53.8128   1
  -1  -4  -8 220.283 108.692   3
  -1   5 -13 107.108 85.3512   1
  -1   3 -12 36.2643 44.7335   1
  -1   1 -11 272.766 96.4422   1
  -1  -1 -10-15.8363 25.8179   1
  -1  -3  -9 1475.92 220.909   1
  -1  -5  -8 78.6475 82.1978   3
  -1   4 -13-32.8603 47.3688   1
  -1   2 -12 942.763 189.333   1
  -1   0 -11 199.526 85.4398   1
  -1  -2 -10 143.103 42.1868   1
  -1   3 -13 23.2650 36.7106   1
  -1   1 -12 965.157 196.322   1
  -1  -1 -11 288.961 100.767   1
  -1  -3 -10 64.6885 52.7253   1
  -1   2 -13 51.8846 67.6831   1
  -1   0 -12-49.4174 76.2774   1
  -1  -2 -11 15.4012 28.5214   1
  -1   3 -14-2.65371 36.5627   1
  -1   1 -13 52.0881 30.8691   1
  -1  -1 -12 101.322 82.9654   1
  -1   2 -14 1303.92 243.943   1
  -1   0 -13 312.634 117.069   1
  -1  -2 -12 1168.88 230.082   1
  -1  -1 -13 952.828 219.954   1
  -1  -2 -13 237.645 118.978   1
  -2   2  14 1329.67 246.698   2
  -2   3  13 180.752 128.108   2
  -2   1  14-11.5452 47.4074   2
   2  -1 -14 30.7661 65.1921   1
  -2   2  13 18.5562 16.5731   2
   2   0 -14 471.551 157.157   1
  -2   3  12 416.326 164.228   2
   2  -1 -13-20.1055 55.0840   1
  -2   1  13 52.2259 44.6651   2
   2   1 -14-16.7367 39.9894   1
  -2   4  11 1487.66 276.106   2
  -2   2  12 470.295 147.621   2
   2   0 -13-0.33029 70.5638   1
   2   2 -14 52.3093 83.2998   1
  -2  -4  15 193.555 211.581   3
  -2   3  11 49.2285 99.4155   2
  -2   1  12 67.9906 41.9880   2
   2  -1 -12-43.1187 49.8120   1
   2   1 -13 304.202 126.392   1
   2   3 -14 112.159 90.9500   1
  -2   4  10 1146.64 231.670   2
  -2   2  11 33.0209 22.0630   2
   2   0 -12 5570.24 499.972   1
   2   2 -13 101.148 73.8155   1
  -2  -4  14 1671.05 393.227   3
   2   4 -14 1000.87 239.279   1
  -2   3  10 1774.91 286.242   2
   2  -1 -11 4000.91 406.314   1
   2   1 -12 3816.58 403.578   1
   2   3 -13 1131.40 239.443   1
   2   5 -14 31.1918 21.3573   1
  -2   4   9 192.686 67.0474   2
  -2   2  10 849.451 177.967   2
   2   0 -11 2440.35 309.171   1
   2   2 -12 43.8640 57.8784   1
  -2  -4  13 94.0786 90.7872   3
   2   4 -13 147.096 108.124   1
  -2   5   8 67.2653 58.9132   2
  -2   3   9 234.720 87.9011   2
   2  -1 -10 3341.19 352.058   1
   2   1 -11 3894.25 390.939   1
   2   3 -12 5027.74 486.203   1
  -2  -5  13 58.4421 75.1598   3
   2   5 -13 179.382 97.8161   1
  -2   4   8-45.5658 46.3286   2
  -2   2   9 9802.41 595.278   2
   2   0 -10 91532.2 1815.56   1
   2   2 -11 14856.5 763.565   1
  -2  -4  12 124.482 92.8032   3
   2   4 -12 96.0030 65.3922   1
  -2   5   7 210.663 89.6039   2
  -2   3   8 17943.7 794.750   2
   2  -1  -9 25613.1 900.896   1
   2   1 -10 2440.96 287.308   1
   2   3 -11 1187.44 219.589   1
  -2  -3  11 1457.32 249.987   3
  -2  -5  12 44.1399 71.8421   3
   2   5 -12-54.1007 39.7998   1
  -2   4   7 121.348 62.7877   2
  -2   2   8 630.350 139.774   2
  -2   2   8 488.654 90.1648   3
   2   0  -9 341.861 103.676   1
   2   2 -10 1003.34 189.516   1
  -2  -4  11 75.5365 68.6692   3
   2   4 -11-3.46869 23.0586   1
  -2   5   6 83.8032 61.9980   2
  -2   3   7 1693.44 224.155   2
   2  -1  -8 9224.40 501.729   1
  -2   1   8 9448.07 374.860   3
  -2   1   8 8903.01 496.391   2
   2   1  -9 3194.39 311.808   1
   2   3 -10 4241.90 394.720   1
  -2  -3  10 4212.57 387.440   3
   2   5 -11-6.90853 16.5585   1
  -2  -5  11 124.652 123.840   3
  -2   6   5 89.4177 57.8666   2
   2  -4  -6 1440.32 151.681   3
  -2   4   6 1675.41 220.388   2
  -2   2   7 114.754 34.7236   3
  -2   2   7 123.219 55.7190   2
   2   0  -8 18250.8 707.289   1
   2   2  -9 551.808 131.372   1
   2   4 -10 757.004 160.276   1
  -2  -4  10 907.122 193.113   3
  -2  -6  11 50.5498 54.5426   3
   2  -5  -5 121.234 44.2509   3
  -2   5   5 159.532 60.6165   2
  -2   3   6 1599.96 202.710   2
  -2   3   6 1417.71 119.153   3
  -2   1   7 2831.46 267.751   2
  -2   1   7 2913.25 184.261   3
   2   1  -8 892.271 151.516   1
  -2  -3   9 181.960 81.9144   3
   2   3  -9 117.310 49.8308   1
  -2  -5  10-4.87585 44.7406   3
   2  -6  -4 235.896 78.9943   3
  -2   6   4 226.916 82.5876   2
   2  -4  -5 658.918 95.3415   3
  -2   4   5 708.185 136.213   2
  -2   4   5 751.278 101.742   3
  -2   2   6 91.2944 28.1413   3
  -2   2   6 88.5484 40.1702   2
   2   0  -7 64.5469 40.4647   1
  -2  -2   8 357.962 98.0942   3
   2   2  -8 312.687 90.3205   1
  -2  -4   9 798.043 174.556   3
   2   4  -9 617.141 131.935   1
  -2  -6  10 172.376 103.900   3
   2  -5  -4 78.6271 40.6499   3
  -2   5   4 0.82781 55.6126   2
  -2   3   5 563.274 111.766   2
  -2   3   5 499.865 66.0380   3
  -2   1   6 3736.98 285.009   2
  -2   1   6 3849.53 179.685   3
   2   1  -7 1358.47 176.012   1
  -2  -3   8 141.720 63.4893   3
   2   3  -8 164.659 64.4928   1
  -2  -5   9 1112.42 215.893   3
  -2   6   3 742.064 149.049   2
   2  -6  -3 685.502 130.998   3
  -2   4   4 202.225 74.1348   2
   2  -4  -4 83.7368 32.0438   3
  -2   2   5 498.980 47.6823   3
  -2   2   5 537.509 107.251   2
   2   2  -7 1858.24 204.187   1
  -2  -2   7 1988.83 211.011   3
  -2  -4   8 669.485 153.541   3
  -2  -6   9 64.6276 14.6871   3
  -2   7   2 238.809 94.5985   2
   2  -7  -2 337.463 107.733   3
   2  -5  -3 968.840 137.643   3
  -2   5   3 941.601 150.328   2
   2  -3  -4 1449.00 110.514   3
  -2   3   4 1571.07 187.216   2
  -2   1   5 9363.15 423.609   2
  -2   1   5 9021.39 222.690   3
  -2  -1   6 1083.42 129.916   3
  -2  -3   7 193.918 77.5079   3
  -2  -5   8 61.5983 56.2345   3
  -2   6   2 1147.20 187.533   2
   2  -6  -2 921.712 152.912   3
  -2   4   3 594.858 117.636   2
   2  -4  -3 540.328 85.6464   3
  -2   2   4-0.49254 14.6259   2
  -2   0   5 1374.91 111.330   3
  -2  -2   6 111.677 46.1819   3
  -2  -4   7 9273.46 543.192   3
  -2  -6   8 312.997 119.016   3
   2  -7  -1 66.8754 44.9721   3
  -2   5   2 2211.50 222.679   2
   2  -5  -2 2186.72 205.621   3
  -2   3   3 3326.07 247.656   1
  -2   3   3 3344.90 262.398   2
   2  -3  -3 3137.15 154.410   3
  -2   1   4 3310.89 238.890   2
  -2  -1   5 73039.9 1007.11   3
  -2  -3   6 18239.8 671.166   3
  -2  -5   7 4623.28 437.499   3
  -2   6   1 8130.64 484.422   2
   2  -6  -1 8659.65 486.504   3
  -2   4   2 9158.71 440.783   2
   2  -4  -2 9497.56 370.238   3
  -2   2   3 106008. 1365.24   2
  -2   0   4 6520.75 214.902   3
  -2   0   4 6048.61 305.396   2
  -2  -2   5 8145.08 368.145   1
  -2  -2   5 7767.35 374.631   3
  -2  -4   6 19585.6 785.257   3
  -2  -6   7 408.939 142.167   3
   2  -7   0 1082.16 197.373   3
  -2   5   1 49503.2 1078.00   2
   2  -5  -1 50708.3 1019.67   3
   2  -3  -2 38705.0 556.454   3
  -2   3   2 38332.3 855.023   2
  -2   1   3 2705.13 203.839   2
  -2  -1   4 7860.69 308.691   3
  -2  -3   5 140.181 64.0241   3
  -2  -3   5 143.038 51.0988   1
  -2  -5   6 954.395 198.498   3
  -2  -7   7 745.897 209.743   3
   2  -8   1 1202.95 227.593   3
  -2   6   0 3472.03 314.439   2
  -2   6   0 3433.40 241.412   1
   2  -6   0 3762.64 323.058   3
   2  -4  -1 158.370 48.2561   3
  -2   4   1 137.280 57.6539   2
  -2   2   2 2945.15 220.107   2
   2  -2  -2 2475.74 82.0373   3
  -2   0   3 172.190 34.7899   3
  -2   0   3 176.384 51.8168   2
   2   0  -3 211.256 45.9791   3
  -2  -2   4 16515.4 487.033   1
  -2  -2   4 16454.6 540.895   3
  -2  -4   5 51113.9 854.100   1
  -2  -4   5 51001.8 1257.59   3
  -2  -6   6 3823.79 441.288   3
   2  -7   1 62.5104 50.6373   3
  -2   5   0 18657.0 660.203   2
   2  -5   0 18014.1 601.966   3
  -2   3   1 64832.7 1072.76   2
   2  -3  -1 64784.3 765.644   3
  -2   1   2 32573.1 664.547   2
   2  -1  -2 31942.1 309.446   3
  -2  -1   3 199527. 1647.42   1
   2   1  -3 200522. 1566.86   3
  -2  -1   3 198663. 1589.67   3
  -2  -3   4 28581.0 609.728   1
  -2  -3   4 28049.1 806.568   3
  -2  -5   5 3672.77 378.358   3
  -2  -7   6 954.659 238.674   3
   2  -8   2 1672.09 275.982   3
  -2   6  -1 19689.2 589.699   1
   2  -6   1 19483.9 729.076   3
   2  -4   0 177.304 56.0469   3
  -2   4   0 152.865 60.3857   2
  -2   2   1 50894.0 870.036   2
  -2   0   2 2246.15 160.766   2
  -2   0   2 2176.49 129.705   3
   2   0  -2 2337.83 134.490   3
  -2  -2   3 7918.65 318.079   1
  -2  -2   3 7729.25 370.907   3
  -2  -4   4 4304.43 218.500   1
  -2  -4   4 4167.34 355.032   3
  -2  -6   5 71.9834 74.4552   3
   2  -7   2 387.588 110.733   3
  -2   5  -1 8265.16 438.757   2
  -2   5  -1 8078.07 375.930   1
   2  -5   1 8382.47 422.902   3
  -2   3   0 8391.71 373.286   2
   2  -1  -1 9.29728 6.53839   3
  -2   1   1 0.77667 5.94780   2
  -2  -1   2-21.7567 17.3414   3
  -2  -1   2 13.3364 11.9021   2
  -2  -3   3 990.882 102.256   1
  -2  -3   3 872.510 139.308   3
  -2  -5   4 935.733 185.351   3
  -2  -7   5 1190.45 266.166   3
   2  -8   3-30.8563 37.9498   3
   2  -6   2 301.082 126.254   3
  -2   6  -2-11.3729 43.9034   1
  -2   4  -1 22.5223 39.9397   2
  -2   2   0 1585.57 152.807   2
   2   0  -1 3407.77 184.675   2
  -2   0   1 3552.70 192.057   3
  -2   0   1 3612.32 187.982   2
   2   0  -1 3541.01 180.123   3
  -2  -2   2 69.0286 33.5789   3
  -2  -4   3 2372.34 137.778   1
  -2  -4   3 2517.98 271.201   3
  -2  -6   4 80.5471 76.5577   3
   2  -7   3 309.933 104.306   3
   2  -5   2-5.04540 15.6402   3
  -2   5  -2 41.9901 28.2529   1
  -2   3  -1 996.814 131.776   2
  -2   1   0 47724.4 755.025   2
   2  -1   0 48258.6 686.496   3
  -2  -1   1 11929.8 412.015   3
  -2  -1   1 11731.0 300.315   2
  -2  -3   2 2680.02 156.922   1
  -2  -3   2 2596.36 252.741   3
  -2  -5   3 1649.61 249.920   3
  -2  -7   4 302.226 126.861   3
   2  -8   4-124.776 72.9949   3
   2  -6   3 105.778 61.0714   3
  -2   6  -3 90.2493 23.2575   1
  -2   4  -2 71.7500 43.7629   2
  -2   4  -2 67.6654 41.0207   1
  -2   2  -1 512.202 86.2124   2
   2   0   0 29.7348 14.2415   2
  -2   0   0 42.6842 23.2729   2
  -2   0   0 40.0268 28.4584   3
  -2  -2   1 0.35684 5.19605   2
  -2  -2   1-5.39739 20.2906   3
  -2  -4   2 53.0926 30.8767   3
  -2  -4   2 58.2315 18.2510   1
  -2  -4   2 91.1456 35.7029   2
  -2  -6   3 76.6679 49.3399   3
   2  -7   4 381.414 119.346   3
  -2   5  -3 1585.03 174.339   1
  -2   3  -2 1382.00 154.927   2
  -2   1  -1 879.362 97.7345   2
   2  -1   1 853.243 96.5678   2
   2  -1   1 784.747 96.4580   3
  -2  -1   0 722.168 65.9653   2
  -2  -1   0 691.602 109.261   3
  -2  -3   1 2020.03 97.4344   2
  -2  -3   1 2675.40 254.808   3
  -2  -5   2 357.020 112.505   3
  -2  -7   3 127.037 80.6015   3
   2  -8   5 52.5507 41.2845   3
   2  -6   4 2.98476 25.7355   3
  -2   6  -4 54.2453 44.6742   1
  -2   4  -3 20.7306 15.0599   1
  -2   2  -2 4747.89 256.635   2
  -2   0  -1 8920.30 257.210   2
   2   0   1 9117.64 284.587   2
  -2   0  -1 8533.44 362.715   3
  -2  -2   0 5284.02 330.825   3
  -2  -4   1 789.539 154.498   3
  -2  -6   2 169.660 73.3229   3
   2  -7   5 89.9738 59.8290   3
  -2   5  -4 2786.37 244.100   1
  -2   3  -3 36.2043 40.0846   1
  -2   1  -2 97364.6 995.641   2
   2  -1   2 97340.7 1001.15   2
   2   1   1 4791.55 165.257   2
  -2  -1  -1 5189.24 312.035   3
  -2  -3   0 2233.63 131.890   1
  -2  -3   0 2241.77 239.140   3
  -2  -5   1 1283.91 216.810   3
  -2  -7   2 382.056 145.236   3
   2  -8   6 297.685 120.520   3
  -2   6  -5 360.427 94.3627   1
  -2   4  -4 11035.8 456.367   1
  -2   2  -3 36954.8 754.258   1
  -2   0  -2 11088.7 439.524   3
   2   0   2 11278.0 314.512   2
  -2   0  -2 10919.0 381.231   1
  -2  -2  -1 2309.70 151.629   1
  -2  -2  -1 2266.41 236.378   3
  -2  -4   0 28.7692 27.0572   3
  -2  -6   1-9.07960 38.8561   3
   2  -7   6 1242.23 234.559   3
  -2   5  -5 423.568 106.224   1
  -2   3  -4 937.370 130.565   1
  -2   1  -3 56.5712 36.6148   1
   2  -1   3 41.6951 29.9570   2
   2   1   2 5155.66 177.583   2
  -2  -1  -2 5444.22 249.469   1
  -2  -1  -2 5096.94 337.076   3
  -2  -3  -1-18.2944 20.1099   3
  -2  -3  -1 18.3987 12.7601   1
  -2  -5   0 4089.05 395.180   3
  -2  -7   1 1394.15 278.896   3
   2  -8   7 346.520 143.453   3
  -2   6  -6 52.9759 57.8448   1
  -2   4  -5 3296.35 264.073   1
  -2   2  -4 41599.9 807.137   1
   2   0   3 9696.87 301.167   2
  -2   0  -3 9374.28 358.634   1
  -2   0  -3 9754.87 442.216   3
  -2  -2  -2 24674.3 794.011   3
  -2  -2  -2 25542.9 543.218   1
  -2  -4  -1 66.1789 44.9467   3
  -2  -4  -1 25.3387 10.3843   1
  -2  -6   0 1713.27 283.384   3
   2  -7   7 1330.86 254.108   3
  -2   5  -6 816.917 145.682   1
  -2   3  -5 9615.30 435.377   1
   2  -1   4 332051. 2121.14   2
  -2   1  -4 331291. 2211.62   1
   2   1   3 62708.0 666.224   2
  -2  -1  -3 62845.6 919.526   1
  -2  -1  -3 62983.3 1209.61   3
  -2  -3  -2 12.8213 8.96623   1
  -2  -3  -2-10.9276 12.3194   3
  -2  -5  -1 1849.72 279.251   3
  -2   6  -7 205.903 80.8314   1
  -2   4  -6 18635.2 652.448   1
  -2   2  -5 51899.8 945.946   1
  -2   0  -4 54.8922 22.0375   1
   2   0   4 145.330 48.2318   2
  -2  -2  -3 702.276 97.7806   1
  -2  -2  -3 696.145 141.303   3
  -2  -4  -2 41.9132 17.7014   1
  -2  -4  -2 44.2648 39.9796   3
  -2  -6  -1 239.416 111.326   3
  -2   7  -8 304.467 109.188   1
  -2   5  -7 470.290 113.229   1
  -2   3  -6 82.3675 54.0983   1
  -2   1  -5 6806.79 339.936   1
  -2  -1  -4 7990.80 468.715   3
   2   1   4 8163.08 276.448   2
  -2  -1  -4 8018.62 355.236   1
  -2  -3  -3 119.129 36.7137   1
  -2  -3  -3 219.459 93.4662   3
  -2  -5  -2 2598.42 345.272   3
  -2   6  -8 0.40636 22.3599   1
  -2   4  -7 3636.44 297.773   1
  -2   2  -6 30402.4 762.507   1
   2   0   5 566.867 84.9596   2
  -2   0  -5 577.998 102.824   1
  -2  -2  -4 8456.44 508.082   3
  -2  -2  -4 7877.48 350.240   1
  -2  -4  -3 186.689 84.6695   3
  -2  -6  -2 175.847 95.5248   3
  -2   7  -9 207.631 92.7819   1
  -2   5  -8 3399.82 320.096   1
  -2   3  -7 943.660 144.213   1
  -2   1  -6 18161.8 584.352   1
   2   1   5 712.018 94.1287   2
  -2  -1  -5 744.877 115.738   1
  -2  -1  -5 722.162 144.518   3
  -2  -3  -4 1065.74 128.130   1
  -2  -3  -4 1195.27 212.279   3
  -2  -5  -3 47.7099 53.3467   3
  -2   6  -9 1053.74 206.573   1
  -2   4  -8-9.94299 28.5092   1
  -2   2  -7 704.702 124.567   1
  -2   0  -6 548.332 106.839   1
   2   2   5 48.2613 25.2920   2
  -2  -2  -5 47.1471 38.6063   3
  -2  -2  -5 20.5302 25.1652   1
  -2  -4  -4-14.0181 69.5385   3
  -2  -6  -3 42.2599 74.5219   3
  -2   7 -10 8.18216 29.6317   1
  -2   5  -9-36.2280 53.4145   1
  -2   3  -8 81.0909 47.5206   1
  -2   1  -7 10.3681 29.9520   1
  -2  -1  -6 287.051 74.1286   1
  -2  -3  -5 681.671 111.086   1
  -2  -3  -5 702.635 163.277   3
  -2  -5  -4 270.936 110.401   3
  -2   6 -10 62.2118 30.0374   1
  -2   4  -9 365.531 104.456   1
  -2   2  -8 1166.66 165.594   1
  -2   0  -7 645.185 123.760   1
  -2  -2  -6 672.755 122.424   1
  -2  -2  -6 793.066 164.922   3
  -2  -4  -5 1590.99 268.820   3
  -2  -6  -4 523.713 197.849   3
  -2   7 -11 248.288 103.491   1
  -2   5 -10-85.3089 76.8451   1
  -2   3  -9 44.0881 33.5908   1
  -2   1  -8 1771.69 210.290   1
  -2  -1  -7-4.61763 36.0307   1
  -2  -3  -6 678.982 119.439   1
  -2  -3  -6 820.390 183.600   3
  -2  -5  -5 18.9202 35.2103   3
  -2   6 -11 810.492 200.410   1
  -2   4 -10 74.5530 15.8123   1
  -2   2  -9 147.350 55.4233   1
  -2   0  -8 87.7102 46.7603   1
  -2  -2  -7-2.92188 21.4182   1
  -2  -4  -6 621.794 167.474   3
  -2   5 -11-14.6044 21.4362   1
  -2   3 -10 278.401 87.6154   1
  -2   1  -9 254.765 84.3180   1
  -2  -1  -8 994.202 175.979   1
  -2  -3  -7 12398.3 559.762   1
  -2  -3  -7 12859.5 763.804   3
  -2  -5  -6 634.054 182.343   3
  -2   6 -12 1769.93 315.635   1
  -2   4 -11 2745.57 327.915   1
  -2   2 -10-12.1335 48.9612   1
  -2   0  -9 12634.8 627.249   1
  -2  -2  -8 10116.1 543.546   1
  -2  -4  -7 1216.70 254.432   3
  -2   5 -12 302.069 124.679   1
  -2   3 -11 3463.56 357.166   1
  -2   1 -10 596.033 138.916   1
  -2  -1  -9 1195.04 199.471   1
  -2  -3  -8 2477.00 271.119   1
  -2   4 -12 2440.20 323.224   1
  -2   2 -11 95.3825 36.4675   1
  -2   0 -10 89.2323 65.5837   1
  -2  -2  -9 2054.69 264.731   1
  -2  -4  -8 294.505 162.644   3
  -2   3 -12 574.427 150.622   1
  -2   1 -11 759.240 165.702   1
  -2  -1 -10 573.471 148.417   1
  -2   4 -13 4098.41 428.950   1
  -2   2 -12-15.2253 40.2765   1
  -2   0 -11 7756.35 554.525   1
  -2  -2 -10 7138.61 521.786   1
  -2   3 -13 822.198 185.333   1
  -2   1 -12 601.907 164.786   1
  -2  -1 -11 70.3255 63.7314   1
  -2   2 -13 47.5597 23.7601   1
  -2   0 -12 304.694 121.190   1
  -2  -2 -11 520.983 153.419   1
  -2   1 -13 513.270 153.042   1
  -2  -1 -12 171.298 73.8205   1
  -3   3  13 70.9373 75.7485   2
  -3   4  12 3085.12 457.500   2
  -3   2  13 5195.32 499.358   2
  -3   0  14 64.9528 42.6312   2
  -3   3  12 2855.93 419.733   2
  -3   1  13 15.9841 34.0056   2
  -3   4  11 34.9217 50.6341   2
  -3   2  12 63.5741 59.8055   2
  -3   0  13-40.1627 48.3134   2
  -3   5  10 76.4456 105.738   2
  -3   3  11 12.6682 63.9265   2
  -3   1  12 258.374 100.021   2
  -3  -3  14 23.5905 43.4745   3
  -3   4  10 332.347 120.706   2
  -3   2  11 317.777 124.732   2
  -3   0  12 815.851 181.533   2
  -3  -2  13 118.581 55.0394   3
  -3  -4  14 382.209 135.948   3
  -3   5   9 668.019 182.055   2
  -3   3  10 420.528 136.407   2
  -3   1  11 57.6760 45.9742   2
  -3  -1  12 325.240 93.1458   3
  -3  -3  13 139.256 71.3369   3
  -3   6   8-51.6009 75.1791   2
  -3   4   9 251.488 107.385   2
  -3   2  10 2.30222 34.8792   2
  -3  -2  12 131.951 65.5200   3
  -3  -4  13 662.868 176.481   3
  -3   5   8 178.613 97.7993   2
  -3   3   9 128.943 91.5517   2
  -3   1  10 1604.10 245.029   2
  -3  -1  11 788.461 136.319   3
  -3  -3  12 1605.78 253.835   3
  -3  -5  13 447.080 162.361   3
  -3   6   7 230.517 69.2972   2
  -3   4   8 1399.15 242.134   2
  -3   2   9 1082.81 194.229   2
  -3   0  10 9841.42 594.319   2
  -3   0  10 9790.69 399.270   3
  -3  -2  11 1265.19 189.777   3
  -3  -4  12 153.075 75.5414   3
  -3   5   7 718.628 175.037   2
  -3   3   8 2007.24 274.228   2
  -3   1   9 12817.6 660.388   2
  -3  -1  10 122.448 51.7337   3
  -3  -3  11 25.9858 33.5802   3
  -3  -5  12 66.5840 59.6026   3
  -3   6   6 232.436 93.6102   2
  -3   4   7 306.095 174.382   2
  -3   2   8-31.5763 24.0531   2
  -3   0   9 3570.20 351.061   2
  -3   0   9 3347.52 222.583   3
  -3  -2  10 3092.33 292.255   3
  -3  -4  11 6.57779 25.2703   3
  -3   7   5 39.8702 56.6051   2
  -3   5   6 51.5088 41.7425   2
  -3   3   7 7433.25 500.234   2
  -3   1   8 63019.3 1392.26   2
  -3   1   8 61551.2 792.147   3
  -3   1   8 61479.1 718.047   3
  -3  -1   9 5027.80 317.840   3
  -3  -3  10 91.5477 48.8864   3
  -3  -5  11 2561.94 361.154   3
  -3   6   5 152.261 70.8754   2
  -3   4   6 5088.08 420.192   2
  -3   2   7 3406.88 324.895   2
  -3   0   8 29800.5 951.178   2
  -3   0   8 30508.6 637.365   3
  -3  -2   9 7795.38 439.488   3
  -3  -4  10 64.4370 43.6783   3
  -3   7   4 3712.95 395.851   2
  -3   5   5 261.370 93.2757   2
  -3   3   6 9349.13 538.735   2
  -3   1   7 20731.1 757.386   2
  -3   1   7 19335.2 349.078   3
  -3  -1   8 253.823 69.2660   3
  -3  -3   9-4.80017 19.8139   3
  -3  -5  10 218.328 100.391   3
  -3   6   4-48.2705 43.2346   2
  -3   4   5 21.0314 22.3928   2
  -3   2   6 379.248 107.994   2
  -3   0   7 5513.16 387.387   2
  -3   0   7 5488.22 254.313   3
  -3  -2   8 4818.67 336.960   3
  -3  -4   9 27.2998 42.3290   3
  -3   7   3 179.962 96.6153   2
  -3   5   4-16.1685 57.2432   2
  -3   3   5 2460.51 267.223   2
  -3   1   6 31816.4 865.077   2
  -3   1   6 28018.2 355.430   3
  -3  -1   7 654.441 103.805   3
  -3  -3   8 1408.95 210.598   3
  -3  -5   9 14.4865 47.8049   3
  -3   6   3 70.3147 58.6118   2
  -3   4   4 4060.93 343.820   2
   3  -4  -4 2338.93 103.529   3
  -3   2   5 6568.37 408.733   2
  -3   0   6 7187.97 422.817   2
  -3   0   6 7825.18 306.269   3
  -3  -2   7 1391.73 184.689   3
  -3  -4   8 59.2786 51.9299   3
  -3  -6   9 41.2553 86.6131   3
  -3   7   2 264.511 110.221   2
  -3   5   3 1395.16 204.175   2
   3  -5  -3 1372.63 129.350   3
  -3   3   4 444.044 110.704   2
  -3   1   5 22.7027 8.52200   3
  -3   1   5 16.2645 31.0535   2
  -3  -1   6 12.5736 24.7538   3
  -3  -3   7 202.549 87.0244   3
  -3  -5   8 151.693 80.4360   3
   3  -6  -2 14.3444 13.8318   3
  -3   6   2 63.4714 64.7041   2
   3  -4  -3 19.2970 13.1664   3
  -3   4   3 2.68508 17.1562   2
  -3   2   4 6.33436 36.2775   2
  -3   0   5 45.4738 25.5306   3
  -3   0   5 64.4476 41.2064   2
  -3  -2   6 39.8112 43.5183   3
  -3  -4   7 93.1819 62.7792   3
  -3  -6   8 49.3869 59.9147   3
  -3   7   1 142.798 82.4591   2
  -3   5   2 379.538 103.987   2
   3  -5  -2 407.216 78.2329   3
  -3   3   3 3340.79 290.097   2
  -3   1   4 20463.5 659.716   2
  -3   1   4 20441.3 341.735   3
  -3  -1   5 4674.97 321.890   2
  -3  -1   5 4754.77 289.376   3
  -3  -3   6 3.19954 19.6023   3
  -3  -5   7 856.863 204.030   3
  -3   6   1 612.771 148.271   2
   3  -6  -1 561.286 111.833   3
  -3   4   2 739.954 135.895   2
   3  -4  -2 838.720 90.2056   3
  -3   2   3 6502.61 379.616   2
  -3   0   4 3582.62 267.439   2
   3   0  -4 4006.67 212.303   3
  -3   0   4 3775.72 203.178   3
  -3  -2   5 637.318 122.560   3
  -3  -4   6 318.829 104.660   3
  -3  -6   7 88.9492 63.8667   3
   3  -7   0 624.338 137.558   3
  -3   7   0 595.074 158.924   2
  -3   5   1 1556.89 212.234   2
   3  -5  -1 1674.20 166.472   3
  -3   3   2 611.783 129.024   2
   3  -3  -2 490.253 53.2044   3
  -3   1   3 260.316 44.2421   3
   3  -1  -3 272.449 39.6142   3
  -3   1   3 242.312 74.3672   2
  -3  -1   4 1.91216 8.67361   3
   3   1  -4-26.7105 37.2879   3
  -3  -1   4 0.43016 18.8916   2
  -3  -3   5 901.102 159.016   3
  -3  -5   6 244.109 106.966   3
   3  -6   0 38.5620 32.1121   3
  -3   6   0 380.519 134.663   2
   3  -4  -1 46.0456 20.0114   3
  -3   4   1 21.8861 20.6726   2
  -3   2   2 2688.66 238.471   2
   3  -2  -2 2384.04 116.226   3
  -3   0   3 17916.2 564.791   2
  -3   0   3 17891.3 472.841   3
   3   0  -3 18470.0 459.882   3
  -3  -2   4 3085.18 242.688   2
  -3  -2   4 3122.10 283.020   3
  -3  -4   5 13270.5 697.470   3
  -3  -6   6 2122.32 352.227   3
   3  -7   1 642.290 142.641   3
  -3   5   0 9211.44 513.421   2
   3  -5   0 9582.89 424.975   3
  -3   3   1 45484.9 1002.62   2
  -3   1   2 1485.75 164.803   2
  -3   1   2 1438.57 119.136   3
   3  -1  -2 1457.93 115.046   3
  -3  -1   3 43099.2 839.046   2
  -3  -1   3 43789.5 883.604   3
  -3  -3   4 41110.3 1114.12   3
  -3  -5   5 474.173 153.076   3
  -3   6  -1 29099.0 967.746   2
  -3   6  -1 29632.3 863.674   1
   3  -6   1 29768.8 849.098   3
  -3   4   0 8349.78 451.301   2
  -3   2   1 1833.85 187.918   2
   3  -2  -1 2112.67 152.148   3
  -3   0   2 31617.9 710.619   2
   3   0  -2 32261.6 726.929   2
  -3   0   2 31856.6 682.886   3
   3   0  -2 32478.6 662.792   3
  -3  -2   3 1352.84 141.707   2
  -3  -2   3 1492.51 187.181   3
  -3  -4   4 49.3121 42.8746   3
  -3  -6   5 136.488 95.3415   3
   3  -7   2 1345.50 200.681   3
  -3   5  -1 4887.79 377.026   2
   3  -5   1 4947.27 313.916   3
  -3   3   0 5615.24 347.196   2
   3  -1  -1-0.40375 15.1546   2
   3  -1  -1-8.66087 9.49453   3
  -3   1   1 0.69289 23.7197   2
  -3  -1   2 9980.03 366.446   2
  -3  -1   2 10023.7 442.639   3
  -3  -3   3 26011.4 673.142   1
  -3  -3   3 25972.2 596.047   2
  -3  -3   3 25163.3 853.739   3
  -3  -5   4 857.869 187.874   3
   3  -8   3 17.9235 53.9756   3
  -3   6  -2 1148.34 176.599   1
   3  -6   2 849.559 146.245   3
  -3   4  -1 3135.88 282.537   2
  -3   2   0 282.621 70.7007   2
   3  -2   0 317.903 66.6520   3
  -3   0   1 56965.7 906.327   2
   3   0  -1 56898.5 923.929   2
  -3   0   1 57117.6 988.413   3
   3   0  -1 57204.7 936.967   3
  -3  -2   2 6744.16 273.258   2
  -3  -2   2 6885.11 408.029   3
  -3  -4   3 16089.6 425.874   2
  -3  -4   3 16164.6 748.997   3
  -3  -6   4 3023.48 392.030   3
   3  -7   3 2277.79 277.659   3
  -3   5  -2 6332.07 427.512   2
  -3   5  -2 6485.83 405.798   1
  -3   3  -1 40222.2 935.701   2
   3  -1   0 22.5752 12.9291   3
  -3   1   0-7.07297 26.3143   2
   3  -1   0 14.8637 14.4031   2
  -3  -1   1 22178.5 513.588   2
  -3  -1   1 22042.3 698.038   3
  -3  -3   2 15964.7 369.693   2
  -3  -3   2 16594.2 696.330   3
  -3  -5   3 51.5693 41.4389   3
   3  -8   4 138.279 69.5234   3
  -3   6  -3 13718.9 611.273   1
   3  -6   3 13852.3 627.283   3
  -3   4  -2 3514.50 302.570   2
  -3   2  -1 1533.88 170.928   2
   3  -2   1 1355.91 150.122   3
  -3   0   0 6048.69 288.439   2
   3   0   0 5425.29 281.013   2
  -3   0   0 6053.99 351.326   3
   3   0   0 5207.86 310.560   3
  -3  -2   1 85.7865 51.2737   3
  -3  -2   1 61.5404 24.8450   2
  -3  -4   2 136.533 86.2773   3
  -3  -6   3 392.312 142.969   3
  -3   7  -4 1268.94 194.896   1
   3  -7   4 1227.62 212.378   3
  -3   5  -3 114.091 62.6673   1
  -3   3  -2-22.7832 11.0848   2
  -3   1  -1 315.742 72.2065   2
   3  -1   1 325.394 73.3684   2
   3  -1   1 271.921 68.4954   3
  -3  -1   0 12.4494 22.9195   3
   3   1   0 25.8994 18.4756   2
  -3  -1   0-3.43335 9.50448   2
  -3  -3   1 1482.85 74.0730   2
  -3  -3   1 2026.65 256.214   3
  -3  -5   2 168.433 89.2520   3
   3  -8   5 5.62519 32.1489   3
  -3   6  -4 39.0530 44.8165   1
  -3   4  -3 70.6856 45.3626   1
  -3   2  -2 3875.72 273.816   2
  -3   0  -1 27.2937 27.2122   2
  -3   0  -1 24.8395 29.7617   3
   3   0   1 17.7754 6.26050   2
  -3  -2   0 436.954 47.3600   2
  -3  -2   0 561.536 131.873   3
  -3  -4   1 2433.02 302.691   3
  -3  -6   2 316.955 127.056   3
  -3   7  -5 1069.16 185.525   1
   3  -7   5 1069.03 209.559   3
  -3   5  -4 236.977 83.2917   1
  -3   3  -3 1764.59 222.598   1
  -3   1  -2 3757.92 239.959   2
   3  -1   2 3676.64 245.976   2
  -3  -1  -1 428.332 59.7831   2
   3   1   1 334.715 57.3568   2
  -3  -1  -1 419.141 106.241   3
  -3  -3   0 239.143 91.4755   3
  -3  -3   0 420.500 86.8644   1
  -3  -5   1 56.2314 29.8652   3
   3  -8   6 317.816 130.326   3
  -3   6  -5 797.248 148.069   1
  -3   4  -4 553.512 118.521   1
  -3   2  -3 161.565 63.4381   1
   3   0   2 598.545 94.3225   2
  -3   0  -2 501.421 111.274   3
  -3   0  -2 532.979 108.805   1
  -3  -2  -1 39.0366 36.1682   3
  -3  -2  -1 85.3219 46.1128   1
  -3  -4   0 179.366 77.2326   3
  -3  -6   1 25.0984 35.3776   3
  -3   7  -6 10.6531 19.2152   1
  -3   5  -5 25.5565 38.5867   1
  -3   3  -4 43.2301 42.2801   1
  -3   1  -3 650.707 112.770   1
   3   1   2 340.874 60.7786   2
  -3  -1  -2 386.078 85.4970   1
  -3  -1  -2 368.574 100.745   3
  -3  -3  -1 1103.80 129.511   1
  -3  -3  -1 1160.60 207.155   3
  -3  -5   0-32.8673 30.4359   3
   3  -8   7 116.892 94.9224   3
  -3   6  -6 655.330 147.707   1
  -3   4  -5-54.8866 44.7462   1
  -3   2  -4 13615.4 560.491   1
   3   0   3 1526.78 160.317   2
  -3   0  -3 1751.18 190.180   1
  -3   0  -3 2114.43 244.701   3
  -3  -2  -2 5620.28 314.410   1
  -3  -2  -2 5308.94 422.620   3
  -3  -4  -1 593.387 158.271   3
  -3  -6   0 284.204 130.803   3
  -3   7  -7 218.112 87.7293   1
  -3   5  -6 2729.87 288.051   1
  -3   3  -5 3179.63 278.295   1
  -3   1  -4 23930.3 710.342   1
   3   1   3 7194.00 288.572   2
  -3  -1  -3 7160.69 365.315   1
  -3  -1  -3 7172.66 473.923   3
  -3  -3  -2 86.8347 47.2260   1
  -3  -3  -2 35.3541 41.9838   3
  -3  -5  -1 283.490 123.110   3
  -3   6  -7 165.947 82.6244   1
  -3   4  -6 2888.26 283.684   1
  -3   2  -5 12539.1 526.940   1
  -3   0  -4 230.950 68.9508   1
   3   0   4 366.199 70.0726   2
  -3  -2  -3 140.785 48.5377   1
  -3  -2  -3 182.119 80.4479   3
  -3  -4  -2 395.256 129.183   3
  -3   7  -8-41.4045 65.9671   1
  -3   5  -7 166.528 83.0045   1
  -3   3  -6 6685.34 418.095   1
  -3   1  -5 10788.7 482.496   1
   3   1   4 14737.1 442.278   2
  -3  -1  -4 14368.1 538.387   1
  -3  -1  -4 14832.8 702.950   3
  -3  -3  -3 481.895 95.8714   1
  -3  -3  -3 554.016 157.745   3
  -3  -5  -2 4123.58 474.215   3
  -3   6  -8 48.8716 38.3529   1
  -3   4  -7 7713.29 477.739   1
  -3   2  -6 85855.4 1443.49   1
  -3   0  -5 14357.6 557.514   1
  -3  -2  -4 303.450 83.1825   1
  -3  -2  -4 252.956 98.3255   3
  -3  -4  -3 3638.36 422.627   3
  -3   7  -9-134.906 73.9762   1
  -3   5  -8 7182.08 489.113   1
  -3   3  -7 9076.79 497.135   1
  -3   1  -6 12993.2 558.867   1
  -3  -1  -5 5230.85 344.737   1
  -3  -1  -5 5426.25 445.471   3
  -3  -3  -4-2.79283 18.0688   1
  -3  -3  -4-24.3439 16.7190   3
  -3  -5  -3 52.6951 66.4519   3
  -3   6  -9 180.592 96.5749   1
  -3   4  -8 914.883 170.295   1
  -3   2  -7 2907.10 281.130   1
  -3   0  -6 3526.37 293.412   1
  -3  -2  -5 7.03736 15.6834   1
  -3  -2  -5 0.60112 28.6456   3
  -3  -4  -4 1465.57 282.782   3
  -3   7 -10-40.1841 63.0851   1
  -3   5  -9 204.591 82.4808   1
  -3   3  -8 2137.00 251.339   1
  -3   1  -7 2293.12 250.046   1
  -3  -1  -6 3700.48 307.124   1
  -3  -3  -5 278.882 71.7264   1
  -3  -3  -5 227.560 104.922   3
  -3   6 -10 223.978 89.4205   1
  -3   4  -9 51.5218 54.5910   1
  -3   2  -8 11080.4 562.904   1
  -3   0  -7 244.364 79.2092   1
  -3  -2  -6 2083.02 234.151   1
  -3  -2  -6 2218.76 317.249   3
  -3  -4  -5 101.812 84.0745   3
  -3   5 -10 378.963 120.801   1
  -3   3  -9 1416.05 213.236   1
  -3   1  -8 652.148 138.140   1
  -3  -1  -7 447.370 112.340   1
  -3  -3  -6-5.59682 41.5737   3
  -3   6 -11 122.178 60.9299   1
  -3   4 -10-24.0378 57.8285   1
  -3   2  -9-25.4545 34.1313   1
  -3   0  -8-10.9008 42.6566   1
  -3  -2  -7 532.696 123.588   1
  -3  -4  -6 243.091 118.612   3
  -3   5 -11-36.5674 44.7344   1
  -3   3 -10-46.7027 60.7951   1
  -3   1  -9-44.0083 58.2648   1
  -3  -1  -8 129.062 59.3755   1
  -3  -3  -7 558.422 174.227   3
  -3   4 -11 42.0609 23.9006   1
  -3   2 -10 794.610 156.897   1
  -3   0  -9 278.821 85.0069   1
  -3  -2  -8 126.129 66.9754   1
  -3   3 -11 262.741 92.0306   1
  -3   1 -10 132.496 64.4176   1
  -3  -1  -9 7.59771 19.5660   1
  -3   2 -11-121.049 93.6971   1
  -3   0 -10 23.1950 27.5510   1
  -3  -2  -9 1920.67 271.485   1
  -3   3 -12 829.861 192.250   1
  -3   1 -11 1518.69 251.617   1
  -3  -1 -10 570.711 159.362   1
  -3   2 -12-31.7877 69.8914   1
  -3   0 -11 3675.80 404.597   1
  -3   1 -12 699.349 183.159   1
  -3  -1 -11 242.068 126.589   1
  -4   1  13 57.6618 63.7392   2
  -4   4  11-144.754 125.157   2
  -4   2  12 62.5712 81.3217   2
  -4   0  13 93.6042 72.6000   2
  -4   3  11 5313.68 544.870   2
  -4   1  12 190.766 91.9826   2
  -4  -1  13 7789.78 670.092   2
  -4   4  10 358.490 155.724   2
  -4   2  11 1372.17 257.617   2
  -4   0  12 735.448 190.042   2
  -4   5   9 2526.83 380.880   2
  -4   3  10 1584.86 285.052   2
  -4   1  11-37.6235 48.7138   2
  -4  -1  12-20.5649 15.3938   2
  -4   6   8 340.819 133.135   2
  -4   4   9-20.1419 58.8295   2
  -4   2  10-15.1324 36.5044   2
  -4   0  11 33.9185 54.3712   2
  -4  -4  13 894.912 207.072   3
  -4   5   8 65.6819 54.3106   2
  -4   3   9 39.8799 45.4469   2
  -4   1  10 961.166 192.942   2
  -4  -1  11 461.618 155.796   2
  -4  -3  12 531.949 137.599   3
  -4   6   7-129.570 117.589   2
  -4   4   8 5.14993 19.6554   2
  -4   2   9 34.0853 41.5227   2
  -4   0  10 237.580 95.2395   2
  -4  -2  11 154.843 102.843   3
  -4  -4  12 114.346 75.4021   3
  -4   7   6 190.381 78.7069   2
  -4   5   7 1353.66 255.312   2
  -4   3   8 514.812 138.577   2
  -4   1   9 21.9845 11.6924   2
  -4  -1  10 3.39666 23.1596   3
  -4  -1  10 47.4763 52.3182   2
  -4  -3  11 237.855 93.8241   3
  -4   6   6-42.3706 77.9335   2
  -4   4   7-5.54383 44.1335   2
  -4   2   8 202.820 96.2914   2
  -4   0   9 749.517 173.852   2
  -4  -2  10 512.343 121.328   3
  -4  -2  10 597.736 164.303   2
  -4  -4  11 717.248 176.941   3
  -4   7   5 45.4594 24.1866   2
  -4   5   6 1271.81 230.234   2
  -4   3   7 270.759 102.671   2
  -4   1   8 9477.77 569.088   2
  -4  -1   9 127.405 52.0683   3
  -4  -1   9 171.072 75.5017   2
  -4  -3  10 988.738 190.030   3
  -4  -5  11 620.573 193.153   3
  -4   6   5 877.489 199.142   2
  -4   4   6 1742.13 260.665   2
  -4   2   7 10651.9 609.430   2
  -4   0   8 930.093 179.952   2
  -4   0   8 902.872 117.675   3
  -4  -2   9 343.643 101.459   3
  -4  -2   9 361.813 126.046   2
  -4  -4  10 180.318 93.7504   3
  -4   7   4 1322.94 252.849   2
  -4   5   5 218.144 98.1422   2
  -4   3   6 138.256 63.2351   2
  -4   1   7 519.456 131.732   2
  -4   1   7 342.716 41.8820   3
  -4  -1   8 146.697 62.8526   3
  -4  -1   8 200.895 97.5550   2
  -4  -3   9 34.9925 50.2651   3
  -4  -5  10 1407.74 278.568   3
  -4   6   4 39.2602 59.3722   2
  -4   4   5 935.133 190.330   2
  -4   2   6 12078.2 629.144   2
  -4   0   7 154.671 45.3857   3
  -4   0   7 161.700 62.8849   2
  -4  -2   8 1990.16 270.740   2
  -4  -2   8 2055.14 247.363   3
  -4  -4   9 958.575 206.635   3
  -4   7   3 672.323 183.398   2
  -4   5   4 323.569 99.7387   2
  -4   3   5 1886.20 253.603   2
  -4   1   6 82345.1 1576.04   2
  -4   1   6 77761.2 783.961   3
  -4  -1   7 18262.6 767.846   2
  -4  -1   7 18848.1 665.683   3
  -4  -3   8 470.837 132.967   3
  -4  -3   8 370.067 117.142   2
  -4  -5   9 2277.05 356.961   3
  -4   6   3 308.606 98.3376   2
  -4   4   4 14894.1 718.779   2
  -4   2   5 39607.7 1109.86   2
  -4   0   6 72.7514 36.8397   3
  -4   0   6 28.1965 28.8366   2
  -4  -2   7 159.375 72.8796   3
  -4  -2   7 180.972 76.5602   2
  -4  -4   8-45.7775 50.5106   3
  -4   7   2 199.569 93.1321   2
  -4   5   3 311.596 96.9929   2
  -4   3   4 27.7137 37.5502   2
  -4   1   5 446.476 114.080   2
  -4   1   5 352.040 56.7413   3
  -4  -1   6 1932.24 233.259   2
  -4  -1   6 1938.98 208.666   3
  -4  -3   7 105.525 68.6436   3
  -4  -3   7 193.998 78.3202   2
  -4  -5   8 1990.06 340.755   3
  -4   8   1 42.6015 58.4961   2
  -4   6   2 63.9063 69.3082   2
  -4   4   3 1273.36 210.255   2
  -4   2   4 14570.5 654.320   2
  -4   0   5 126.036 58.8431   2
  -4   0   5 78.7758 33.5067   3
  -4  -2   6 2623.80 276.420   2
  -4  -2   6 2777.84 285.658   3
  -4  -4   7 69.1413 56.3452   3
  -4  -4   7 10.3635 29.1546   2
  -4   7   1-1.87238 24.1906   2
  -4   5   2 1799.40 247.152   2
  -4   3   3 1740.76 227.540   2
  -4   1   4 9455.18 506.022   2
  -4   1   4 10247.0 355.430   3
   4  -1  -4 9926.89 315.541   3
  -4  -1   5 1175.59 179.673   2
  -4  -1   5 1142.40 159.220   3
  -4  -3   6 274.252 94.6341   3
  -4  -3   6 273.965 92.2062   2
  -4  -5   7-48.2122 64.8508   3
  -4   6   1 830.062 179.433   2
   4  -4  -2 55.0255 20.2187   3
  -4   4   2-10.9961 46.3565   2
   4  -2  -3 202.324 38.5470   3
  -4   2   3 187.373 64.3646   2
  -4   0   4 997.778 131.894   3
  -4   0   4 1068.55 163.875   2
   4   0  -4 1199.08 140.093   3
  -4  -2   5 199.225 70.1234   2
  -4  -2   5 156.641 67.9967   3
  -4  -4   6 4.04986 35.8267   3
  -4  -4   6-62.4776 33.5070   2
  -4   7   0 83.7504 85.7398   2
   4  -5  -1 36.9450 21.3975   3
  -4   5   1 56.4588 48.4761   2
   4  -3  -2 20.0970 14.2841   3
  -4   3   2-104.145 70.8042   2
   4  -1  -3 144.042 41.8939   3
  -4   1   3 131.916 46.5207   3
  -4   1   3 153.927 59.8722   2
  -4  -1   4 407.097 96.5887   2
  -4  -1   4 466.522 103.562   3
  -4  -3   5 360.810 94.0104   2
  -4  -3   5 277.676 100.917   3
  -4  -5   6 168.473 104.180   3
  -4   6   0 237.700 108.970   2
  -4   4   1 741.774 151.042   2
   4  -4  -1 915.975 118.999   3
  -4   2   2 4863.00 348.097   2
   4  -2  -2 4714.10 221.331   3
  -4   0   3 2426.27 231.935   2
  -4   0   3 2251.90 204.010   3
  -4  -2   4 280.438 77.7714   2
  -4  -2   4 301.687 97.5353   3
  -4  -4   5 1317.30 236.793   3
  -4   7  -1 176.833 59.2361   1
  -4   5   0 73.2399 73.6730   2
  -4   3   1 289.332 89.8970   2
   4  -3  -1 361.365 73.5967   3
  -4   1   2 4691.03 325.516   2
  -4   1   2 4942.61 302.465   3
   4  -1  -2 4891.97 277.598   3
  -4  -1   3 478.481 110.398   3
  -4  -1   3 384.563 83.7429   2
  -4  -3   4 990.450 131.643   2
  -4  -3   4 987.513 186.115   3
  -4  -5   5 150.601 73.2659   3
  -4   6  -1 1076.69 201.089   2
   4  -6   1 1069.90 160.520   3
  -4   4   0 92.1693 65.3055   2
  -4   2   1 1170.18 168.918   2
   4  -2  -1 1239.73 141.805   3
  -4   0   2 692.027 117.143   2
  -4   0   2 605.429 112.432   3
  -4  -2   3 216.008 84.4355   3
  -4  -2   3 176.469 50.1758   2
  -4  -4   4 421.002 129.639   3
  -4   7  -2 709.569 153.244   1
  -4   5  -1 82.1728 76.8963   2
  -4   3   0 80.5615 53.8156   2
   4  -3   0 57.5284 36.7353   3
  -4   1   1 416.311 91.8500   2
   4  -1  -1 498.536 96.2441   3
  -4  -1   2 308.743 93.4419   3
  -4  -1   2 329.725 76.4664   2
  -4  -3   3 10481.3 380.252   2
  -4  -3   3 11049.2 649.324   3
  -4  -5   4 896.235 210.294   3
  -4   6  -2 1762.72 246.634   1
  -4   4  -1 6354.08 441.833   2
  -4   2   0 373.817 92.9207   2
   4  -2   0 517.634 105.229   3
  -4   0   1 36253.3 822.615   2
  -4   0   1 36414.7 920.869   3
  -4  -2   2 25059.5 598.985   2
  -4  -2   2 26531.9 946.711   3
  -4  -4   3 304.094 105.213   3
  -4   7  -3 6747.64 491.471   1
   4  -7   3 6789.80 473.660   3
  -4   5  -2 108.095 76.0130   2
  -4   3  -1 10358.1 531.947   2
  -4   1   0 4971.15 320.923   2
  -4  -1   1 471.635 82.7289   2
  -4  -1   1 531.055 123.489   3
  -4  -3   2 7168.78 544.633   3
  -4  -5   3 231.446 112.145   3
  -4   6  -3 12528.1 651.102   1
  -4   4  -2 10850.8 587.107   2
  -4   2  -1 730.543 136.087   2
  -4   0   0 1461.54 163.608   2
  -4   0   0 2123.92 238.828   3
  -4  -2   1 1780.05 145.271   2
  -4  -2   1 1742.69 254.241   3
  -4  -4   2 5.95364 34.4270   3
  -4   7  -4 1029.07 201.121   1
   4  -7   4 1314.05 227.465   3
  -4   5  -3 59.8833 69.8358   1
  -4   3  -2 440.524 119.669   2
  -4   1  -1 2895.89 246.916   2
  -4  -1   0 250.220 58.9214   2
  -4  -1   0 236.008 81.4365   3
  -4  -3   1 26026.9 1051.11   3
  -4  -5   2 3173.14 414.904   3
  -4   6  -4 5622.72 447.328   1
  -4   4  -3 13255.5 667.331   1
  -4   2  -2 266.537 86.9436   2
  -4   0  -1 25297.0 649.102   2
  -4   0  -1 25531.0 849.593   3
  -4  -2   0 17612.0 392.494   2
  -4  -2   0 19763.2 857.972   3
  -4  -4   1 393.594 145.767   3
  -4   7  -5 8160.31 557.422   1
  -4   5  -4 635.462 155.038   1
  -4   3  -3 3211.36 321.292   1
  -4   1  -2 4170.38 289.903   2
   4   1   1 1.42736 22.5867   2
  -4  -1  -1 7.72553 20.2907   2
  -4  -1  -1 4.62420 43.0983   3
  -4  -3   0 1251.46 177.703   1
  -4  -3   0 1297.07 241.445   3
  -4  -5   1 9.18605 18.6953   3
   4  -8   6 832.658 215.117   3
  -4   6  -5 595.141 143.150   1
  -4   4  -4 1018.20 187.418   1
  -4   2  -3 136.953 70.2207   1
  -4   0  -2 55.1717 43.1813   1
  -4   0  -2 165.110 70.5441   3
  -4  -2  -1 946.545 163.588   1
  -4  -2  -1 1058.40 213.361   3
  -4  -4   0 317.929 134.294   3
  -4   7  -6 292.347 118.923   1
  -4   5  -5 72.6306 47.6157   1
  -4   3  -4 186.489 71.7348   1
  -4   1  -3 835.809 161.547   1
  -4  -1  -2 48.2514 63.7015   1
  -4  -1  -2-17.9403 19.9984   3
  -4  -3  -1 2075.16 225.616   1
  -4  -3  -1 2055.05 312.197   3
  -4  -5   0 45.2883 51.9913   3
  -4   6  -6-19.4340 45.5605   1
  -4   4  -5 134.320 69.8845   1
  -4   2  -4 2730.28 297.550   1
  -4   0  -3 953.071 161.961   1
  -4  -2  -2 383.286 99.9780   1
  -4  -2  -2 425.338 134.829   3
  -4  -4  -1 439.921 144.344   3
  -4   7  -7 74.9074 81.0061   1
  -4   5  -6 21.2916 31.9796   1
  -4   3  -5 127.037 67.4941   1
  -4   1  -4 283.122 93.0230   1
  -4  -1  -3 190.089 72.7648   1
  -4  -1  -3 260.238 95.1156   3
  -4  -3  -2-6.26654 31.2731   3
  -4   6  -7 260.436 111.741   1
  -4   4  -6-39.6485 60.8533   1
  -4   2  -5-20.2459 25.5298   1
  -4   0  -4 690.716 141.107   1
  -4  -2  -3 892.228 193.249   3
  -4  -2  -3 579.148 114.639   1
  -4  -4  -2 313.931 135.146   3
  -4   7  -8-31.9030 35.2253   1
  -4   5  -7 25.9358 29.4829   1
  -4   3  -6 377.966 118.723   1
  -4   1  -5 1181.42 187.793   1
  -4  -1  -4 2765.36 273.793   1
  -4  -1  -4 3106.43 360.864   3
  -4  -3  -3 183.589 103.989   3
  -4   6  -8 556.356 157.644   1
  -4   4  -7 238.416 108.277   1
  -4   2  -6 10732.0 583.521   1
  -4   0  -5 2097.60 245.306   1
  -4  -2  -4 223.871 91.5054   1
  -4  -2  -4 145.193 79.3469   3
  -4  -4  -3 731.312 209.350   3
  -4   5  -8 2237.84 302.477   1
  -4   3  -7 7973.48 528.057   1
  -4   1  -6-38.1017 51.7068   1
  -4  -1  -5 87.4832 73.1963   1
  -4  -3  -4 9.58869 54.2281   3
  -4   6  -9 325.188 112.936   1
  -4   4  -8 2510.86 315.492   1
  -4   2  -7 818.015 174.080   1
  -4   0  -6 2028.64 247.227   1
  -4  -2  -5-10.2055 22.2044   1
  -4  -2  -5 2.92089 38.8314   3
  -4   5  -9 1216.67 233.316   1
  -4   3  -8 13382.0 715.009   1
  -4   1  -7 138.353 79.5819   1
  -4  -1  -6 1859.59 244.496   1
  -4  -3  -5 1234.09 259.209   3
  -4   4  -9 70.5746 51.1274   1
  -4   2  -8 21814.8 864.188   1
  -4   0  -7 7275.08 486.393   1
  -4  -2  -6 2.32860 54.0078   1
  -4   3  -9 6561.33 495.177   1
  -4   1  -8 80.8999 58.4150   1
  -4  -1  -7 104.777 66.0725   1
  -4   4 -10 9.49620 34.0075   1
  -4   2  -9 679.535 162.809   1
  -4   0  -8 2226.25 280.588   1
  -4   3 -10 4660.07 435.157   1
  -4   1  -9 15.4694 32.1281   1
  -4  -1  -8 1011.11 195.148   1
  -4   2 -10 805.345 176.672   1
  -4   0  -9 63.3203 22.2950   1
  -4   1 -10 17.7298 28.1310   1
  -4  -1  -9-4.12495 35.8166   1
  -4   0 -10-91.6273 92.4692   1
  -5   2  11 9.68236 62.9529   2
  -5   0  12 3519.99 446.016   2
  -5   3  10 2563.06 367.265   2
  -5   1  11-34.8960 49.6362   2
  -5  -1  12 376.778 155.965   2
  -5   4   9 509.004 158.995   2
  -5   2  10-22.9374 51.9656   2
  -5   0  11 3989.70 451.394   2
  -5  -2  12 1389.15 284.875   2
  -5   3   9 4413.52 468.094   2
  -5   1  10 81.0948 73.0275   2
  -5  -1  11 3467.46 436.582   2
  -5  -3  12 4833.98 516.307   2
  -5   4   8 2979.60 392.463   2
  -5   2   9 0.43884 69.6207   2
  -5   0  10 732.458 190.153   2
  -5  -2  11-5.97852 67.6099   2
  -5   5   7 32.8715 56.0595   2
  -5   3   8 158.798 69.3927   2
  -5   1   9-19.0863 17.1567   2
  -5  -1  10 128.865 77.5007   2
  -5  -3  11 520.290 162.646   2
  -5   4   7 63.0941 80.7349   2
  -5   2   8 332.583 116.272   2
  -5   0   9 123.065 73.4745   2
  -5  -2  10 254.498 108.764   2
  -5   5   6 235.448 113.275   2
  -5   3   7 160.852 83.2776   2
  -5   1   8 130.122 58.7070   2
  -5  -1   9 68.6711 13.0708   2
  -5  -3  10 149.245 64.3351   3
  -5  -3  10 130.820 77.0506   2
  -5   6   5 908.506 221.876   2
  -5   4   6 877.824 198.487   2
  -5   2   7 77.3143 62.9115   2
  -5   0   8 258.185 108.726   2
  -5  -2   9 75.9779 60.1056   3
  -5  -2   9 108.587 66.9632   2
  -5  -4  10-6.86305 34.0282   3
  -5   5   5 10.2198 84.2515   2
  -5   3   6 35.7093 39.9001   2
  -5   1   7-39.3467 68.7963   2
  -5  -1   8 71.4541 64.9593   2
  -5  -3   9 670.762 167.041   3
  -5  -3   9 712.736 174.176   2
  -5   6   4 346.613 149.381   2
  -5   4   5 102.113 62.4579   2
  -5   2   6 2101.17 288.231   2
  -5   0   7 284.578 96.0395   2
  -5  -2   8 1790.02 268.477   2
  -5  -2   8 1825.41 250.901   3
  -5  -4   9 777.290 197.391   3
  -5   5   4 726.818 171.166   2
  -5   3   5 2703.19 327.502   2
  -5   1   6 5259.65 445.580   2
  -5  -1   7 1285.23 220.443   2
  -5  -1   7 1099.03 168.743   3
  -5  -3   8 411.578 126.625   2
  -5  -3   8 291.539 108.966   3
  -5   6   3 191.836 96.5847   2
  -5   4   4 1083.75 211.632   2
  -5   2   5 10246.8 621.060   2
  -5   0   6 402.809 91.0392   3
  -5   0   6 323.043 96.4264   2
  -5  -2   7 101.741 75.0647   2
  -5  -2   7 52.5131 50.8596   3
  -5  -4   8 163.554 101.806   3
  -5   5   3 51.3362 44.6371   2
  -5   3   4 249.930 101.534   2
  -5   1   5 2568.53 302.506   2
  -5   1   5 3128.75 232.111   3
  -5  -1   6 3684.49 359.216   2
  -5  -1   6 2897.01 282.273   3
  -5  -3   7 113.120 73.4144   2
  -5  -3   7 48.3559 52.0449   3
  -5   6   2 39.5799 56.9757   2
  -5   4   3 4141.61 404.044   2
  -5   2   4 59937.9 1439.15   2
  -5   0   5 12971.6 661.579   2
  -5   0   5 11660.0 503.268   3
  -5  -2   6 202.631 73.7006   2
  -5  -2   6 98.1120 60.8606   3
  -5  -4   7 3704.88 434.737   3
  -5   7   1-25.5785 53.3674   2
  -5   5   2 7283.12 533.089   2
  -5   3   3 13427.4 685.852   2
  -5   1   4 6467.35 458.962   2
  -5   1   4 7371.24 396.174   3
  -5  -1   5 3713.43 337.962   2
  -5  -1   5 3365.06 314.031   3
  -5  -3   6 4.64253 35.6478   3
  -5   6   1 139.530 87.1576   2
  -5   4   2 1395.52 225.065   2
  -5   2   3 6249.13 449.306   2
  -5   0   4 85.3475 54.7127   2
  -5   0   4 32.7569 19.1629   3
  -5  -2   5 42.5429 37.0701   3
  -5  -2   5-41.4686 51.1664   2
  -5  -4   6 879.874 220.854   3
  -5   7   0 48.0427 63.7727   2
  -5   5   1 76.9655 72.2749   2
  -5   3   2 1203.17 204.876   2
  -5   1   3 1111.80 180.025   2
  -5  -1   4 2487.54 256.290   2
  -5  -1   4 2503.19 275.109   3
  -5  -3   5-10.7189 49.3383   3
  -5   6   0 371.654 128.303   2
  -5   4   1 0.87662 27.5544   2
  -5   2   2 8750.74 512.680   2
  -5   0   3 186.792 73.9753   2
  -5   0   3 207.947 73.7054   3
  -5  -2   4 991.532 148.376   2
  -5  -2   4 1121.09 212.745   3
  -5  -4   5-1.77931 26.5482   3
  -5   7  -1 517.879 174.279   2
  -5   7  -1-78.6548 67.0332   1
  -5   5   0 385.319 117.438   2
  -5   3   1 1100.58 191.419   2
  -5   1   2 1393.61 192.883   2
  -5  -1   3 734.456 131.114   2
  -5  -1   3 613.300 142.266   3
  -5  -3   4 68.6783 50.6329   3
  -5   6  -1 374.788 129.305   2
  -5   4   0 234.158 96.0912   2
  -5   2   1-49.7934 55.5956   2
  -5   0   2-35.7585 51.4852   2
  -5   0   2 65.1584 42.5432   3
  -5  -2   3 197.692 90.8616   3
  -5  -2   3 222.826 65.2468   2
  -5  -4   4 127.225 97.0347   3
  -5   7  -2-145.822 108.995   1
  -5   5  -1 32.5526 51.8174   2
  -5   3   0 114.453 61.2581   2
  -5   1   1 24.3742 24.4659   2
  -5  -1   2-18.4156 34.9110   2
  -5  -1   2 23.6178 16.0711   3
  -5  -3   3 453.267 148.408   3
  -5   6  -2 72.5796 60.5005   2
  -5   6  -2 48.7521 31.3803   1
  -5   4  -1 205.711 86.3144   2
  -5   2   0 3594.91 322.693   2
  -5   0   1 638.555 118.936   2
  -5   0   1 585.306 136.750   3
  -5  -2   2 328.079 118.137   3
  -5  -4   3 103.355 65.9091   3
  -5   7  -3 110.485 54.3047   1
  -5   5  -2 224.712 104.199   2
  -5   3  -1 1388.13 217.774   2
  -5   1   0 875.602 148.248   2
  -5  -1   1 298.314 73.3884   2
  -5  -1   1 259.823 96.0242   3
  -5  -3   2 56.1910 58.3056   3
  -5   6  -3 480.035 147.984   1
  -5   4  -2 242.977 101.106   2
  -5   2  -1-12.3742 36.8444   2
  -5   0   0 175.493 57.8131   2
  -5   0   0 134.195 68.3701   3
  -5  -2   1 2135.75 309.494   3
  -5  -4   2 130.327 101.176   3
  -5   7  -4 9.75240 43.3414   1
  -5   5  -3 99.6562 75.8894   1
  -5   3  -2 420.856 125.869   2
  -5   1  -1 5539.69 376.619   2
  -5  -1   0 3689.51 259.612   2
  -5  -1   0 3573.05 368.475   3
  -5  -3   1 4061.30 463.838   3
  -5   6  -4 1675.05 272.842   1
  -5   4  -3 8065.41 589.769   1
  -5   2  -2 154.163 75.8856   2
  -5   0  -1 6888.93 386.554   2
  -5   0  -1 6871.54 495.507   3
  -5  -2   0 17691.8 921.481   3
  -5  -4   1 607.758 190.288   3
  -5   7  -5 8599.47 628.059   1
  -5   5  -4 4786.06 459.763   1
  -5   3  -3 89.3305 70.9084   1
  -5   1  -2 4792.16 345.500   2
  -5  -1  -1 558.616 150.442   1
  -5  -1  -1 596.817 152.829   3
  -5  -3   0 33.2700 30.8360   3
  -5   6  -5 293.229 127.856   1
  -5   4  -4 82.0128 63.4619   1
  -5   2  -3-83.1908 37.2206   1
  -5   0  -2 1576.57 255.829   1
  -5  -2  -1 12932.5 655.813   1
  -5  -2  -1 12158.6 765.869   3
  -5   7  -6 747.276 199.435   1
  -5   5  -5 2347.46 326.906   1
  -5   3  -4 130.053 59.5340   1
  -5   1  -3 12503.2 701.472   1
  -5  -1  -2 8041.91 526.035   1
  -5  -1  -2 7322.30 568.805   3
  -5  -3  -1 2649.09 396.297   3
  -5   6  -6 123.697 75.0592   1
  -5   4  -5 3328.40 379.486   1
  -5   2  -4 741.909 173.575   1
  -5   0  -3 1251.74 210.300   1
  -5  -2  -2 4718.15 396.690   1
  -5  -2  -2 4753.96 489.593   3
  -5   5  -6 652.877 179.454   1
  -5   3  -5 130.903 82.8952   1
  -5   1  -4 101.369 78.1107   1
  -5  -1  -3 58.3764 39.7875   1
  -5  -1  -3-60.6975 101.193   3
  -5  -3  -2 23.3365 14.3461   3
  -5   4  -6-44.8616 51.2483   1
  -5   2  -5 342.150 113.648   1
  -5   0  -4-30.3417 24.4018   1
  -5  -2  -3 1179.18 258.759   3
  -5  -2  -3 884.609 160.027   1
  -5   5  -7-86.8847 66.8608   1
  -5   3  -6 897.646 194.621   1
  -5   1  -5 100.442 107.165   1
  -5  -1  -4 17.7123 50.8200   1
  -5   4  -7-85.6606 58.4586   1
  -5   2  -6-14.5111 36.1448   1
  -5   0  -5 59.6379 54.9066   1
  -5  -2  -4-35.2343 48.3939   3
  -5   3  -7-70.5455 80.5003   1
  -5   1  -6-100.701 79.7751   1
  -5  -1  -5 59.8673 50.8642   1
  -5   4  -8 5.33303 27.7492   1
  -5   2  -7 250.522 102.423   1
  -5   0  -6 311.043 114.628   1
  -5   3  -8 2163.71 314.915   1
  -5   1  -7-7.28728 41.8441   1
  -5  -1  -6 613.196 159.252   1
  -5   2  -8 1209.36 232.473   1
  -5   0  -7 657.314 158.466   1
  -5   1  -8 187.703 88.6600   1
  -5  -1  -7 77.2310 53.4304   1
  -5   0  -8 1671.77 268.715   1
  -6   1  10 2031.97 335.076   2
  -6   2   9-129.287 108.850   2
  -6   0  10 550.825 185.426   2
  -6   3   8 92.7541 90.9472   2
  -6   1   9 256.437 103.922   2
  -6  -1  10 95.0849 94.8967   2
  -6   2   8 280.921 120.802   2
  -6   0   9 7295.72 612.762   2
  -6  -2  10 7101.00 613.957   2
  -6   3   7 279.462 120.357   2
  -6   1   8 1108.18 235.415   2
  -6  -1   9-10.3825 55.5619   2
  -6   4   6 454.429 157.042   2
  -6   2   7-33.1671 70.2261   2
  -6   0   8-34.7974 26.7668   2
  -6  -2   9 245.417 104.157   2
  -6   3   6 134.118 86.9730   2
  -6   1   7 23.6502 46.5685   2
  -6  -1   8 12.9153 24.2690   2
  -6   4   5-13.1377 95.6774   2
  -6   2   6 863.820 199.261   2
  -6   0   7 272.963 103.936   2
  -6  -2   8 440.311 142.606   2
  -6   5   4 118.589 66.2438   2
  -6   3   5 291.133 121.655   2
  -6   1   6 561.192 164.010   2
  -6  -1   7 388.907 134.465   2
  -6   4   4 0.82264 76.3302   2
  -6   2   5 26.6024 35.5076   2
  -6   0   6 52.7623 55.0666   2
  -6   5   3 86.1475 60.3149   2
  -6   3   4-21.0559 73.7047   2
  -6   1   5 676.608 164.853   2
  -6  -1   6 906.109 188.354   2
  -6  -3   7 436.912 154.625   3
  -6   4   3 118.060 70.4221   2
  -6   2   4 5078.30 452.798   2
  -6   0   5 589.549 148.600   2
  -6  -2   6 347.224 128.856   3
  -6   5   2 986.633 220.566   2
  -6   3   3 7411.67 547.565   2
  -6   1   4 124.804 77.4514   2
  -6  -1   5 83.6133 70.3504   2
  -6  -1   5-60.8309 48.6621   3
  -6  -3   6 78.6296 84.1516   3
  -6   4   2 11.6244 19.9318   2
  -6   2   3-125.648 96.2516   2
  -6   0   4 636.919 144.297   2
  -6  -2   5 20.9246 28.2564   3
  -6   5   1 726.594 182.696   2
  -6   3   2 10428.3 625.313   2
  -6   1   3 566.503 131.948   2
  -6  -1   4 416.663 112.769   2
  -6  -1   4 429.709 120.910   3
  -6  -3   5 1651.31 310.476   3
  -6   4   1 455.998 133.133   2
  -6   2   2 18193.2 801.418   2
  -6   0   3 7449.10 469.252   2
  -6   0   3 7876.57 511.905   3
  -6  -2   4 87.9725 67.0219   3
  -6   5   0 3731.20 410.734   2
  -6   3   1 11933.4 667.005   2
  -6   1   2 228.751 82.4495   2
  -6  -1   3 66.1767 55.5199   3
  -6  -3   4-27.1691 63.6601   3
  -6   4   0-10.6612 46.2091   2
  -6   2   1 229.049 80.8914   2
  -6   0   2 793.831 143.209   2
  -6   0   2 969.981 181.592   3
  -6  -2   3-2.20171 15.0784   3
  -6   5  -1 360.002 139.232   2
  -6   3   0 5508.43 452.229   2
  -6   1   1 23.2552 43.2105   2
  -6  -1   2 871.101 188.376   3
  -6  -3   3-22.5306 73.8573   3
  -6   6  -2 782.236 201.431   1
  -6   4  -1 920.494 190.740   2
  -6   2   0 1576.01 230.228   2
  -6   0   1 514.073 118.275   2
  -6   0   1 439.911 131.809   3
  -6  -2   2 62.4259 56.8115   3
  -6   5  -2 33.4363 53.9254   2
  -6   5  -2 115.904 108.684   1
  -6   3  -1-96.7463 76.0361   2
  -6   1   0 125.964 69.8533   2
  -6  -1   1 8.50493 27.8600   3
  -6  -3   2 9.41375 58.9031   3
  -6   4  -2-36.6806 64.1628   2
  -6   4  -2 83.1937 74.4025   1
  -6   2  -1 39.9019 43.0727   2
  -6   0   0 69.0193 42.0005   2
  -6  -2   1-83.6809 64.0477   3
  -6   5  -3 369.549 154.993   1
  -6   3  -2 1120.38 206.163   2
  -6   1  -1 499.124 127.744   2
  -6  -1   0 21.9160 23.7596   3
  -6   4  -3 745.885 196.889   1
  -6   2  -2 434.123 127.574   2
  -6   2  -2 567.610 185.354   1
  -6   0  -1 146.291 87.7930   1
  -6  -2   0 217.622 100.942   3
  -6   5  -4 70.9582 58.7121   1
  -6   3  -3 182.058 107.171   1
  -6   1  -2 167.559 102.451   1
  -6  -1  -1-67.3981 23.0940   1
  -6  -1  -1 340.744 178.282   3
  -6   4  -4 74.7834 66.3326   1
  -6   2  -3 353.720 136.219   1
  -6   0  -2 177.263 101.468   1
  -6  -2  -1 3751.64 466.896   3
  -6   3  -4 61.4754 69.2966   1
  -6   1  -3 5475.65 520.080   1
  -6  -1  -2 9776.04 648.711   1
  -6  -1  -2 9884.17 718.830   3
  -6   2  -4 2529.31 359.669   1
  -6   0  -3 224.972 107.403   1
  -6   3  -5 54.2683 67.1632   1
  -6   1  -4 18.0500 76.0905   1
  -6  -1  -3 1118.70 221.268   1
  -6   2  -5 1552.70 278.954   1
  -6   0  -4 454.556 147.474   1
  -6   1  -5 2816.87 370.506   1
  -6  -1  -4 4907.73 471.885   1
  -6   0  -5-109.101 84.5292   1
  -7   0   8 311.602 136.995   2
  -7   1   7 3940.25 463.896   2
  -7   2   6 101.617 63.0527   2
  -7   0   7 851.534 218.789   2
  -7   1   6 84.0739 83.2892   2
  -7   2   5-136.182 128.551   2
  -7   0   6 12.1439 25.8687   2
  -7   3   4 115.257 66.9962   2
  -7   1   5 3.46407 52.0020   2
  -7   2   4-229.941 143.982   2
  -7   0   5 2.30191 16.2961   2
  -7   3   3-52.8307 81.5856   2
  -7   1   4-155.970 108.748   2
  -7   2   3-101.064 99.3823   2
  -7   3   2 1117.62 217.404   2
  -7   1   3-93.9097 73.2645   2
  -7   2   2 471.449 127.165   2
  -7   3   1 1668.51 267.944   2
  -7   1   2 95.6426 60.4771   2
  -7   2   1 378.033 130.528   2
  -7   3   0 11851.8 708.141   2
  -7   1   1 3875.73 366.784   2
  -7   2   0 155.923 80.1009   2
  -7   3  -1 393.809 136.991   2
  -7   2  -1 88.6920 68.3483   2
   0   0   0    0.00    0.00   0
TITL haoke4c_200K in P-1
REM P-1 (#2 in standard setting)
CELL 0.71073   5.594507   6.536709  11.766605 102.8168 100.0527 102.8827
ZERR    2.00   0.000598   0.000517   0.000905   0.0066   0.0077   0.0079
LATT  1
SFAC C H
UNIT 52.00 40.00
TREF
HKLF 4
END
;
_shelx_hkl_checksum              2498
_shelx_shelxl_version_number     2014/7
_olex2_date_sample_data_collection 2016-05-12
_olex2_submission_special_instructions 'No special instructions were received'
loop_
_space_group_symop_operation_xyz
'x, y, z'
'-x, -y, -z'
loop_
_atom_site_label
_atom_site_type_symbol
_atom_site_fract_x
_atom_site_fract_y
_atom_site_fract_z
_atom_site_U_iso_or_equiv
_atom_site_adp_type
_atom_site_occupancy
_atom_site_site_symmetry_order
_atom_site_calc_flag
_atom_site_refinement_flags_posn
C1 C 0.5129(2) 0.1934(2) 0.15288(11) 0.0351(4) Uani 1 1 d .
C2 C 0.6174(2) 0.4161(2) 0.17150(12) 0.0357(4) Uani 1 1 d .
C3 C 0.5435(2) 0.5618(2) 0.25414(11) 0.0375(4) Uani 1 1 d .
H3 H 0.6155 0.7135 0.2670 0.045 Uiso 1 1 calc R
C4 C 0.3696(2) 0.4963(2) 0.31881(12) 0.0377(4) Uani 1 1 d .
C5 C 0.2654(3) 0.2732(2) 0.30027(12) 0.0380(4) Uani 1 1 d .
C6 C 0.3391(2) 0.1276(2) 0.21834(12) 0.0375(4) Uani 1 1 d .
H6 H 0.2683 -0.0241 0.2061 0.045 Uiso 1 1 calc R
C7 C 0.8078(3) 0.5005(2) 0.10493(13) 0.0456(4) Uani 1 1 d .
H7A H 0.9500 0.4369 0.1176 0.068 Uiso 1 1 calc GR
H7B H 0.8690 0.6596 0.1348 0.068 Uiso 1 1 calc GR
H7C H 0.7283 0.4596 0.0191 0.068 Uiso 1 1 calc GR
C8 C 0.2952(3) 0.6631(3) 0.40558(13) 0.0522(5) Uani 1 1 d .
H8A H 0.3361 0.6431 0.4861 0.078 Uiso 1 1 calc GR
H8B H 0.1134 0.6451 0.3809 0.078 Uiso 1 1 calc GR
H8C H 0.3876 0.8097 0.4063 0.078 Uiso 1 1 calc GR
C9 C 0.0776(3) 0.1916(3) 0.36879(14) 0.0524(5) Uani 1 1 d .
H9A H 0.1542 0.2466 0.4550 0.079 Uiso 1 1 calc GR
H9B H 0.0287 0.0318 0.3458 0.079 Uiso 1 1 calc GR
H9C H -0.0722 0.2434 0.3500 0.079 Uiso 1 1 calc GR
C10 C 0.5785(2) 0.0233(2) 0.06407(11) 0.0409(4) Uani 1 1 d .
H10A H 0.5511 -0.1135 0.0890 0.049 Uiso 1 1 calc R
H10B H 0.7596 0.0730 0.0650 0.049 Uiso 1 1 calc R
loop_
_atom_site_aniso_label
_atom_site_aniso_U_11
_atom_site_aniso_U_22
_atom_site_aniso_U_33
_atom_site_aniso_U_23
_atom_site_aniso_U_13
_atom_site_aniso_U_12
C1 0.0347(7) 0.0450(8) 0.0253(7) 0.0068(6) 0.0055(5) 0.0144(6)
C2 0.0326(7) 0.0458(8) 0.0277(7) 0.0103(6) 0.0050(5) 0.0103(6)
C3 0.0388(8) 0.0397(8) 0.0298(8) 0.0055(6) 0.0034(6) 0.0101(6)
C4 0.0363(7) 0.0491(9) 0.0257(7) 0.0045(6) 0.0042(6) 0.0159(6)
C5 0.0335(7) 0.0522(8) 0.0275(7) 0.0101(6) 0.0061(6) 0.0116(6)
C6 0.0399(8) 0.0404(7) 0.0299(7) 0.0094(6) 0.0057(6) 0.0086(6)
C7 0.0413(8) 0.0561(9) 0.0415(9) 0.0164(7) 0.0143(7) 0.0106(7)
C8 0.0561(10) 0.0667(10) 0.0341(8) 0.0028(7) 0.0104(7) 0.0287(8)
C9 0.0450(9) 0.0733(10) 0.0429(9) 0.0190(7) 0.0182(7) 0.0148(8)
C10 0.0467(9) 0.0468(8) 0.0310(8) 0.0073(6) 0.0102(6) 0.0188(6)
loop_
_atom_type_symbol
_atom_type_description
_atom_type_scat_dispersion_real
_atom_type_scat_dispersion_imag
_atom_type_scat_source
C C 0.0033 0.0016 'International Tables Vol C Tables 4.2.6.8 and 6.1.1.4'
H H 0.0000 0.0000 'International Tables Vol C Tables 4.2.6.8 and 6.1.1.4'
loop_
_geom_angle_atom_site_label_1
_geom_angle_atom_site_label_2
_geom_angle_atom_site_label_3
_geom_angle
_geom_angle_site_symmetry_3
C2 C1 C6 118.36(12) .
C2 C1 C10 122.38(12) .
C6 C1 C10 119.25(12) .
C1 C2 C7 121.60(12) .
C3 C2 C1 118.51(12) .
C3 C2 C7 119.88(12) .
C4 C3 C2 123.12(13) .
C3 C4 C5 118.30(12) .
C3 C4 C8 120.32(13) .
C5 C4 C8 121.37(13) .
C4 C5 C9 120.85(12) .
C6 C5 C4 118.75(12) .
C6 C5 C9 120.39(13) .
C5 C6 C1 122.94(13) .
C1 C10 C10 112.78(13) 2_655
loop_
_geom_bond_atom_site_label_1
_geom_bond_atom_site_label_2
_geom_bond_distance
_geom_bond_site_symmetry_2
C1 C2 1.3941(19) .
C1 C6 1.3946(18) .
C1 C10 1.5044(17) .
C2 C3 1.3886(19) .
C2 C7 1.5079(17) .
C3 C4 1.3881(18) .
C4 C5 1.3961(19) .
C4 C8 1.5035(18) .
C5 C6 1.3829(19) .
C5 C9 1.5085(18) .
C10 C10 1.533(3) 2_655
loop_
_geom_torsion_atom_site_label_1
_geom_torsion_atom_site_label_2
_geom_torsion_atom_site_label_3
_geom_torsion_atom_site_label_4
_geom_torsion
_geom_torsion_site_symmetry_4
C1 C2 C3 C4 -0.3(2) .
C2 C1 C6 C5 0.3(2) .
C2 C1 C10 C10 -84.14(18) 2_655
C2 C3 C4 C5 0.4(2) .
C2 C3 C4 C8 -179.08(11) .
C3 C4 C5 C6 -0.2(2) .
C3 C4 C5 C9 179.32(12) .
C4 C5 C6 C1 -0.2(2) .
C6 C1 C2 C3 -0.1(2) .
C6 C1 C2 C7 179.55(11) .
C6 C1 C10 C10 95.08(17) 2_655
C7 C2 C3 C4 -179.93(11) .
C8 C4 C5 C6 179.30(12) .
C8 C4 C5 C9 -1.2(2) .
C9 C5 C6 C1 -179.69(11) .
C10 C1 C2 C3 179.15(11) .
C10 C1 C2 C7 -1.2(2) .
C10 C1 C6 C5 -178.95(11) .
