#------------------------------------------------------------------------------
#$Date: 2020-01-04 05:59:21 +0200 (Sat, 04 Jan 2020) $
#$Revision: 246582 $
#$URL: file:///home/coder/svn-repositories/cod/cif/8/00/03/8000343.cif $
#------------------------------------------------------------------------------
#
# This file is available in the Crystallography Open Database (COD),
# http://www.crystallography.net/
#
# All data on this site have been placed in the public domain by the
# contributors.
#
data_8000343
loop_
_publ_author_name
'Sarkar, Sounak'
'Thomas, Sajesh P.'
'Potnuru, Lokeswara Rao'
'Edwards, Alison J.'
'Grosjean, Arnaud'
'Ramanathan, Krishna Venkatachala'
'Guru Row, T. N.'
_publ_section_title
;
 Experimental Insights into the Electronic Nature, Spectral Features, and
 Role of Entropy in Short
 CH<sub>3</sub>&#x00B7;&#x00B7;&#x00B7;CH<sub>3</sub> Hydrophobic
 Interactions.
;
_journal_issue                   22
_journal_name_full               'The journal of physical chemistry letters'
_journal_page_first              7224
_journal_page_last               7229
_journal_paper_doi               10.1021/acs.jpclett.9b02734
_journal_volume                  10
_journal_year                    2019
_chemical_formula_sum            'C10 H14 N2 O4'
_chemical_formula_weight         226.23
_space_group_crystal_system      triclinic
_space_group_IT_number           2
_space_group_name_Hall           '-P 1'
_space_group_name_H-M_alt        'P -1'
_atom_sites_solution_hydrogens   difmap
_audit_creation_method           SHELXL-2018/3
_cell_angle_alpha                82.020(4)
_cell_angle_beta                 80.617(4)
_cell_angle_gamma                86.006(4)
_cell_formula_units_Z            1
_cell_length_a                   3.84026(19)
_cell_length_b                   8.3386(4)
_cell_length_c                   8.6155(5)
_cell_measurement_reflns_used    5340
_cell_measurement_temperature    150.00(2)
_cell_measurement_theta_max      36.2500
_cell_measurement_theta_min      4.7940
_cell_volume                     269.25(2)
_computing_structure_refinement  'SHELXL-2018/3 (Sheldrick, 2018)'
_diffrn_ambient_environment      N~2~
_diffrn_ambient_temperature      150.00(2)
_diffrn_detector                 'CCD plate'
_diffrn_detector_area_resol_mean 8.0419
_diffrn_detector_type            Eos
_diffrn_measured_fraction_theta_full 0.991
_diffrn_measured_fraction_theta_max 0.996
_diffrn_measurement_device       'four-circle diffractometer'
_diffrn_measurement_device_type  'Xcalibur, Eos, Nova'
_diffrn_radiation_monochromator  mirror
_diffrn_radiation_probe          x-ray
_diffrn_radiation_type           'Mo K\a'
_diffrn_radiation_wavelength     0.71073
_diffrn_reflns_av_R_equivalents  0.0280
_diffrn_reflns_av_unetI/netI     0.0348
_diffrn_reflns_Laue_measured_fraction_full 0.991
_diffrn_reflns_Laue_measured_fraction_max 0.996
_diffrn_reflns_number            2605
_diffrn_reflns_point_group_measured_fraction_full 0.991
_diffrn_reflns_point_group_measured_fraction_max 0.996
_diffrn_reflns_theta_full        25.242
_diffrn_reflns_theta_max         36.307
_diffrn_reflns_theta_min         4.837
_diffrn_source                   'micro-focus sealed X-ray tube'
_diffrn_source_type              'Mova (Mo) X-ray Source'
_exptl_absorpt_coefficient_mu    0.109
_exptl_crystal_colour            block
_exptl_crystal_density_diffrn    1.395
_exptl_crystal_description       colourless
_exptl_crystal_F_000             120
_refine_diff_density_max         0.511
_refine_diff_density_min         -0.180
_refine_diff_density_rms         0.052
_refine_ls_extinction_method     none
_refine_ls_goodness_of_fit_ref   1.067
_refine_ls_hydrogen_treatment    refall
_refine_ls_matrix_type           full
_refine_ls_number_parameters     101
_refine_ls_number_reflns         2605
_refine_ls_number_restraints     0
_refine_ls_restrained_S_all      1.067
_refine_ls_R_factor_all          0.0434
_refine_ls_R_factor_gt           0.0383
_refine_ls_shift/su_max          0.000
_refine_ls_shift/su_mean         0.000
_refine_ls_structure_factor_coef Fsqd
_refine_ls_weighting_details
'w=1/[\s^2^(Fo^2^)+(0.0623P)^2^+0.0349P] where P=(Fo^2^+2Fc^2^)/3'
_refine_ls_weighting_scheme      calc
_refine_ls_wR_factor_gt          0.1161
_refine_ls_wR_factor_ref         0.1194
_reflns_Friedel_coverage         0.000
_reflns_number_gt                2285
_reflns_number_total             2605
_reflns_threshold_expression     'I > 2\s(I)'
_cod_data_source_file            jz9b02734_si_003.cif
_cod_data_source_block           TMP-OA-150K
_cod_depositor_comments
'Adding full bibliography for 8000326--8000347.cif.'
_cod_database_code               8000343
_shelx_shelxl_version_number     2018/3
_shelx_space_group_comment
;
The symmetry employed for this shelxl refinement is uniquely defined
by the following loop, which should always be used as a source of
symmetry information in preference to the above space-group names.
They are only intended as comments.
;
_shelx_res_file
;
TITL face in P-1
    shelx.res
    created by SHELXL-2018/3 at 18:50:55 on 06-May-2018
REM P-1 (#2 in standard setting)
CELL 0.71073   3.840257   8.338613   8.615451  82.0201  80.6169  86.0058
ZERR    1.00   0.000189   0.000376   0.000465   0.0041   0.0043   0.0038
LATT   1
SFAC  C    H    N    O
UNIT  10 14 2 4
MERG   2
FMAP   2
PLAN   40
acta
BOND   $H
LIST   3
L.S.  15
WGHT    0.062300    0.034900
FVAR      26.93102
O2    4    0.422358    0.801715    0.089280    11.00000    0.04471    0.01387 =
         0.01685    0.00284   -0.01188   -0.00529
O1    4    0.638115    1.006467    0.182249    11.00000    0.06457    0.02292 =
         0.02105    0.00378   -0.02286   -0.01370
N1    3    0.468304    0.604616    0.364267    11.00000    0.01954    0.01068 =
         0.01205    0.00011   -0.00308   -0.00064
C4    1    0.645697    0.460971    0.354954    11.00000    0.01673    0.01189 =
         0.01154   -0.00130   -0.00180   -0.00123
C2    1    0.321725    0.645529    0.506704    11.00000    0.01680    0.01014 =
         0.01341   -0.00097   -0.00338   -0.00018
C5    1    0.802775    0.420009    0.193566    11.00000    0.02533    0.02319 =
         0.01309   -0.00469    0.00014    0.00188
H5A   2    0.736831    0.504378    0.113031    11.00000    0.04214
H5B   2    0.731391    0.320640    0.171203    11.00000    0.03953
H5C   2    1.055400    0.404277    0.182033    11.00000    0.04446
C3    1    0.131543    0.807871    0.511410    11.00000    0.02406    0.01291 =
         0.02398   -0.00366   -0.00553    0.00448
H3A   2    0.269403    0.880756    0.536125    11.00000    0.05214
H3B   2   -0.081069    0.800873    0.592053    11.00000    0.04004
H3C   2    0.041221    0.841575    0.412462    11.00000    0.05180
C1    1    0.522987    0.950278    0.080510    11.00000    0.03283    0.01466 =
         0.01495    0.00169   -0.00865   -0.00280
H2O   2    0.441681    0.745603    0.184408    11.00000    0.05563
HKLF    4




REM  face in P-1
REM wR2 = 0.1194, GooF = S = 1.067, Restrained GooF = 1.067 for all data
REM R1 = 0.0383 for 2285 Fo > 4sig(Fo) and 0.0434 for all 2605 data
REM 101 parameters refined using 0 restraints

END

WGHT      0.0623      0.0350

REM Highest difference peak  0.511,  deepest hole -0.180,  1-sigma level  0.052
Q1    1   0.6600  0.4059  0.4225  11.00000  0.05    0.51
Q2    1   0.5000  1.0000  0.0000  10.50000  0.05    0.50
Q3    1   0.7206  0.4344  0.2762  11.00000  0.05    0.44
Q4    1   0.3925  0.6197  0.4380  11.00000  0.05    0.43
Q5    1   0.5742  0.5373  0.3625  11.00000  0.05    0.38
Q6    1   0.2097  0.7208  0.5084  11.00000  0.05    0.37
Q7    1   0.4527  0.8766  0.0956  11.00000  0.05    0.29
Q8    1   0.6658  0.9767  0.1251  11.00000  0.05    0.26
Q9    1   0.5089  0.9965  0.1384  11.00000  0.05    0.25
Q10   1   0.4933  1.0462  0.1765  11.00000  0.05    0.23
Q11   1   0.4288  0.6527  0.3065  11.00000  0.05    0.23
Q12   1   0.2114  0.8675  0.6093  11.00000  0.05    0.20
Q13   1   0.2600  0.8939  0.4588  11.00000  0.05    0.18
Q14   1   0.1416  0.8721  0.4119  11.00000  0.05    0.17
Q15   1   0.9075  0.4899  0.1477  11.00000  0.05    0.17
Q16   1   0.0536  0.8497  0.6005  11.00000  0.05    0.16
Q17   1   0.7321  1.0722  0.1547  11.00000  0.05    0.14
Q18   1   0.9464  0.3711  0.1975  11.00000  0.05    0.14
Q19   1   1.0779  0.4670  0.1658  11.00000  0.05    0.13
Q20   1   0.4220  0.7736  0.0372  11.00000  0.05    0.12
Q21   1   0.6705  0.4525  0.1203  11.00000  0.05    0.11
Q22   1   0.6338  0.4870  0.1026  11.00000  0.05    0.11
Q23   1   0.5843  1.0996  0.1935  11.00000  0.05    0.10
Q24   1   0.4089  0.5043  0.0887  11.00000  0.05    0.09
Q25   1   0.1321  0.7150  0.1247  11.00000  0.05    0.09
Q26   1   0.8722  0.9219  0.1552  11.00000  0.05    0.09
Q27   1  -0.1818  0.8831  0.2930  11.00000  0.05    0.09
Q28   1   0.4744  1.0233  0.2837  11.00000  0.05    0.09
Q29   1   0.6442  0.2771  0.1858  11.00000  0.05    0.09
Q30   1   0.8251  0.2950  0.2010  11.00000  0.05    0.08
Q31   1   0.4611  0.4703  0.0426  11.00000  0.05    0.08
Q32   1   0.1780  0.8005  0.0735  11.00000  0.05    0.08
Q33   1   0.5628  0.3425  0.1761  11.00000  0.05    0.08
Q34   1  -0.1077  0.7766  0.3405  11.00000  0.05    0.08
Q35   1   1.1786  0.5602  0.1615  11.00000  0.05    0.08
Q36   1   1.0857  1.0687  0.1800  11.00000  0.05    0.08
Q37   1   0.6235  0.8763  0.2836  11.00000  0.05    0.08
Q38   1   0.1109  0.8985  0.2818  11.00000  0.05    0.08
Q39   1  -0.1417  0.8454  0.4854  11.00000  0.05    0.08
Q40   1  -0.1520  0.8079  0.2472  11.00000  0.05    0.07
;
_shelx_res_checksum              46578
_shelx_hkl_file
;
  -6  -4   1-54.3583 219.732   1
  -6  -3   1 764.753 192.138   1
  -6  -2   1 928.465 300.223   1
  -6  -2   2 558.695 187.538   1
  -6  -1   116936.70 718.632   1
  -6  -1   2 2406.60 361.979   1
  -6   0   1 8801.49 449.101   1
  -6   0   2 2800.91 308.935   1
  -6   1   0 260.144 103.809   1
  -6   1   1 1112.24 151.352   1
  -6   1   2-207.491 201.573   1
  -6   2   0 741.684 143.144   1
  -6   2   2 -130.56 257.277   1
  -6   3   0 257.592 116.791   1
  -6   3   1 300.331 106.977   1
  -5  -8   1 499.381 189.739   1
  -5  -8   2 1005.03  267.12   1
  -5  -7   1 264.594 121.585   1
  -5  -7   2 585.734 137.987   1
  -5  -7   3 9032.31 645.547   1
  -5  -6   1 268.779  105.80   1
  -5  -6   2 1080.03 149.368   1
  -5  -6   316712.50 697.589   1
  -5  -6   411728.70 717.994   1
  -5  -5   1 9250.59  505.31   1
  -5  -5   2 645.676 143.045   1
  -5  -5   3 2159.91 242.612   1
  -5  -5   4 2631.82 349.303   1
  -5  -5   5-69.2368 191.654   1
  -5  -4   110079.10 718.639   1
  -5  -4   2 2801.73 403.816   1
  -5  -4   3 656.764 138.323   1
  -5  -4   4 1661.34 301.934   1
  -5  -4   5 409.066  627.22   1
  -5  -3   1 578.232 123.728   1
  -5  -3   2-49.2714 175.669   1
  -5  -3   3 4.18394 111.915   1
  -5  -3   4 538.778 137.178   1
  -5  -3   5 368.781 438.246   1
  -5  -3   6 1067.53 227.662   1
  -5  -2   1 1921.38 209.987   1
  -5  -2   2 2132.71 188.902   1
  -5  -2   3 3378.50 293.497   1
  -5  -2   4 4903.62 440.958   1
  -5  -2   5 835.182 204.082   1
  -5  -2   6 2530.99  344.46   1
  -5  -1   1 1126.18 198.802   1
  -5  -1   2 1402.08 171.697   1
  -5  -1   3 176.407  153.13   1
  -5  -1   4 8419.22 588.385   1
  -5  -1   5 1131.11 263.678   1
  -5  -1   6 858.432 222.319   1
  -5   0   120366.40 834.299   1
  -5   0   221919.00 927.346   1
  -5   0   3 1408.20 198.399   1
  -5   0   4 329.128 257.137   1
  -5   0   5-56.9552 233.366   1
  -5   0   6 194.963 118.823   1
  -5   0   7 966.133 233.734   1
  -5   1   0 335.569 87.4684   1
  -5   1   124750.70 852.535   1
  -5   1   217729.20 821.338   1
  -5   1   3 3055.25 419.063   1
  -5   1   4 489.432 159.052   1
  -5   1   5 -126.12 276.147   1
  -5   1   6 1614.91 279.828   1
  -5   2   0 475.472 94.8186   1
  -5   2   1 1230.53 144.883   1
  -5   2   2 3840.13 253.045   1
  -5   2   3  741.02 188.699   1
  -5   2   4 52.2503 87.3233   1
  -5   2   5 2436.88  235.66   1
  -5   2   6 8601.71  531.17   1
  -5   3   0 1108.58 144.102   1
  -5   3   1 2297.55 192.864   1
  -5   3   2 352.026 116.419   1
  -5   3   3 556.029 135.579   1
  -5   3   4 222.099 98.5105   1
  -5   3   5  811.75 175.065   1
  -5   3   6 2657.67 315.236   1
  -5   4   0 409.033 106.101   1
  -5   4   1 521.259 106.305   1
  -5   4   2 477.245 114.437   1
  -5   4   3 1164.25  136.94   1
  -5   4   4 1413.01 180.793   1
  -5   4   5 2885.35 268.041   1
  -5   4   6 206.698  163.18   1
  -5   5   0 138.952 161.707   1
  -5   5   1 4747.23 306.192   1
  -5   5   2 8604.75 551.534   1
  -5   5   3 2633.54 326.792   1
  -5   5   4 3025.92 380.141   1
  -5   5   5 1149.64 174.957   1
  -5   6   0 2285.62 255.138   1
  -5   6   1-4.60269  188.70   1
  -5   6   2 4103.98 374.211   1
  -5   6   3 429.293  117.44   1
  -5   6   4 145.691 151.146   1
  -5   7   023800.40 1005.37   1
  -5   7   1 3400.26 331.234   1
  -5   7   2 159.331 110.206   1
  -5   7   3 364.112 131.804   1
  -4 -10   1 2709.63 241.619   1
  -4 -10   2 5601.23 466.031   1
  -4  -9   1 2988.91 203.125   1
  -4  -9   2 73.5058 93.4111   1
  -4  -9   3 6553.41 437.043   1
  -4  -9   4 475.109 108.049   1
  -4  -8   1 -22.055 145.163   1
  -4  -8   2-60.8893 149.295   1
  -4  -8   3 286.087  78.984   1
  -4  -8   4 80.2696 102.753   1
  -4  -8   5 1331.01 218.848   1
  -4  -7   1 5995.34 262.474   1
  -4  -7   2 998.924 132.633   1
  -4  -7   3-35.4036 188.159   1
  -4  -7   4 1873.10 244.941   1
  -4  -7   5 108.158 87.4459   1
  -4  -7   6 2282.88 277.501   1
  -4  -6   1 176.066 51.2145   1
  -4  -6   2 4400.83 305.154   1
  -4  -6   3 2547.42 198.483   1
  -4  -6   415816.80 746.624   1
  -4  -6   5 5335.28 332.458   1
  -4  -6   6 161.027 99.1191   1
  -4  -6   7 1162.25 261.283   1
  -4  -5   1 1528.46 148.665   1
  -4  -5   2 2208.84 235.738   1
  -4  -5   3 5976.42 307.016   1
  -4  -5   450901.10 1679.58   1
  -4  -5   5 7735.25 738.053   1
  -4  -5   6 4121.51 333.128   1
  -4  -5   7 1331.08 409.511   1
  -4  -4   1 3385.20 207.753   1
  -4  -4   2 6773.00 497.755   1
  -4  -4   3 5612.11 290.728   1
  -4  -4   4 5073.47 281.989   1
  -4  -4   512330.10 607.655   1
  -4  -4   6 489.221 259.499   1
  -4  -4   7  296.96 114.571   1
  -4  -4   8 2627.77 289.216   1
  -4  -3   1 7583.71 325.344   1
  -4  -3   234326.30 982.561   1
  -4  -3   3 20.6814 85.7851   1
  -4  -3   4 761.424 110.602   1
  -4  -3   5 6357.73 383.592   1
  -4  -3   6 2469.10  327.98   1
  -4  -3   7 3243.67 472.227   1
  -4  -3   8 5338.67 411.461   1
  -4  -2   1 9819.50 361.484   1
  -4  -2   2 108.039 70.4914   1
  -4  -2   3 1013.49 110.927   1
  -4  -2   4 5.48679 72.9412   1
  -4  -2   5  455.73  185.12   1
  -4  -2   6 329.145  210.47   1
  -4  -2   7 375.771 108.775   1
  -4  -2   8 4259.73 372.531   1
  -4  -2   9 122.162 153.159   1
  -4  -1   1 4023.01 379.691   1
  -4  -1   2 850.264 117.577   1
  -4  -1   3 3451.67  305.41   1
  -4  -1   4 9183.79 549.774   1
  -4  -1   5 7315.57 397.976   1
  -4  -1   6 65.4643 149.528   1
  -4  -1   7 2441.21 242.269   1
  -4  -1   8 385.905 117.432   1
  -4  -1   9 589.321 171.039   1
  -4   0   1 1962.29 147.729   1
  -4   0   2 2159.36 171.514   1
  -4   0   3  483.87 97.1273   1
  -4   0   411268.60 582.796   1
  -4   0   5 7465.72 745.921   1
  -4   0   6 4187.29 369.249   1
  -4   0   7 3615.73 318.069   1
  -4   0   8 25.2057 111.331   1
  -4   0   9 5164.96 357.798   1
  -4   1   0 1262.83 114.642   1
  -4   1   1 9571.24 369.059   1
  -4   1   226842.90 821.491   1
  -4   1   326253.10 855.448   1
  -4   1   4 231.699 185.856   1
  -4   1   5  750.70 330.882   1
  -4   1   6 726.904 162.489   1
  -4   1   7 1769.31 344.459   1
  -4   1   8 6476.70 578.276   1
  -4   1   919359.90 1356.26   1
  -4   2   0 1314.43  117.03   1
  -4   2   1 3862.22 299.285   1
  -4   2   297001.60 2435.05   1
  -4   2   312097.20 469.388   1
  -4   2   4 5495.92 359.268   1
  -4   2   5 2810.35 280.729   1
  -4   2   6 2439.71 278.038   1
  -4   2   7 44.8981 180.699   1
  -4   2   8 2449.34 308.835   1
  -4   2   916712.50 1010.85   1
  -4   3   0 8990.98 346.962   1
  -4   3   1 405.808 121.637   1
  -4   3   2 2638.36  176.17   1
  -4   3   311205.90 393.238   1
  -4   3   4 3397.06 273.874   1
  -4   3   5 137.137 91.0069   1
  -4   3   6 8514.57 449.984   1
  -4   3   712073.70 587.215   1
  -4   3   8 1432.29 348.313   1
  -4   3   9 426.261 183.888   1
  -4   4   036694.30 1298.19   1
  -4   4   1 197.251 55.4497   1
  -4   4   2 3510.39 186.961   1
  -4   4   3 2330.06 151.434   1
  -4   4   4 3297.79 203.005   1
  -4   4   5 784.551 133.008   1
  -4   4   6 3616.64 283.458   1
  -4   4   7 4354.72 333.914   1
  -4   4   8 210.025 126.705   1
  -4   4   9 61.9597 155.758   1
  -4   5   0 94.9748 86.6598   1
  -4   5   1 6.81864 62.0676   1
  -4   5   2 457.056 68.7439   1
  -4   5   3 488.918 76.2783   1
  -4   5   4 71.1693 50.9393   1
  -4   5   5 878.062 183.426   1
  -4   5   6 4455.57 321.174   1
  -4   5   7 137.427 99.9144   1
  -4   5   8  201.85 128.533   1
  -4   6   0 4781.90 312.908   1
  -4   6   1  14.584 97.6956   1
  -4   6   2 7253.00 488.521   1
  -4   6   315233.10 676.892   1
  -4   6   4 2035.36 194.082   1
  -4   6   5 2692.06 216.963   1
  -4   6   6 3883.19 341.808   1
  -4   6   7 159.014 135.806   1
  -4   6   8-152.457 302.785   1
  -4   7   0 1241.65  222.77   1
  -4   7   1 1097.10 172.642   1
  -4   7   2 6199.22  385.59   1
  -4   7   3 4135.20 319.514   1
  -4   7   4 2308.61 261.658   1
  -4   7   5 1132.82 222.883   1
  -4   7   6 144.891 112.487   1
  -4   7   7 5043.34 437.927   1
  -4   8   016283.50 698.151   1
  -4   8   128174.80 1126.84   1
  -4   8   2 1563.83 211.082   1
  -4   8   3-212.321 185.641   1
  -4   8   4 2155.20 248.597   1
  -4   8   5 26.2974 130.429   1
  -4   8   6 6112.78 660.558   1
  -4   9   035197.70 1247.85   1
  -4   9   1 5666.79 795.393   1
  -4   9   2 1437.27  230.71   1
  -4   9   3-118.256 180.369   1
  -4   9   4 1378.69 274.341   1
  -4  10   0 640.229 234.175   1
  -4  10   1 4781.42 449.769   1
  -4  10   2 1260.48 262.675   1
  -3 -12   1 2106.50 206.745   1
  -3 -11   1 137.008 79.8983   1
  -3 -11   2 410.876 125.051   1
  -3 -11   3 17.2674 90.2547   1
  -3 -10   127442.80 868.993   1
  -3 -10   2 29.4096 93.7965   1
  -3 -10   3 1481.12 159.763   1
  -3 -10   4 3326.38 364.196   1
  -3 -10   5 1051.47  218.76   1
  -3  -9   1   44.19 70.8034   1
  -3  -9   2 119.018 55.8257   1
  -3  -9   3 2759.49 276.971   1
  -3  -9   4 3811.63 271.795   1
  -3  -9   5 9737.67 743.798   1
  -3  -9   6 1923.58 281.918   1
  -3  -8   1 3645.67 173.851   1
  -3  -8   2 193.804 65.9362   1
  -3  -8   3 7117.17 405.704   1
  -3  -8   411598.90  494.94   1
  -3  -8   5 288.729 92.4196   1
  -3  -8   6 1720.09 374.289   1
  -3  -8   7 2153.40 450.995   1
  -3  -7   1 9696.56 320.701   1
  -3  -7   2 158.517 47.4449   1
  -3  -7   3 509.436  77.524   1
  -3  -7   4 782.394 100.425   1
  -3  -7   5 538.997 96.1716   1
  -3  -7   6 181.994 147.194   1
  -3  -7   7 946.683 155.603   1
  -3  -7   8 2970.57 333.835   1
  -3  -6   1 956.027 79.4551   1
  -3  -6   2 5549.72 221.951   1
  -3  -6   3 224.767 70.7956   1
  -3  -6   4  891.49 159.518   1
  -3  -6   5 8019.19 312.604   1
  -3  -6   6 136.931 67.3431   1
  -3  -6   719580.30 815.105   1
  -3  -6   8 253.398 105.192   1
  -3  -6   9 5981.49 740.146   1
  -3  -5   126946.30  712.62   1
  -3  -5   2 1182.90   83.29   1
  -3  -5   312123.00 381.643   1
  -3  -5   429964.90 981.985   1
  -3  -5   5 2940.75 172.178   1
  -3  -5   6 3017.10 191.853   1
  -3  -5   7 419.312 85.4927   1
  -3  -5   8 7487.78 1148.35   1
  -3  -5   9 0.97854  92.557   1
  -3  -4   1 2488.36 202.792   1
  -3  -4   2 2649.12 128.322   1
  -3  -4   3 2633.35  137.62   1
  -3  -4   411636.40 480.278   1
  -3  -4   5131323.0 3538.88   1
  -3  -4   6 1183.34 132.721   1
  -3  -4   7 4586.61 251.457   1
  -3  -4   8 1658.41 145.903   1
  -3  -4   9 4248.53 579.539   1
  -3  -4  10 1866.94 662.742   1
  -3  -3   114540.00 670.258   1
  -3  -3   240813.00 1134.58   1
  -3  -3   3 945.241 217.702   1
  -3  -3   431788.50 832.011   1
  -3  -3   5 7206.82 266.655   1
  -3  -3   619317.30 695.299   1
  -3  -3   7-46.2051 122.372   1
  -3  -3   8  7.9084 60.7953   1
  -3  -3   9 8374.66  570.94   1
  -3  -3  10 629.445 156.731   1
  -3  -2   115517.50 482.171   1
  -3  -2   212450.20 409.551   1
  -3  -2   358475.50 1433.77   1
  -3  -2   4 771.021  89.639   1
  -3  -2   5 1456.99 148.173   1
  -3  -2   6 3837.08 201.337   1
  -3  -2   7 487.408 80.4535   1
  -3  -2   8 5429.41 303.877   1
  -3  -2   9 8950.60 435.043   1
  -3  -2  10 3190.63  496.44   1
  -3  -2  11 172.799 179.565   1
  -3  -1   1 1084.12  85.161   1
  -3  -1   236054.30 1008.33   1
  -3  -1   3 2883.15 143.001   1
  -3  -1   4 1533.37 102.014   1
  -3  -1   5 4970.73 237.627   1
  -3  -1   6 272.982 71.9816   1
  -3  -1   7 1965.35  190.49   1
  -3  -1   8 2035.42 215.491   1
  -3  -1   9 4179.32 550.324   1
  -3  -1  10  548.97 108.692   1
  -3  -1  11 117.619 98.8754   1
  -3   0   1 30.8443 31.9728   1
  -3   0   2 1163.95 120.132   1
  -3   0   3 2296.82 226.628   1
  -3   0   4 1730.18 230.093   1
  -3   0   5 1121.94  131.48   1
  -3   0   6 9532.51 423.917   1
  -3   0   7 53.5923 68.3796   1
  -3   0   8 1039.89 147.885   1
  -3   0   9 856.521 279.029   1
  -3   0  10 1932.63  197.29   1
  -3   0  11 572.959 301.777   1
  -3   1   024496.10 776.055   1
  -3   1   1 4662.88  203.52   1
  -3   1   236834.80 1125.49   1
  -3   1   310770.40 423.546   1
  -3   1   4 72.4108 46.6646   1
  -3   1   566547.30 1756.90   1
  -3   1   6 1054.89 134.049   1
  -3   1   710865.10 690.321   1
  -3   1   8 3416.18 231.454   1
  -3   1   9 218.192 111.359   1
  -3   1  10 4891.46 397.714   1
  -3   1  11 122.122  115.45   1
  -3   2   0 44.5812 51.1731   1
  -3   2   122752.90 942.958   1
  -3   2   276489.00 1896.78   1
  -3   2   312939.00  405.84   1
  -3   2   413798.30  571.69   1
  -3   2   5 393.407 83.2169   1
  -3   2   6 2650.94 237.866   1
  -3   2   7 294.297 114.067   1
  -3   2   8 2934.26 208.501   1
  -3   2   925599.40 984.792   1
  -3   2  1015214.50 728.867   1
  -3   2  11 2610.20 294.657   1
  -3   3   017853.20 683.955   1
  -3   3   1 6310.22 254.092   1
  -3   3   212744.10 431.511   1
  -3   3   3209112.0 5115.98   1
  -3   3   4 7998.04 295.877   1
  -3   3   5 7968.48 283.711   1
  -3   3   6 2418.76 182.766   1
  -3   3   7 2057.84 163.622   1
  -3   3   8 692.722 99.3836   1
  -3   3   9 9987.51 683.317   1
  -3   3  1031970.50 1206.32   1
  -3   3  11 1336.73 275.916   1
  -3   4   042103.90 1031.41   1
  -3   4   1 5435.94 208.354   1
  -3   4   214419.10 429.223   1
  -3   4   310754.50 437.472   1
  -3   4   4 5307.08 231.127   1
  -3   4   5 1091.87 102.422   1
  -3   4   6 111.254 90.9332   1
  -3   4   725063.80 836.336   1
  -3   4   8 4580.49 342.943   1
  -3   4   9 5448.31  374.06   1
  -3   4  10 8.52232 76.6219   1
  -3   4  11 1614.53 367.716   1
  -3   5   011697.20 346.113   1
  -3   5   123819.10 696.127   1
  -3   5   2 316.639 56.9991   1
  -3   5   3 2170.12 131.471   1
  -3   5   4  247.91 75.2293   1
  -3   5   5 295.663 74.8494   1
  -3   5   6 2473.36 243.441   1
  -3   5   7 9032.99 539.466   1
  -3   5   8 4685.48 844.342   1
  -3   5   9 584.763 238.797   1
  -3   5  10-98.5039 216.596   1
  -3   6   0 5157.72 212.195   1
  -3   6   1 4302.83 238.237   1
  -3   6   2 9338.12 401.333   1
  -3   6   3 165.466 56.7913   1
  -3   6   4 164.329 52.5704   1
  -3   6   5 3567.52 227.263   1
  -3   6   6 459.284  144.29   1
  -3   6   7 4429.87 380.192   1
  -3   6   8 206.179  106.09   1
  -3   6   9 292.116 224.788   1
  -3   6  10 3035.46 405.381   1
  -3   7   0 2948.36 189.736   1
  -3   7   1 508.348 115.914   1
  -3   7   2 6310.85 251.935   1
  -3   7   3 4184.02 211.445   1
  -3   7   417895.10 672.675   1
  -3   7   5 525.088 95.5974   1
  -3   7   6 4876.71 296.722   1
  -3   7   7 3991.17 379.978   1
  -3   7   8 318.991 332.794   1
  -3   7   9 1734.68 408.976   1
  -3   8   016314.30 574.216   1
  -3   8   1 2296.48 188.021   1
  -3   8   2-42.6634 144.221   1
  -3   8   325129.20 725.154   1
  -3   8   4 3781.95 215.798   1
  -3   8   5 6543.48 308.767   1
  -3   8   6 738.383 184.086   1
  -3   8   7-104.967 197.334   1
  -3   8   8 5175.18 486.187   1
  -3   9   030460.40 950.816   1
  -3   9   117475.60 633.523   1
  -3   9   222018.90 754.783   1
  -3   9   3 66.3457  98.973   1
  -3   9   4 12.5083 56.2323   1
  -3   9   5 1580.86 227.651   1
  -3   9   6 382.394 114.376   1
  -3   9   722135.30 1635.03   1
  -3   9   817437.20 1123.38   1
  -3  10   0 5007.10 535.722   1
  -3  10   146058.00 1639.28   1
  -3  10   2 4595.97 490.658   1
  -3  10   3 2369.39 336.915   1
  -3  10   4 110.425 84.6334   1
  -3  10   5 1001.40 182.354   1
  -3  10   6-10.5771 139.847   1
  -3  11   0 171.694 189.548   1
  -3  11   1 5141.30 485.745   1
  -3  11   2 1191.00 214.309   1
  -3  11   3 1421.32 248.928   1
  -3  11   4-80.6807  386.10   1
  -2 -13   1 237.467 96.6283   1
  -2 -12   1 5549.43  453.94   1
  -2 -12   2-51.5537 157.452   1
  -2 -12   3 8144.21 528.675   1
  -2 -11   1 92.2096 62.8203   1
  -2 -11   2 29.3703 94.3434   1
  -2 -11   314863.80 629.948   1
  -2 -11   4 1451.06 176.618   1
  -2 -11   5 1107.07 170.118   1
  -2 -10   123326.00 752.731   1
  -2 -10   2-33.8129 160.191   1
  -2 -10   3-32.8111 212.671   1
  -2 -10   411519.90 510.572   1
  -2 -10   5  69.634 129.201   1
  -2 -10   6 2295.44 278.223   1
  -2 -10   7 3843.46 507.971   1
  -2  -9   176160.70 1878.74   1
  -2  -9   2 2424.91 141.242   1
  -2  -9   3 2171.57 175.822   1
  -2  -9   4 4274.00 295.785   1
  -2  -9   5 6572.49 350.256   1
  -2  -9   6 5261.00 402.758   1
  -2  -9   727862.30 1483.41   1
  -2  -9   8 6406.07 664.915   1
  -2  -8   1 6338.66 239.727   1
  -2  -8   2 7424.87 255.997   1
  -2  -8   3 574.584 90.1428   1
  -2  -8   4 6552.73 347.751   1
  -2  -8   510241.30 389.297   1
  -2  -8   6  6.2281 106.483   1
  -2  -8   7 220.698 103.315   1
  -2  -8   8 1066.30 263.308   1
  -2  -8   9 818.678 246.238   1
  -2  -7   111213.40 333.485   1
  -2  -7   2 3662.04 154.053   1
  -2  -7   3 2017.21 108.313   1
  -2  -7   4 5618.49 224.192   1
  -2  -7   517477.60 870.782   1
  -2  -7   611725.90 627.331   1
  -2  -7   7 3203.42 286.874   1
  -2  -7   812248.20 644.025   1
  -2  -7   9 4.11008 114.779   1
  -2  -6   1 779.883  62.784   1
  -2  -6   2 8608.04 268.204   1
  -2  -6   323676.60 657.426   1
  -2  -6   424671.10 660.399   1
  -2  -6   5 1007.80 88.0354   1
  -2  -6   6 6428.98 330.014   1
  -2  -6   718818.30 954.605   1
  -2  -6   8 529.586  226.65   1
  -2  -6   9 2825.97 291.742   1
  -2  -6  10 22.2489 161.792   1
  -2  -5   116088.80 473.934   1
  -2  -5   2 6580.45 215.937   1
  -2  -5   322077.10 623.817   1
  -2  -5   427714.40 718.179   1
  -2  -5   511962.80 386.516   1
  -2  -5   6 9302.84 343.487   1
  -2  -5   7 333.548 87.9261   1
  -2  -5   832860.60 1589.53   1
  -2  -5   9  23.458 156.877   1
  -2  -5  10 8209.01 523.511   1
  -2  -5  11 315.548 164.386   1
  -2  -4   1243244.0 5658.76   1
  -2  -4   2 150.935  33.997   1
  -2  -4   3 3730.05 142.599   1
  -2  -4   440357.80 1002.23   1
  -2  -4   577050.30 1844.55   1
  -2  -4   6 1143.02 100.977   1
  -2  -4   7 610.082 104.052   1
  -2  -4   8 5117.29 285.717   1
  -2  -4   9 4399.75  285.57   1
  -2  -4  10 1531.43 369.435   1
  -2  -4  11 2114.60 748.247   1
  -2  -3   135673.60 963.916   1
  -2  -3   261165.10 1499.53   1
  -2  -3   3 1496.75 81.2256   1
  -2  -3   422675.80  565.74   1
  -2  -3   541858.40 1048.16   1
  -2  -3   687078.50 2118.38   1
  -2  -3   7 3777.34 206.763   1
  -2  -3   8 4993.96 242.505   1
  -2  -3   9 1262.09 150.926   1
  -2  -3  10 917.238 171.747   1
  -2  -3  11 6100.20  429.17   1
  -2  -2   1 756.589 67.7207   1
  -2  -2   221388.20 579.288   1
  -2  -2   311744.10 358.275   1
  -2  -2   4 266.191  32.029   1
  -2  -2   589881.40 2116.62   1
  -2  -2   650998.90 1276.86   1
  -2  -2   7 1909.73 136.661   1
  -2  -2   8 3087.02 176.781   1
  -2  -2   9-11.4159 127.752   1
  -2  -2  1014888.20 965.484   1
  -2  -2  11 886.425 144.676   1
  -2  -2  1211092.70 1460.44   1
  -2  -1   1   59.63 33.4171   1
  -2  -1   237203.50 929.099   1
  -2  -1   3174339.0 4025.41   1
  -2  -1   4 394.103 43.4095   1
  -2  -1   5 223.773 43.0519   1
  -2  -1   6 180.952 49.2895   1
  -2  -1   7 1455.60 159.106   1
  -2  -1   8 1137.40 120.751   1
  -2  -1   911220.90 526.672   1
  -2  -1  1014742.90 749.805   1
  -2  -1  11  274.50 136.241   1
  -2  -1  12 333.375 104.186   1
  -2   0   153329.30 1344.58   1
  -2   0   2 712.284 58.8582   1
  -2   0   332392.40 895.153   1
  -2   0   478088.00 1827.99   1
  -2   0   526251.80 692.425   1
  -2   0   615172.70 450.082   1
  -2   0   7 5.09251 41.2542   1
  -2   0   8 1512.69 156.752   1
  -2   0   9 6454.09 284.818   1
  -2   0  10 2309.66 253.783   1
  -2   0  11 635.463 117.516   1
  -2   0  12 222.969 98.9339   1
  -2   1   0117767.0 3008.26   1
  -2   1   1317273.0 7601.06   1
  -2   1   295166.90 2306.75   1
  -2   1   3  633.24 56.4572   1
  -2   1   433978.60 843.356   1
  -2   1   523412.80 612.429   1
  -2   1   6 282.291 65.0472   1
  -2   1   7 4010.25 209.088   1
  -2   1   8 4105.59 232.175   1
  -2   1   910169.60 579.246   1
  -2   1  10 24.4641 72.9495   1
  -2   1  11 4813.70 366.356   1
  -2   1  1210092.60 598.838   1
  -2   2   044836.30 1117.69   1
  -2   2   1132294.0 3112.95   1
  -2   2   240856.90 1012.20   1
  -2   2   346566.10 1152.19   1
  -2   2   4 9109.20  311.26   1
  -2   2   510831.40 370.219   1
  -2   2   647648.20 1415.37   1
  -2   2   7 1316.97 111.419   1
  -2   2   824575.20 702.158   1
  -2   2   9 159.676 60.7837   1
  -2   2  10-46.5114 137.193   1
  -2   2  11 2489.46  298.03   1
  -2   2  12 512.818 325.272   1
  -2   3   0 3342.51 155.938   1
  -2   3   1 1344.22   74.73   1
  -2   3   234746.20 843.781   1
  -2   3   376740.00 1799.46   1
  -2   3   419938.30 721.535   1
  -2   3   5 1731.30 93.3988   1
  -2   3   618866.70 644.846   1
  -2   3   7-43.2169 96.2195   1
  -2   3   8 189.667 75.4965   1
  -2   3   9 4140.05 412.664   1
  -2   3  1047059.70 1480.66   1
  -2   3  11 7247.96 454.164   1
  -2   3  12 409.448 157.379   1
  -2   4   0 962.337 63.6964   1
  -2   4   1 1577.01 85.3385   1
  -2   4   220752.50 546.261   1
  -2   4   3136549.0 3163.72   1
  -2   4   4119280.0 2812.70   1
  -2   4   5 9063.22 280.331   1
  -2   4   619671.90 548.767   1
  -2   4   7 379.908 82.0142   1
  -2   4   8 740.212 121.321   1
  -2   4   9 8487.55 590.295   1
  -2   4  1022347.60 861.602   1
  -2   4  1126535.20 1110.42   1
  -2   4  12 1702.32 285.146   1
  -2   5   0 8591.26  242.31   1
  -2   5   1 1977.04 88.5114   1
  -2   5   2 7435.06 223.671   1
  -2   5   325813.40 683.778   1
  -2   5   458523.00 1476.69   1
  -2   5   5 103.882 40.0295   1
  -2   5   6-0.72946 80.9189   1
  -2   5   7 738.133 109.016   1
  -2   5   821937.50 772.065   1
  -2   5   9 562.775 122.622   1
  -2   5  1010828.80 548.973   1
  -2   5  11 1372.98 233.745   1
  -2   5  12 849.026 176.587   1
  -2   6   0 1762.63 104.032   1
  -2   6   1102762.0 2503.49   1
  -2   6   2  79.404 57.8017   1
  -2   6   3 467.005 57.2632   1
  -2   6   4 207.641 72.2975   1
  -2   6   5-4.73634 82.8787   1
  -2   6   6-18.0608 94.2546   1
  -2   6   7 6654.58 293.728   1
  -2   6   826598.50 909.204   1
  -2   6   9 54.7584 83.3291   1
  -2   6  10-154.308 161.341   1
  -2   6  11 200.324 119.935   1
  -2   7   0 1703.34 90.9148   1
  -2   7   1  948.89 68.0123   1
  -2   7   210631.00 382.381   1
  -2   7   319515.30 595.435   1
  -2   7   4 2145.24 130.665   1
  -2   7   5 3071.39 175.779   1
  -2   7   6 632.081 87.9592   1
  -2   7   7 670.611 96.3968   1
  -2   7   8 951.094 181.355   1
  -2   7   9 490.063 168.507   1
  -2   7  10 1628.11 214.626   1
  -2   7  11 2921.17 314.476   1
  -2   8   018475.00 526.285   1
  -2   8   1 3714.13 165.428   1
  -2   8   2 173.367 44.1175   1
  -2   8   3 3854.99  174.76   1
  -2   8   4 5504.40 235.904   1
  -2   8   517827.50 587.572   1
  -2   8   6 2880.74  189.33   1
  -2   8   714351.90 726.544   1
  -2   8   8 1362.67 188.064   1
  -2   8   9 1444.04 200.092   1
  -2   8  10 8745.31 552.273   1
  -2   9   0-80.8117 151.105   1
  -2   9   112504.00 549.309   1
  -2   9   2 3137.72 170.919   1
  -2   9   313185.30 440.208   1
  -2   9   422100.40 664.262   1
  -2   9   5 3745.84 247.015   1
  -2   9   616596.60 688.388   1
  -2   9   7-107.132 134.269   1
  -2   9   8 359.221 139.581   1
  -2   9   9 2854.57 368.133   1
  -2  10   0 451.498 132.826   1
  -2  10   117394.30 1062.47   1
  -2  10   217091.80 855.696   1
  -2  10   312180.10 438.007   1
  -2  10   4 3867.06 402.872   1
  -2  10   5 262.779 84.9895   1
  -2  10   6 762.184 133.855   1
  -2  10   7  25.099 130.031   1
  -2  10   827450.20 1299.29   1
  -2  11   0 1625.57 246.053   1
  -2  11   131245.30 1210.29   1
  -2  11   237348.20 1378.92   1
  -2  11   3 4332.56 306.145   1
  -2  11   4 2747.64 221.162   1
  -2  11   5 174.235  79.801   1
  -2  11   6 586.799 108.425   1
  -2  11   7 1045.07 349.153   1
  -2  12   0 2113.72 291.886   1
  -2  12   1 3638.45  382.26   1
  -2  12   2 7580.31 463.348   1
  -2  12   3 92.9726 197.532   1
  -2  12   4 407.688 191.007   1
  -2  12   5 2887.89 260.591   1
  -1 -13   1 4889.66  339.43   1
  -1 -13   2 5231.31 357.404   1
  -1 -12   1 2423.38 258.279   1
  -1 -12   2 2892.63 276.158   1
  -1 -12   3 1918.86  197.66   1
  -1 -12   4 2490.91  274.67   1
  -1 -12   5 6669.16 422.925   1
  -1 -11   1  74.506 48.7838   1
  -1 -11   2 6223.83 343.107   1
  -1 -11   312780.20 510.617   1
  -1 -11   4  67.872 97.1066   1
  -1 -11   5 11.5466 77.0521   1
  -1 -11   6 4665.73 405.445   1
  -1 -10   1 780.539  134.42   1
  -1 -10   2 1913.74 133.814   1
  -1 -10   3 305.936 75.3711   1
  -1 -10   434340.10 1112.15   1
  -1 -10   5 299.832 120.714   1
  -1 -10   6  70.661 77.5123   1
  -1 -10   7 699.611  167.60   1
  -1  -9   163545.40 1894.97   1
  -1  -9   2 2660.02 202.099   1
  -1  -9   3 4468.79 195.657   1
  -1  -9   4 758.228 99.0235   1
  -1  -9   5 4411.14 264.433   1
  -1  -9   6 4383.54 273.905   1
  -1  -9   7 9584.26 576.796   1
  -1  -9   822326.70 1042.06   1
  -1  -9   9 2340.85 300.363   1
  -1  -8   191079.20 2245.55   1
  -1  -8   262906.80 1514.43   1
  -1  -8   3 9292.78 349.139   1
  -1  -8   4 1845.62 160.816   1
  -1  -8   5 3282.05 205.359   1
  -1  -8   6 7828.97 370.674   1
  -1  -8   7 2793.11 255.931   1
  -1  -8   834414.20 1243.45   1
  -1  -8   924915.90 1125.89   1
  -1  -7   131388.70 782.111   1
  -1  -7   249731.70 1196.42   1
  -1  -7   3 7891.31 270.841   1
  -1  -7   4 8359.72 286.176   1
  -1  -7   5 1699.75 136.458   1
  -1  -7   654392.20 1732.42   1
  -1  -7   731742.60 1053.68   1
  -1  -7   8 140.803 81.0286   1
  -1  -7   9 827.055 189.747   1
  -1  -7  10 2947.78 339.495   1
  -1  -6   1  258.97 35.0599   1
  -1  -6   247279.20 1170.27   1
  -1  -6   342307.20 1021.27   1
  -1  -6   467169.30 1584.50   1
  -1  -6   511610.20 372.027   1
  -1  -6   6 3881.59 206.773   1
  -1  -6   724721.70 835.902   1
  -1  -6   8 2300.42 214.783   1
  -1  -6   910436.40 539.277   1
  -1  -6  10 1018.80 177.046   1
  -1  -6  11 3779.40 396.328   1
  -1  -5   127296.00 670.973   1
  -1  -5   2 8483.12 254.854   1
  -1  -5   353805.90 1376.15   1
  -1  -5   490678.10 2129.86   1
  -1  -5   549030.30 1204.35   1
  -1  -5   6 34.8335 41.7555   1
  -1  -5   7 3954.19 256.332   1
  -1  -5   810209.60 468.952   1
  -1  -5   9 143.199 117.439   1
  -1  -5  10 2717.15  496.53   1
  -1  -5  11 4120.56 362.897   1
  -1  -4   1313763.0 7560.87   1
  -1  -4   2 2561.71  111.78   1
  -1  -4   3 3948.69 211.858   1
  -1  -4   428656.50 703.244   1
  -1  -4   5 6701.09 213.344   1
  -1  -4   6 1028.31 69.5568   1
  -1  -4   7 4801.51 238.607   1
  -1  -4   825559.80 930.013   1
  -1  -4   9 3600.52 266.214   1
  -1  -4  10 41.5433 65.9703   1
  -1  -4  1115557.10 1085.55   1
  -1  -4  12 6645.50 2202.66   1
  -1  -3   1 1564.52 74.0995   1
  -1  -3   2301648.0 7054.52   1
  -1  -3   341539.80 1026.86   1
  -1  -3   4 1039.22 59.8318   1
  -1  -3   5 60.6262 46.4034   1
  -1  -3   6 6780.75 245.246   1
  -1  -3   7 4368.11 191.771   1
  -1  -3   8 2840.66 201.622   1
  -1  -3   927315.80 1162.99   1
  -1  -3  10 1962.34 203.399   1
  -1  -3  11 1541.57 808.386   1
  -1  -3  12 443.413 205.743   1
  -1  -2   139519.00 946.265   1
  -1  -2   242246.40 1000.64   1
  -1  -2   325452.70 664.044   1
  -1  -2   440484.80 957.666   1
  -1  -2   516995.80 450.108   1
  -1  -2   6225269.0 5315.82   1
  -1  -2   712175.10 483.085   1
  -1  -2   8 1349.52 110.724   1
  -1  -2   9 5180.56  265.07   1
  -1  -2  10 2042.75 172.064   1
  -1  -2  11 2259.00 290.772   1
  -1  -2  1217855.70 999.167   1
  -1  -2  1321979.90 1683.65   1
  -1  -1   1235815.0 5678.06   1
  -1  -1   2123168.0 2902.89   1
  -1  -1   3159689.0 3757.19   1
  -1  -1   458569.40 1383.50   1
  -1  -1   514288.30 418.576   1
  -1  -1   694430.40 2230.87   1
  -1  -1   769481.20 1673.68   1
  -1  -1   8 4182.45 188.662   1
  -1  -1   9 4554.29 245.467   1
  -1  -1  10 9424.70 644.424   1
  -1  -1  11 90.5795 72.5824   1
  -1  -1  12 1943.11 331.017   1
  -1  -1  1312334.60 1757.99   1
  -1   0   1682107.018350.60   1
  -1   0   211140.90 351.574   1
  -1   0   3 4139.85 145.693   1
  -1   0   4525342.012438.50   1
  -1   0   544210.90 1069.49   1
  -1   0   6 1445.45  114.70   1
  -1   0   7 2197.24 123.946   1
  -1   0   8 1744.29 137.374   1
  -1   0   9  2.2327 47.8514   1
  -1   0  1011222.60 654.043   1
  -1   0  1139721.10 2276.51   1
  -1   0  12 7697.26 459.796   1
  -1   0  13 821.048 206.668   1
  -1   1   0639337.015200.80   1
  -1   1   1539324.012980.60   1
  -1   1   2168487.0 3920.59   1
  -1   1   3145039.0 3347.69   1
  -1   1   442659.90 1014.46   1
  -1   1   512496.60 384.889   1
  -1   1   6 878.011 74.7173   1
  -1   1   728381.50  747.93   1
  -1   1   832135.80 892.338   1
  -1   1   911836.30 518.259   1
  -1   1  1010573.60 544.276   1
  -1   1  11  92.672 131.061   1
  -1   1  12 5067.01 416.143   1
  -1   1  13 373.723 176.944   1
  -1   2   0 7501.34  214.22   1
  -1   2   187419.00 2059.65   1
  -1   2   2347990.0 8879.61   1
  -1   2   382440.70 1916.59   1
  -1   2   4 1216.44 64.5579   1
  -1   2   5 1223.97 61.2527   1
  -1   2   6 517.898  58.372   1
  -1   2   7 315.183 60.4936   1
  -1   2   8 9867.15 368.661   1
  -1   2   917705.60 635.255   1
  -1   2  1016348.50 808.396   1
  -1   2  11  545.30 120.058   1
  -1   2  12 3176.13 277.313   1
  -1   2  1311456.10 782.537   1
  -1   3   0265119.0 6493.38   1
  -1   3   114133.80 358.359   1
  -1   3   214253.70 355.904   1
  -1   3   339857.40 961.524   1
  -1   3   4 829.241 67.6344   1
  -1   3   529903.80 784.915   1
  -1   3   6116752.0 2947.15   1
  -1   3   711419.50 394.083   1
  -1   3   8 23.6046 53.0962   1
  -1   3   935465.20 1004.02   1
  -1   3  10 316.635 70.1005   1
  -1   3  11 1040.07 137.539   1
  -1   3  12 71.9684 82.4122   1
  -1   3  13 5697.29 416.278   1
  -1   4   057173.40 1477.63   1
  -1   4   176173.50 1812.71   1
  -1   4   227011.60 670.497   1
  -1   4   325371.50 667.739   1
  -1   4   412406.50 328.834   1
  -1   4   5 3494.31 142.645   1
  -1   4   6 0.02965 29.8604   1
  -1   4   722018.60 671.056   1
  -1   4   8 3278.09 192.631   1
  -1   4   9 848.336 106.261   1
  -1   4  10  732.89 148.044   1
  -1   4  1124399.00 870.867   1
  -1   4  12 4169.19 309.287   1
  -1   4  13  149.43 120.868   1
  -1   5   059004.40 1371.46   1
  -1   5   186514.40 1994.68   1
  -1   5   2 72.0088 22.6765   1
  -1   5   311806.10 335.062   1
  -1   5   4263505.0 6280.25   1
  -1   5   573065.10 1950.66   1
  -1   5   6 2861.58 187.496   1
  -1   5   7 3494.64 254.639   1
  -1   5   8 2753.76 316.718   1
  -1   5   9 3243.23 207.388   1
  -1   5  1016077.90 712.295   1
  -1   5  1151386.40 1624.15   1
  -1   5  12 8542.72 633.269   1
  -1   5  13 3500.06 311.231   1
  -1   6   013419.70 352.822   1
  -1   6   180292.50 2020.46   1
  -1   6   2 2119.54 91.2681   1
  -1   6   3 465.257 64.5384   1
  -1   6   489126.20 2188.36   1
  -1   6   519537.60  526.03   1
  -1   6   6 3448.08  147.52   1
  -1   6   7 3752.84  187.22   1
  -1   6   826025.30 841.448   1
  -1   6   9 1082.44 130.702   1
  -1   6  10 604.633 110.995   1
  -1   6  11 9268.00 478.213   1
  -1   6  12 3915.96 382.794   1
  -1   7   0 1415.79 75.6667   1
  -1   7   1 5756.82 183.659   1
  -1   7   278818.90 1975.00   1
  -1   7   3 487.667 53.3543   1
  -1   7   4 203.672 79.5155   1
  -1   7   517824.60 495.926   1
  -1   7   610609.20 345.347   1
  -1   7   7 -4.6822  88.426   1
  -1   7   8 5087.65 303.882   1
  -1   7   945839.60 1399.92   1
  -1   7  10 4136.11 325.439   1
  -1   7  11-30.6659 155.348   1
  -1   7  12-52.5575 187.851   1
  -1   8   0 1109.31 101.975   1
  -1   8   1 90.0851 47.1854   1
  -1   8   224808.60 720.248   1
  -1   8   3 1819.60  128.77   1
  -1   8   412844.40 367.747   1
  -1   8   516415.30 467.255   1
  -1   8   627646.80 755.821   1
  -1   8   7  965.47 205.335   1
  -1   8   8 4363.81 519.473   1
  -1   8   9-82.8003 252.741   1
  -1   8  10 198.486 97.8897   1
  -1   8  11 841.898 180.016   1
  -1   9   0 3148.71  159.58   1
  -1   9   110736.00  442.11   1
  -1   9   2 527.782 109.326   1
  -1   9   3 7443.28  262.61   1
  -1   9   4 259.221 74.4831   1
  -1   9   5 1604.39 110.293   1
  -1   9   611397.90 398.413   1
  -1   9   7 3646.17 348.936   1
  -1   9   812078.30  732.43   1
  -1   9   9  197.37  154.03   1
  -1   9  10-106.149 190.203   1
  -1   9  11 7611.40 547.976   1
  -1  10   0 608.735 133.456   1
  -1  10   110656.90  502.65   1
  -1  10   2 8591.91 323.806   1
  -1  10   3 2450.63 142.085   1
  -1  10   429545.00 807.475   1
  -1  10   523692.60 679.854   1
  -1  10   6 2466.95 192.615   1
  -1  10   710722.50 617.693   1
  -1  10   8 1343.74  236.29   1
  -1  10   9  238.89 331.178   1
  -1  10  10 975.381 243.854   1
  -1  11   0 628.534 124.371   1
  -1  11   1 2806.72 233.173   1
  -1  11   213074.30 439.762   1
  -1  11   3 8549.09 330.695   1
  -1  11   4 50.8494 59.2178   1
  -1  11   5 883.203 134.705   1
  -1  11   6 304.165 85.3251   1
  -1  11   7-35.9604 184.457   1
  -1  11   8 2839.36 393.687   1
  -1  11   916568.90 1003.84   1
  -1  12   0 434.771 115.666   1
  -1  12   1 9779.25  451.19   1
  -1  12   230457.40 986.753   1
  -1  12   331987.20 935.471   1
  -1  12   4 5983.91 334.443   1
  -1  12   5 143.262 98.1037   1
  -1  12   6 1891.72 237.673   1
  -1  12   7 470.848 316.192   1
  -1  13   0 521.768 118.992   1
  -1  13   1 1407.97 211.411   1
  -1  13   220842.00  979.78   1
  -1  13   3 1654.48 290.598   1
  -1  13   4  32.404 92.4077   1
  -1  13   5 26.6152 184.557   1
   0 -13   1-44.1309 172.667   1
   0 -13   2 57.3087 116.759   1
   0 -13   317578.50 751.857   1
   0 -12   1 3036.43  285.22   1
   0 -12   215578.90 614.048   1
   0 -12   3 3161.14 406.161   1
   0 -12   4 613.872 141.899   1
   0 -12   5 6526.27 619.265   1
   0 -11   120308.20 669.801   1
   0 -11   2 1227.81 149.004   1
   0 -11   317167.80 672.147   1
   0 -11   4 781.831 122.264   1
   0 -11   5 1557.13 173.644   1
   0 -11   6 7094.62 457.784   1
   0 -11   7 296.677 270.414   1
   0 -10   1 5105.48  218.07   1
   0 -10   2 217.111 85.3728   1
   0 -10   3 4619.55 237.584   1
   0 -10   410996.30 440.931   1
   0 -10   5 2889.44 193.203   1
   0 -10   6 1593.28 169.606   1
   0 -10   7-65.2634 170.246   1
   0 -10   8   1.862 94.8406   1
   0  -9   1 4116.34 177.314   1
   0  -9   2 6677.73 266.947   1
   0  -9   3 178.893 58.7997   1
   0  -9   420673.90 839.659   1
   0  -9   5 242.906 59.8246   1
   0  -9   612134.80 486.324   1
   0  -9   7 479.056 183.537   1
   0  -9   8 8605.23 587.863   1
   0  -9   9 505.895  158.77   1
   0  -8   113728.90 392.538   1
   0  -8   2 6815.86 227.352   1
   0  -8   3 8753.24  294.19   1
   0  -8   4 5582.77 221.622   1
   0  -8   549159.90 1261.55   1
   0  -8   6 5759.93  458.66   1
   0  -8   710729.80 500.708   1
   0  -8   8 9294.60 494.991   1
   0  -8   929731.90 1126.66   1
   0  -8  10 149.091 121.915   1
   0  -7   117749.30 458.034   1
   0  -7   2340721.0 7964.59   1
   0  -7   3 1151.76 65.5609   1
   0  -7   414630.00 442.667   1
   0  -7   517213.20  574.19   1
   0  -7   634296.60  976.39   1
   0  -7   728812.80 934.451   1
   0  -7   814888.80 618.337   1
   0  -7   944002.30 1503.80   1
   0  -7  10 6012.56 423.773   1
   0  -7  11 4080.13 381.618   1
   0  -6   162780.00 1443.92   1
   0  -6   2 8081.46 276.933   1
   0  -6   3204715.0 4720.31   1
   0  -6   421143.10  634.83   1
   0  -6   5 1594.20  94.251   1
   0  -6   6 2390.36 192.823   1
   0  -6   713677.70 522.774   1
   0  -6   827422.00 901.053   1
   0  -6   9 748.601 133.165   1
   0  -6  1019361.40 1120.55   1
   0  -6  11 1365.25 210.595   1
   0  -5   133445.90 788.281   1
   0  -5   214778.90 411.479   1
   0  -5   3103256.0 2356.48   1
   0  -5   423010.70 602.296   1
   0  -5   521864.70 584.294   1
   0  -5   633868.80 1327.56   1
   0  -5   724167.20 754.994   1
   0  -5   8 267.729 132.141   1
   0  -5   9 508.786 97.6601   1
   0  -5  1018098.90 731.281   1
   0  -5  1115658.50 883.326   1
   0  -5  1215781.40 794.075   1
   0  -4   1108964.0 2553.11   1
   0  -4   2 4548.50 139.356   1
   0  -4   3 64.8531 24.6938   1
   0  -4   4 436.498 46.1114   1
   0  -4   5 1379.93 65.3459   1
   0  -4   6 7166.09  244.05   1
   0  -4   7 3724.27 231.815   1
   0  -4   811884.70 524.011   1
   0  -4   9 676.732 155.389   1
   0  -4  10  39.344 74.0438   1
   0  -4  11 5789.28 387.613   1
   0  -4  12 1700.42 298.578   1
   0  -3   161229.90 1413.99   1
   0  -3   2 2581.24 112.509   1
   0  -3   3133462.0 3833.18   1
   0  -3   4 1337.79 75.4976   1
   0  -3   531428.10 826.183   1
   0  -3   629794.40 755.572   1
   0  -3   7 9204.76  526.91   1
   0  -3   8 5921.17 322.482   1
   0  -3   937260.90 1094.48   1
   0  -3  10 3634.47 542.429   1
   0  -3  11 536.255 122.859   1
   0  -3  12 4845.32 480.614   1
   0  -3  13 295.191 368.915   1
   0  -2   1 1704.10 62.4796   1
   0  -2   3 2399.94 78.6859   1
   0  -2   480541.50 1900.78   1
   0  -2   555825.00 1575.43   1
   0  -2   630484.30 1060.11   1
   0  -2   7 4813.07 350.863   1
   0  -2   8 1196.05 149.239   1
   0  -2   925128.60 868.833   1
   0  -2  10 934.482 254.212   1
   0  -2  1119068.20 1750.60   1
   0  -2  12 1736.93 274.666   1
   0  -2  1310478.60 773.662   1
   0  -1   2 398.807 44.9015   1
   0  -1   3588753.016547.60   1
   0  -1   495018.70 2351.55   1
   0  -1   512638.00 405.326   1
   0  -1   654415.40 1336.37   1
   0  -1   794303.40 2224.66   1
   0  -1   816432.40  537.79   1
   0  -1   9 1794.01 117.943   1
   0  -1  1011232.70 650.795   1
   0  -1  11 4770.95 793.469   1
   0  -1  12 2953.57 356.769   1
   0  -1  1313878.70 2156.18   1
   0   0   265551.00 1764.08   1
   0   0   3377206.0 8829.25   1
   0   0   4106212.0 2483.28   1
   0   0   510354.00 518.942   1
   0   0   652615.10 1265.53   1
   0   0   7295253.0 7092.99   1
   0   0   8 304.345  58.058   1
   0   0   916814.90 494.864   1
   0   0  1020092.60 642.403   1
   0   0  1147344.40 2870.39   1
   0   0  1210295.00  668.55   1
   0   0  13 8129.96 1585.12   1
   0   0  14 9555.74 778.552   1
   0   1   2157123.0 4363.75   1
   0   1   3-1.28437 33.5891   1
   0   1   4285116.0 6661.79   1
   0   1   521766.30 535.049   1
   0   1   632365.70 774.934   1
   0   1   7 8115.72 258.177   1
   0   1   865859.20 1588.46   1
   0   1   911306.50 405.743   1
   0   1  10 3976.40 225.125   1
   0   1  11 5863.99 334.066   1
   0   1  1220447.60  997.26   1
   0   1  13 7505.56 829.381   1
   0   1  14 1202.03 267.767   1
   0   2   0177286.0 4516.67   1
   0   2   1248319.0 5860.84   1
   0   2   2 195.925 22.9508   1
   0   2   330620.60 799.095   1
   0   2   458089.30 1357.74   1
   0   2   5277958.0 6458.16   1
   0   2   621256.00 535.547   1
   0   2   7 2231.33 121.606   1
   0   2   848516.10 1250.71   1
   0   2   931981.60 1155.70   1
   0   2  1011496.90 521.389   1
   0   2  1119639.80 933.142   1
   0   2  12 251.115 109.847   1
   0   2  13 90.5534 96.9893   1
   0   2  14 571.101 213.723   1
   0   3   0 2017.11  76.229   1
   0   3   113631.80 347.611   1
   0   3   2306098.0 7398.26   1
   0   3   311532.40 416.061   1
   0   3   484868.20 1979.52   1
   0   3   552101.90 1224.96   1
   0   3   623269.40 582.794   1
   0   3   7 5968.40 208.806   1
   0   3   8 3742.97 195.838   1
   0   3   9 62.7596 48.0946   1
   0   3  10 116.825 50.2305   1
   0   3  11 2063.42 171.699   1
   0   3  12 3191.27 242.402   1
   0   3  13 1492.91 206.872   1
   0   3  14 3434.48  590.33   1
   0   4   0 4638.26 137.918   1
   0   4   1241191.0 5569.59   1
   0   4   272128.90 1717.73   1
   0   4   343751.70 1143.33   1
   0   4   444003.10 1194.34   1
   0   4   5 1559.48 80.9646   1
   0   4   6 949.522  66.313   1
   0   4   727653.10 711.081   1
   0   4   828615.10 844.386   1
   0   4   9 894.981 209.388   1
   0   4  10 2617.02 188.855   1
   0   4  11 3538.76 243.648   1
   0   4  12 2870.42 232.124   1
   0   4  13 148.399 159.288   1
   0   5   0519566.012080.40   1
   0   5   1 8860.39 233.793   1
   0   5   234134.90 796.897   1
   0   5   326217.40  633.92   1
   0   5   4 84.2143 26.9669   1
   0   5   539626.90 1002.39   1
   0   5   6 1209.56 81.4269   1
   0   5   768019.40 1687.66   1
   0   5   8 1189.28  125.66   1
   0   5   911956.50 680.715   1
   0   5  10 8462.01 380.012   1
   0   5  1115241.10 589.372   1
   0   5  12 8113.63 426.165   1
   0   5  13 213.645 78.2666   1
   0   6   019927.70 490.599   1
   0   6   147623.30 1109.54   1
   0   6   224821.80 607.711   1
   0   6   3 3051.57 116.216   1
   0   6   4147029.0 3409.96   1
   0   6   555013.60 1322.40   1
   0   6   642345.80 1033.11   1
   0   6   718489.60 528.274   1
   0   6   8 9765.24 415.735   1
   0   6   9 8481.88 399.555   1
   0   6  10 262.486 87.7566   1
   0   6  1124486.80 949.347   1
   0   6  1235754.60 1436.59   1
   0   6  13 4790.54 472.452   1
   0   7   0 5546.58 186.735   1
   0   7   1  717.17 75.9359   1
   0   7   2 75.0997 27.0429   1
   0   7   3 1414.82 70.2331   1
   0   7   4 3.62555  30.797   1
   0   7   5270288.0 6464.51   1
   0   7   6 65.1455 73.2737   1
   0   7   7 1371.25  108.10   1
   0   7   811307.80 578.403   1
   0   7   931766.30 1025.34   1
   0   7  10 121.542 80.4108   1
   0   7  11 3693.33 515.069   1
   0   7  1219339.00 833.518   1
   0   7  13 716.898 164.692   1
   0   8   011526.50 333.259   1
   0   8   1 1768.59  94.798   1
   0   8   297226.00 2258.35   1
   0   8   311315.40 349.207   1
   0   8   411363.00 354.481   1
   0   8   5 5455.45  232.86   1
   0   8   620029.10 587.401   1
   0   8   7 4459.56 230.634   1
   0   8   8 2274.70 172.703   1
   0   8   917269.40 695.466   1
   0   8  1010137.90 844.679   1
   0   8  11 4305.07 420.304   1
   0   8  12 1892.04 222.434   1
   0   9   0 353.976 57.3431   1
   0   9   1 2990.49 139.669   1
   0   9   2 500.007 78.6484   1
   0   9   338598.60 967.802   1
   0   9   4 3198.84 164.921   1
   0   9   510105.90 369.845   1
   0   9   6 5490.88 258.053   1
   0   9   7 7708.75 341.252   1
   0   9   8  828.04 216.056   1
   0   9   9 4006.57 419.703   1
   0   9  10 2504.91 317.572   1
   0   9  11 436.425 154.417   1
   0  10   0 7290.72 351.682   1
   0  10   1 285.449 47.2986   1
   0  10   211144.30 497.297   1
   0  10   3  113.72 49.4888   1
   0  10   4 182.032  77.506   1
   0  10   5 4567.47 242.839   1
   0  10   6 1386.71 124.092   1
   0  10   7 360.678 139.301   1
   0  10   8 1523.56 190.635   1
   0  10   9 4771.92 447.335   1
   0  10  10 894.263 212.387   1
   0  10  11 1598.72 352.266   1
   0  11   0 7658.96 309.137   1
   0  11   1 3774.51 229.575   1
   0  11   2 5591.82 258.725   1
   0  11   3 1201.55 119.299   1
   0  11   4 8289.81 371.543   1
   0  11   5 6324.94 320.113   1
   0  11   621197.90 686.634   1
   0  11   7 6466.62 356.878   1
   0  11   8 1712.91 213.211   1
   0  11   9 2627.32  364.94   1
   0  11  10 250.908 152.775   1
   0  12   0 5805.77 371.424   1
   0  12   1 1800.52 171.917   1
   0  12   2 1018.96 120.196   1
   0  12   310827.70  517.39   1
   0  12   4 9103.14 431.405   1
   0  12   515312.90 611.133   1
   0  12   6 456.819 131.585   1
   0  12   7 958.532 165.388   1
   0  12   8 524.241 135.986   1
   0  13   0 3603.05 450.714   1
   0  13   1 1060.70  181.92   1
   0  13   242262.00 2025.68   1
   0  13   314883.80 738.479   1
   0  13   414610.60 680.768   1
   0  13   5 7010.48 375.097   1
   0  13   6 1293.12 160.736   1
   1 -13   1 5749.70 377.619   1
   1 -13   2 109.124 120.103   1
   1 -12   1 4077.14 380.757   1
   1 -12   2 3396.47 251.443   1
   1 -12   3 9218.85 456.862   1
   1 -12   428075.30 1106.47   1
   1 -12   5 4602.42 390.382   1
   1 -11   1 2513.39 189.386   1
   1 -11   2 1893.04 169.908   1
   1 -11   3 4793.00 327.886   1
   1 -11   4 3178.89 328.693   1
   1 -11   5 3618.62 269.031   1
   1 -11   6 123.608 100.432   1
   1 -10   116826.40 546.591   1
   1 -10   229014.30 846.362   1
   1 -10   3 8248.56 394.638   1
   1 -10   4 286.259 74.9714   1
   1 -10   516186.30 600.015   1
   1 -10   6 1357.94 175.021   1
   1 -10   7 194.034 124.085   1
   1 -10   813587.30 807.096   1
   1  -9   1 2868.85  168.30   1
   1  -9   2 36.9522 52.4817   1
   1  -9   3 1835.43 138.704   1
   1  -9   412124.30 621.052   1
   1  -9   5 1883.92 135.709   1
   1  -9   6 8710.73 395.557   1
   1  -9   7-18.1673 128.042   1
   1  -9   8 2032.40 331.379   1
   1  -9   9 517.703 170.705   1
   1  -8   124129.20 736.787   1
   1  -8   210442.10 325.656   1
   1  -8   322355.50  727.05   1
   1  -8   4 1012.47 74.0986   1
   1  -8   575956.80 1816.65   1
   1  -8   6 6048.12 254.171   1
   1  -8   7 8226.48 384.798   1
   1  -8   8 92.2325 65.6592   1
   1  -8   9 4229.82 304.906   1
   1  -8  10 2711.69 336.924   1
   1  -7   141137.70 985.833   1
   1  -7   2115076.0 2685.32   1
   1  -7   3 3792.34 150.715   1
   1  -7   4  582.77 58.3672   1
   1  -7   5 3804.47 154.656   1
   1  -7   638969.80 1139.54   1
   1  -7   7 41.3083 48.8961   1
   1  -7   8 4542.42 274.638   1
   1  -7   937417.80 1327.78   1
   1  -7  10 635.352 175.421   1
   1  -7  11 301.994 151.553   1
   1  -6   113363.20 377.627   1
   1  -6   2 5753.33 338.901   1
   1  -6   3284114.0 6647.16   1
   1  -6   4 37.0987 34.7116   1
   1  -6   5 1585.77 85.5991   1
   1  -6   6 184.684 39.6676   1
   1  -6   7 309.891 78.5975   1
   1  -6   811240.40 417.126   1
   1  -6   911159.80 442.927   1
   1  -6  1087313.60 2677.38   1
   1  -6  11 256.113 258.823   1
   1  -5   126836.70 663.853   1
   1  -5   2216855.0 5032.63   1
   1  -5   360822.50 1477.18   1
   1  -5   420450.70 593.396   1
   1  -5   5 5088.54 173.493   1
   1  -5   6 3562.94 162.769   1
   1  -5   735599.40 944.074   1
   1  -5   810650.10 385.842   1
   1  -5   934837.90 1099.85   1
   1  -5  10 431.315 98.0643   1
   1  -5  1127791.80 1299.71   1
   1  -5  12 20.6686 154.411   1
   1  -4   149287.90 1146.63   1
   1  -4   2 1391.76 68.8989   1
   1  -4   3 5162.61 163.857   1
   1  -4   4 1297.32  84.401   1
   1  -4   529407.40  870.87   1
   1  -4   611290.40 332.027   1
   1  -4   712794.20 408.329   1
   1  -4   828953.30 803.836   1
   1  -4   9 363.969 78.6549   1
   1  -4  10 95.5757 121.163   1
   1  -4  11 5125.74  344.08   1
   1  -4  12 112.823  74.592   1
   1  -4  13 3716.03 383.537   1
   1  -3   1320592.0 7479.68   1
   1  -3   2102102.0 2356.45   1
   1  -3   372476.50 1680.47   1
   1  -3   432772.30 837.255   1
   1  -3   570535.70 1651.64   1
   1  -3   628684.10 717.435   1
   1  -3   716167.30 479.426   1
   1  -3   8 834.787 87.5344   1
   1  -3   9 46.5338 88.4874   1
   1  -3  1019452.50 684.034   1
   1  -3  11 475.545 140.713   1
   1  -3  12 1077.97 251.019   1
   1  -3  13 9190.07 2676.59   1
   1  -2   1202366.0 4898.19   1
   1  -2   2227402.0 5442.19   1
   1  -2   339417.60 948.186   1
   1  -2   426548.10 660.034   1
   1  -2   5 480.011 36.6488   1
   1  -2   6 483.614 45.3211   1
   1  -2   7 66.6505 42.2764   1
   1  -2   811061.00  388.76   1
   1  -2   924479.20 723.252   1
   1  -2  10 691.402 92.5574   1
   1  -2  11 9038.91 445.188   1
   1  -2  12 2426.78 467.039   1
   1  -2  13 1639.71 442.096   1
   1  -1   168125.90 1660.54   1
   1  -1   229525.30 790.606   1
   1  -1   3925854.020619.80   1
   1  -1   4 8906.93 271.968   1
   1  -1   539692.80 932.119   1
   1  -1   6 1498.06 71.4314   1
   1  -1   713230.50 360.766   1
   1  -1   818458.90 631.171   1
   1  -1   9 169.844 125.274   1
   1  -1  10103914.0 2642.92   1
   1  -1  11 4619.81  288.86   1
   1  -1  1215545.50 1609.80   1
   1  -1  13 3003.21 1009.47   1
   1  -1  1411407.30 1935.15   1
   1   0   01001853.18973.30   1
   1   0   136361.30 1461.81   1
   1   0   2 8723.89 296.799   1
   1   0   3116332.0 2875.70   1
   1   0   410186.20 284.698   1
   1   0   5 853.535 58.2939   1
   1   0   641867.30 1085.22   1
   1   0   7307105.0 7099.26   1
   1   0   8 1423.18 84.3334   1
   1   0   9 211.599 48.5342   1
   1   0  1011216.40 531.867   1
   1   0  1125742.30 2006.23   1
   1   0  12 319.972 297.462   1
   1   0  13-51.0285 136.258   1
   1   0  1426817.30 3142.50   1
   1   1   0392880.0 9428.06   1
   1   1   2107444.0 2539.71   1
   1   1   3112064.0 2632.06   1
   1   1   458202.90 1456.26   1
   1   1   523198.70  577.87   1
   1   1   641322.90 1004.23   1
   1   1   710982.00 314.991   1
   1   1   8288398.0 6737.62   1
   1   1   9 1047.39 84.1066   1
   1   1  10 3239.06 295.997   1
   1   1  11 4221.55 544.241   1
   1   1  12 7764.02 1189.64   1
   1   1  13 7756.65 1298.77   1
   1   1  14 6211.86 1314.52   1
   1   2   0405289.0 9767.50   1
   1   2   1888942.043820.40   1
   1   2   2 3340.06 130.173   1
   1   2   3 2943.09 121.025   1
   1   2   464058.40 1522.73   1
   1   2   5340834.0 8040.96   1
   1   2   6 0.73535 23.5459   1
   1   2   788971.00 2071.02   1
   1   2   8 442.966 53.1475   1
   1   2   9 7010.51 265.663   1
   1   2  10 788.082 97.9516   1
   1   2  11 4799.10 395.977   1
   1   2  1227236.70 3153.21   1
   1   2  13-45.8125 140.221   1
   1   2  14 6001.75 591.739   1
   1   3   0 3269.09 126.389   1
   1   3   114308.50 387.508   1
   1   3   262500.50 1930.48   1
   1   3   347802.00 1544.79   1
   1   3   4108824.0 2671.45   1
   1   3   528654.90 727.156   1
   1   3   631011.90 749.253   1
   1   3   7 1666.90 158.359   1
   1   3   8 302.195 49.5485   1
   1   3   9 45.5076 41.4894   1
   1   3  10 1968.90 195.163   1
   1   3  11 7735.80  357.32   1
   1   3  12 4726.80 432.409   1
   1   3  13 3710.75 530.159   1
   1   3  14 282.047 465.167   1
   1   4   0188771.0 4400.40   1
   1   4   1 1291.81 73.3188   1
   1   4   244966.90 1085.32   1
   1   4   353177.60 1308.34   1
   1   4   4 45.3205 29.0814   1
   1   4   534957.30 854.813   1
   1   4   6 8936.04 350.137   1
   1   4   726613.60 800.654   1
   1   4   819264.20 548.474   1
   1   4   9 800.201 93.3928   1
   1   4  1017355.50 699.104   1
   1   4  1110631.90 454.835   1
   1   4  12 1275.65 237.194   1
   1   4  13 2399.26 381.208   1
   1   4  14  822.25 229.984   1
   1   5   075448.80 1856.40   1
   1   5   1 286.759 36.4228   1
   1   5   251054.90 1262.22   1
   1   5   329504.20 743.891   1
   1   5   435435.00 870.082   1
   1   5   5 511.954 48.0932   1
   1   5   623496.20 700.502   1
   1   5   772806.20 1743.24   1
   1   5   8 105.912 39.1147   1
   1   5   9 9447.78 396.516   1
   1   5  10 5811.26 488.651   1
   1   5  11 1067.45 143.715   1
   1   5  12 122.463  89.317   1
   1   5  13 1963.11 842.906   1
   1   6   0 3102.03 162.371   1
   1   6   1103572.0 2472.48   1
   1   6   234048.10 837.525   1
   1   6   384382.50 1972.71   1
   1   6   435122.70 877.003   1
   1   6   535139.30 871.607   1
   1   6   6 7140.60 244.023   1
   1   6   7 5022.09 229.791   1
   1   6   891741.20 2265.99   1
   1   6   9 39.4814 61.5517   1
   1   6  1010966.70 582.479   1
   1   6  11 304.337 96.3237   1
   1   6  12 2516.10 230.904   1
   1   6  13 5312.79 637.483   1
   1   7   034958.40 865.117   1
   1   7   167964.00 1606.93   1
   1   7   2 1383.46 87.0182   1
   1   7   311031.00 325.339   1
   1   7   437943.20  950.62   1
   1   7   5207128.0 4896.25   1
   1   7   630839.90 798.793   1
   1   7   7 2900.65 163.087   1
   1   7   8 4500.85 340.907   1
   1   7   9 477.824 86.5878   1
   1   7  10 268.849 93.2973   1
   1   7  11 452.427 148.961   1
   1   7  1257016.00 2130.46   1
   1   7  13 7987.28 525.764   1
   1   8   012435.40 373.311   1
   1   8   132765.20 824.911   1
   1   8   216473.50 458.652   1
   1   8   3 1754.63 122.763   1
   1   8   422400.80 754.592   1
   1   8   512026.90 379.833   1
   1   8   6111892.0 2686.45   1
   1   8   7 4736.59  206.57   1
   1   8   8 4104.05 254.492   1
   1   8   9  814.42 139.698   1
   1   8  10 2836.38 266.508   1
   1   8  11 4060.59 451.736   1
   1   8  12 2009.35 258.665   1
   1   9   0 134.275 73.2639   1
   1   9   112284.90 373.917   1
   1   9   2 420.184 55.8638   1
   1   9   338002.50 996.522   1
   1   9   413143.40 418.186   1
   1   9   515300.30 562.482   1
   1   9   6 5856.27 247.868   1
   1   9   7 104.369   69.15   1
   1   9   8 436.667 103.565   1
   1   9   9 414.183  117.31   1
   1   9  1030942.50 1300.08   1
   1   9  11 1102.50  279.76   1
   1   9  12 6383.75 580.246   1
   1  10   0 977.856 93.0063   1
   1  10   1 177.851 81.3832   1
   1  10   2 4077.80 200.901   1
   1  10   323852.10 825.783   1
   1  10   4 32.1162 54.0501   1
   1  10   5 205.218 51.9067   1
   1  10   6-34.4624  180.57   1
   1  10   7 3807.43 209.265   1
   1  10   8-65.9259 154.125   1
   1  10   9 3775.21 359.704   1
   1  10  10 2311.32 324.623   1
   1  10  11 430.466 389.294   1
   1  11   0 1630.21 135.215   1
   1  11   1 291.693 86.2886   1
   1  11   2 561.657 164.178   1
   1  11   3 45.1717 57.6909   1
   1  11   412585.30 450.526   1
   1  11   5 9475.04 568.682   1
   1  11   6 2290.37 174.884   1
   1  11   7 1558.20 167.364   1
   1  11   8 1845.46 219.557   1
   1  11   9 1397.08 206.077   1
   1  11  10 1320.07 271.784   1
   1  12   028069.80 859.027   1
   1  12   1 4370.59 281.804   1
   1  12   219109.40  674.64   1
   1  12   3 5617.29 332.495   1
   1  12   4 1494.30 145.703   1
   1  12   520335.70 691.213   1
   1  12   6 3222.02 222.627   1
   1  12   710616.00 598.508   1
   1  12   8 1138.78  174.22   1
   1  13   0 1137.14 197.698   1
   1  13   118201.20 786.111   1
   1  13   2 7151.95 391.742   1
   1  13   3 1132.45 153.478   1
   1  13   4 2072.65 188.176   1
   1  13   5 726.362 178.714   1
   1  13   6 9816.92 508.506   1
   2 -12   1 1831.68 268.063   1
   2 -12   2 6920.61 561.711   1
   2 -12   3 328.658 176.198   1
   2 -11   1 587.518 156.898   1
   2 -11   2 394.384 153.008   1
   2 -11   3 277.647 127.305   1
   2 -11   4 5507.92 366.226   1
   2 -11   531341.90 1733.34   1
   2 -11   616124.40 1089.20   1
   2 -10   1 937.688  178.92   1
   2 -10   2 984.168 135.038   1
   2 -10   312097.50 514.136   1
   2 -10   410946.40 609.135   1
   2 -10   5 1131.57 162.252   1
   2 -10   6 1526.97 303.883   1
   2 -10   7 4388.11 516.147   1
   2  -9   120670.80 663.744   1
   2  -9   211697.80 478.701   1
   2  -9   313629.30 463.975   1
   2  -9   430346.90  966.80   1
   2  -9   5 2692.32 183.779   1
   2  -9   616267.60 677.513   1
   2  -9   7 1153.33 365.225   1
   2  -9   8 500.208 138.537   1
   2  -8   123596.30 858.512   1
   2  -8   236559.20 1142.56   1
   2  -8   3 353.664 66.4355   1
   2  -8   4 4775.66 226.122   1
   2  -8   521755.00  656.14   1
   2  -8   6 46.5116 63.7755   1
   2  -8   7 3299.58 269.203   1
   2  -8   8 2269.25 735.283   1
   2  -8   9 3714.47 338.571   1
   2  -7   1 5796.33 268.489   1
   2  -7   230336.60 806.259   1
   2  -7   3 834.702 98.5118   1
   2  -7   4 7044.93 309.448   1
   2  -7   5 2439.73 139.933   1
   2  -7   614005.70 445.012   1
   2  -7   7 92.4797 103.148   1
   2  -7   8 9823.07 438.682   1
   2  -7   915039.20 617.975   1
   2  -7  10 240.392 100.309   1
   2  -6   1 256.154 43.6625   1
   2  -6   213709.80 393.323   1
   2  -6   328090.10 722.227   1
   2  -6   4 924.673 76.9599   1
   2  -6   5 7025.26 256.382   1
   2  -6   641750.70 1146.34   1
   2  -6   7 1608.43 142.002   1
   2  -6   8 1100.95 183.331   1
   2  -6   9 6973.46 363.902   1
   2  -6  1047927.30 1470.31   1
   2  -6  11 174.293 103.122   1
   2  -5   1 3606.10 166.083   1
   2  -5   217924.60 474.196   1
   2  -5   3104590.0 2451.68   1
   2  -5   423819.10 627.883   1
   2  -5   5 804.177 73.3257   1
   2  -5   6 5504.27  219.78   1
   2  -5   712357.10 468.095   1
   2  -5   8 130.884 65.8429   1
   2  -5   926402.50 895.227   1
   2  -5  1013337.60  559.87   1
   2  -5  1123260.10 873.087   1
   2  -5  12 2829.22 292.019   1
   2  -4   123825.10 579.076   1
   2  -4   2 7210.27 208.354   1
   2  -4   3127215.0 2972.87   1
   2  -4   4168186.0 4244.01   1
   2  -4   5 45.4575 35.7551   1
   2  -4   6 5389.95 254.387   1
   2  -4   7 1235.52 150.048   1
   2  -4   8 2930.35 216.411   1
   2  -4   9 4266.65 264.352   1
   2  -4  1039257.00 1780.23   1
   2  -4  11 9044.77 454.263   1
   2  -4  12 474.202 197.912   1
   2  -3   1296800.0 6932.36   1
   2  -3   245445.90 1068.79   1
   2  -3   3 3906.79 144.659   1
   2  -3   4 1491.26 87.7214   1
   2  -3   5 838.668 65.9975   1
   2  -3   6 2264.15 118.256   1
   2  -3   720627.00 555.256   1
   2  -3   849239.00 1296.92   1
   2  -3   9 9457.14 389.783   1
   2  -3  10 4516.92  269.98   1
   2  -3  11 1010.09 140.725   1
   2  -3  12 5164.59 415.368   1
   2  -3  13 6992.51 546.829   1
   2  -2   122348.80 660.356   1
   2  -2   2165506.0 3827.75   1
   2  -2   325044.40 706.136   1
   2  -2   430493.70 748.671   1
   2  -2   5 2062.54 115.302   1
   2  -2   6 9494.40 293.375   1
   2  -2   7 6972.08 321.115   1
   2  -2   8 375.689 67.2236   1
   2  -2   933585.30 918.965   1
   2  -2  10 9972.61 386.544   1
   2  -2  1112340.90 515.857   1
   2  -2  12 841.603 141.083   1
   2  -2  13 814.294 283.453   1
   2  -1   1 7450.20 245.249   1
   2  -1   224490.80 748.972   1
   2  -1   312960.20  380.61   1
   2  -1   4 5074.54 163.201   1
   2  -1   520959.50 558.185   1
   2  -1   694473.10 2491.35   1
   2  -1   749837.10 1454.78   1
   2  -1   8 1856.38 112.991   1
   2  -1   933222.10 1044.96   1
   2  -1  1056213.70 2030.87   1
   2  -1  11 1149.17 124.694   1
   2  -1  12 1083.17 133.356   1
   2  -1  13 50.3121 131.416   1
   2   0   016849.50 461.793   1
   2   0   1 5265.79 208.952   1
   2   0   229475.20 767.046   1
   2   0   3167692.0 3896.50   1
   2   0   425523.80 686.757   1
   2   0   5 3461.51 154.848   1
   2   0   6105986.0 3035.25   1
   2   0   742800.80 1107.45   1
   2   0   8 3027.82 182.097   1
   2   0   9 51.9358 41.0591   1
   2   0  10 954.098 107.005   1
   2   0  1130015.30 1231.64   1
   2   0  12 751.954 134.545   1
   2   0  1311024.30 1917.82   1
   2   0  14 4826.41 748.559   1
   2   1   0 126.624 36.8598   1
   2   1   128221.30 751.552   1
   2   1   216033.30 426.184   1
   2   1   3 7411.83 273.362   1
   2   1   4273258.0 6668.32   1
   2   1   5 749.328 58.9191   1
   2   1   6 2261.94 131.242   1
   2   1   720664.90 919.153   1
   2   1   889934.70 3316.46   1
   2   1   9 9497.59 327.701   1
   2   1  10 2041.69 158.262   1
   2   1  11 2851.81 236.972   1
   2   1  12  875.25 715.362   1
   2   1  13 328.492 183.155   1
   2   1  14 551.716 264.034   1
   2   2   015048.80 452.348   1
   2   2   1673067.016280.40   1
   2   2   2112227.0 2634.46   1
   2   2   3 51.9218 30.3226   1
   2   2   453746.10 1342.15   1
   2   2   5 8541.47 270.572   1
   2   2   6 1263.85 82.7048   1
   2   2   765638.70 1764.00   1
   2   2   896610.70 2767.49   1
   2   2   927198.30 1033.14   1
   2   2  1010094.50 357.431   1
   2   2  1110268.20 520.346   1
   2   2  12 6772.56 646.004   1
   2   2  13-8.98574 165.583   1
   2   2  1418328.90 1365.61   1
   2   3   0 7984.56 274.845   1
   2   3   1108654.0 2566.39   1
   2   3   2306679.0 7329.82   1
   2   3   312346.10 427.604   1
   2   3   4 1178.10 80.1519   1
   2   3   5 8927.98 283.562   1
   2   3   7  898.41 69.2703   1
   2   3   827703.40  850.46   1
   2   3   938655.10 1153.16   1
   2   3  10 1067.73 153.576   1
   2   3  11  198.46 99.4316   1
   2   3  12 1269.47 235.043   1
   2   3  1310515.00 1157.89   1
   2   3  14-117.953  265.56   1
   2   4   0 3149.59 132.448   1
   2   4   1 8875.64 325.103   1
   2   4   211137.50 349.222   1
   2   4   321776.80 605.147   1
   2   4   511613.90 523.682   1
   2   4   6192859.0 5480.85   1
   2   4   716769.80 449.141   1
   2   4   8  238.59 53.3358   1
   2   4   9 7982.17 296.448   1
   2   4  10 4551.35 245.057   1
   2   4  11 1523.33 214.041   1
   2   4  1212298.20 758.789   1
   2   4  13 9787.94 728.459   1
   2   4  14 1770.70 599.903   1
   2   5   017773.20 514.446   1
   2   5   114048.20 381.635   1
   2   5   235683.80 925.346   1
   2   5   351555.80 1470.98   1
   2   5   425417.30 675.232   1
   2   5   5 6962.10 239.847   1
   2   5   6 3213.38 169.756   1
   2   5   732234.80 822.197   1
   2   5   811279.10 638.577   1
   2   5   9 3533.17 202.585   1
   2   5  10 891.474 111.411   1
   2   5  11 142.548 89.4963   1
   2   5  12 2626.21 339.181   1
   2   5  13 1058.52 347.322   1
   2   6   0 8977.89 277.054   1
   2   6   1 4429.48 175.133   1
   2   6   2 1324.41  101.47   1
   2   6   370294.70 1930.44   1
   2   6   492181.40 2246.10   1
   2   6   533705.30  869.62   1
   2   6   6 4330.25 179.821   1
   2   6   715494.40 450.758   1
   2   6   823185.50 764.254   1
   2   6   9 2921.96 174.561   1
   2   6  10 6714.84 491.318   1
   2   6  11 2063.29 247.729   1
   2   6  12 9790.18 957.216   1
   2   6  13 67.1379 130.637   1
   2   7   017594.40 506.046   1
   2   7   182898.90 1968.87   1
   2   7   229776.20 781.301   1
   2   7   3 490.237 66.5194   1
   2   7   462414.90 1686.98   1
   2   7   5 2360.26 135.984   1
   2   7   6 295.683 57.4793   1
   2   7   7 506.056 83.5307   1
   2   7   815080.50 637.413   1
   2   7   911691.70 536.206   1
   2   7  10 416.847 83.5177   1
   2   7  1126746.20 919.606   1
   2   7  12 6552.98 683.171   1
   2   7  13 419.451 262.242   1
   2   8   0 5210.23 205.381   1
   2   8   1 9879.79  318.86   1
   2   8   234811.10 1007.09   1
   2   8   3 2820.74 272.343   1
   2   8   4 3676.26 195.154   1
   2   8   5 357.393 70.1644   1
   2   8   634552.80 1230.31   1
   2   8   719765.40 659.732   1
   2   8   8 4809.74 272.138   1
   2   8   9 6165.74 426.504   1
   2   8  10 190.113 71.4163   1
   2   8  11 1642.52 186.165   1
   2   8  12  270.89 116.526   1
   2   9   061547.60 1519.84   1
   2   9   1 2208.97 131.148   1
   2   9   2 442.599 66.5218   1
   2   9   3 5187.66 246.308   1
   2   9   4 1061.71 135.563   1
   2   9   5 7942.34 406.064   1
   2   9   685643.90 2176.22   1
   2   9   719703.70 610.025   1
   2   9   8 1541.98 195.387   1
   2   9   9 7989.70  386.77   1
   2   9  10 1953.76 332.046   1
   2   9  11 2278.94 331.124   1
   2  10   0 9733.63  344.30   1
   2  10   1 2005.98 133.702   1
   2  10   2 138.478 81.4193   1
   2  10   328012.50 876.553   1
   2  10   4 101.093 95.5848   1
   2  10   5 491.666 108.347   1
   2  10   6 3612.51 205.512   1
   2  10   713005.70 473.405   1
   2  10   8 40.5926 76.0573   1
   2  10   9 816.957  165.11   1
   2  10  10 5279.82 562.946   1
   2  10  11 2802.49 594.069   1
   2  11   021010.40 669.647   1
   2  11   1 7432.65 304.452   1
   2  11   2 215.012 58.3068   1
   2  11   3-52.9044 141.217   1
   2  11   447947.40 1368.14   1
   2  11   5 2487.59 287.564   1
   2  11   6 685.434 99.2442   1
   2  11   7 173.996 95.3453   1
   2  11   8 166.995 84.6978   1
   2  11   9-88.9285 216.059   1
   2  12   0 6873.20 340.509   1
   2  12   117023.50  674.78   1
   2  12   2 1827.65 181.795   1
   2  12   3 1501.37 182.392   1
   2  12   4 104.018 79.6411   1
   2  12   5 2356.93 207.321   1
   2  12   6 2494.49  202.66   1
   2  12   7 3038.37 240.475   1
   2  12   8 3960.81 319.037   1
   2  13   0 131.929 119.802   1
   2  13   118294.00 749.075   1
   2  13   2 2592.78 238.913   1
   2  13   3 6409.45 380.347   1
   2  13   4 1266.44 152.303   1
   2  13   5  759.77 141.253   1
   3 -11   1 4395.87 445.112   1
   3 -11   2 8587.32 714.071   1
   3 -11   3  321.50 176.999   1
   3 -10   1 1166.05 327.107   1
   3 -10   2 1210.85 714.405   1
   3 -10   3 2912.11 258.995   1
   3 -10   4 7336.92 437.445   1
   3 -10   5 6700.97 587.047   1
   3 -10   622512.60 973.314   1
   3  -9   1 617.619 131.004   1
   3  -9   2 1894.57 165.127   1
   3  -9   3 254.321 140.229   1
   3  -9   4 6483.35 328.279   1
   3  -9   522792.20 1283.97   1
   3  -9   6 3164.77 253.393   1
   3  -9   7 6523.75 722.092   1
   3  -8   1 1220.46 124.921   1
   3  -8   219641.60 722.174   1
   3  -8   317709.90 808.791   1
   3  -8   4 9717.10 410.919   1
   3  -8   5 5236.27 391.504   1
   3  -8   6 18.7099 76.0369   1
   3  -8   713191.60  642.50   1
   3  -8   8 2459.23  552.03   1
   3  -7   1 7433.73 294.596   1
   3  -7   2 1185.01  110.15   1
   3  -7   316780.80 552.196   1
   3  -7   4 428.483 91.3354   1
   3  -7   5 1584.81  158.77   1
   3  -7   6 2908.24 200.194   1
   3  -7   7 456.714 89.8388   1
   3  -7   8 6301.82 420.102   1
   3  -7   9 5448.03 411.749   1
   3  -6   1 3821.06 195.334   1
   3  -6   2 667.048 83.1527   1
   3  -6   3 371.804 148.317   1
   3  -6   4 3343.14 200.525   1
   3  -6   5 5740.85 405.028   1
   3  -6   619502.70 640.722   1
   3  -6   7 1255.02 130.705   1
   3  -6   8 1479.68 256.799   1
   3  -6   9 6492.48 426.573   1
   3  -6  10 6355.65 448.318   1
   3  -5   1 8084.23 294.759   1
   3  -5   2 1960.68  213.38   1
   3  -5   3 2738.74 159.153   1
   3  -5   4 2225.84 217.519   1
   3  -5   5 33.1828  65.525   1
   3  -5   6 8664.77 353.609   1
   3  -5   716945.70 683.165   1
   3  -5   8 7761.82 421.061   1
   3  -5   9-0.67944 130.473   1
   3  -5  10 1302.78  225.27   1
   3  -5  11 3764.32 458.625   1
   3  -4   1 7389.29 258.121   1
   3  -4   2 5414.10 235.525   1
   3  -4   310269.10 400.468   1
   3  -4   474675.70 1868.13   1
   3  -4   5 4878.42 249.798   1
   3  -4   6 781.332 98.9988   1
   3  -4   7 2455.82 171.467   1
   3  -4   8 615.907 132.227   1
   3  -4   9 3214.27 226.275   1
   3  -4  1015939.90 729.721   1
   3  -4  1137507.20 1501.74   1
   3  -4  12 44.9299 98.8875   1
   3  -3   114051.00 392.209   1
   3  -3   220606.40 591.469   1
   3  -3   331453.90 833.116   1
   3  -3   4139233.0 3574.72   1
   3  -3   517819.60 831.892   1
   3  -3   610515.70 445.073   1
   3  -3   710863.50 417.712   1
   3  -3   820984.30  770.02   1
   3  -3   919698.80 673.263   1
   3  -3  10 7879.29 390.849   1
   3  -3  1112234.00 599.124   1
   3  -3  1217647.70 754.033   1
   3  -2   1 6440.78  235.68   1
   3  -2   243012.50 1115.37   1
   3  -2   323489.00 801.126   1
   3  -2   4 1668.09 112.688   1
   3  -2   527903.30 827.695   1
   3  -2   615384.80 544.914   1
   3  -2   7 536.039 104.735   1
   3  -2   8 1044.71 113.288   1
   3  -2   951331.40 1545.14   1
   3  -2  1017358.50 1021.85   1
   3  -2  11 135.259 70.5557   1
   3  -2  12 23.6062 65.3585   1
   3  -1   134933.10 938.744   1
   3  -1   266732.40 1992.07   1
   3  -1   3 312.854 42.8919   1
   3  -1   4 483.819 75.0674   1
   3  -1   564829.00 1712.70   1
   3  -1   633478.60 1206.01   1
   3  -1   728534.30 1545.26   1
   3  -1   827065.40 901.662   1
   3  -1   9 360.762 98.6502   1
   3  -1  1010061.40 580.014   1
   3  -1  11 223.787 89.0566   1
   3  -1  12 4668.78 322.398   1
   3  -1  13 3371.36 300.681   1
   3   0   0 4389.71 500.305   1
   3   0   127097.60 795.617   1
   3   0   2 4836.35 186.279   1
   3   0   316813.30 516.001   1
   3   0   4 51.2822 32.0866   1
   3   0   5 525.979 96.3465   1
   3   0   614382.80 610.184   1
   3   0   716732.10 570.859   1
   3   0   8 4648.91 369.032   1
   3   0   9 299.749  75.335   1
   3   0  10 213.214 76.4242   1
   3   0  11 4621.20  320.90   1
   3   0  12  85.721 148.207   1
   3   0  13 4325.73 436.772   1
   3   1   0 7432.53 258.977   1
   3   1   112245.20 400.294   1
   3   1   2 369.467 52.6206   1
   3   1   320347.90 555.513   1
   3   1   469366.30 2106.65   1
   3   1   526269.30 1015.27   1
   3   1   6 1539.99 116.503   1
   3   1   7 9636.66 542.908   1
   3   1   8 568.968 84.3047   1
   3   1   9 5578.94 441.299   1
   3   1  10 209.599 63.9371   1
   3   1  1125403.10 804.053   1
   3   1  12 1928.00 261.041   1
   3   1  13 373.325 358.893   1
   3   2   013852.30 415.196   1
   3   2   1 9313.56 330.276   1
   3   2   212660.20 405.782   1
   3   2   3 783.008 71.5239   1
   3   2   422287.10 772.279   1
   3   2   511227.90 349.779   1
   3   2   625726.20 1163.23   1
   3   2   7 3347.02 207.363   1
   3   2   813649.90 682.247   1
   3   2   9 3979.62 365.576   1
   3   2  10 353.451 115.312   1
   3   2  11 13.9513 57.3581   1
   3   2  12 6330.29 397.592   1
   3   2  13 4621.06 680.945   1
   3   3   0 772.696  106.07   1
   3   3   133808.10 902.709   1
   3   3   297153.30 2299.98   1
   3   3   361167.00 1474.20   1
   3   3   4 2185.73 133.953   1
   3   3   516494.80 535.241   1
   3   3   622033.80 1194.14   1
   3   3   7 866.641 101.564   1
   3   3   814196.30 772.716   1
   3   3   998661.20 2907.52   1
   3   3  10 6523.14 354.938   1
   3   3  11 1296.05 146.641   1
   3   3  12 905.166 164.047   1
   3   3  13 362.796 593.674   1
   3   4   0 5515.58 259.643   1
   3   4   111136.70 380.717   1
   3   4   2238633.0 5755.42   1
   3   4   3 4990.98 223.589   1
   3   4   4 6278.62 256.657   1
   3   4   522974.10 918.526   1
   3   4   654220.30 2505.41   1
   3   4   7 7210.56 409.625   1
   3   4   811660.80 395.469   1
   3   4   919518.10 1053.19   1
   3   4  10 6550.52 318.786   1
   3   4  11 1936.07 533.864   1
   3   4  12  681.51 220.719   1
   3   4  1319981.60 3866.31   1
   3   5   016001.50 452.969   1
   3   5   1 5494.61 227.768   1
   3   5   2 1487.98 126.683   1
   3   5   352596.60 1360.87   1
   3   5   424552.00 767.063   1
   3   5   5 7177.30 577.906   1
   3   5   6 2525.91  196.40   1
   3   5   752220.30 1971.28   1
   3   5   8 4374.10 238.597   1
   3   5   9 312.313 88.5407   1
   3   5  10 2973.34 290.907   1
   3   5  11 2463.30 310.269   1
   3   5  12 2006.07 350.788   1
   3   5  13 505.839 189.617   1
   3   6   061349.60 1520.16   1
   3   6   1 2300.01 156.112   1
   3   6   213376.30 425.634   1
   3   6   341112.10 1260.33   1
   3   6   421414.20 626.569   1
   3   6   5 3852.21 216.665   1
   3   6   615941.50 521.588   1
   3   6   7 2279.80 149.108   1
   3   6   8 212.046 68.3846   1
   3   6   9 357.962 75.9831   1
   3   6  1011729.50 448.091   1
   3   6  1116621.70 911.831   1
   3   6  12 5052.93 546.419   1
   3   7   0 2099.84 181.075   1
   3   7   1 3297.30 172.893   1
   3   7   2 724.593 80.7588   1
   3   7   3 162.664 72.9338   1
   3   7   4 2953.13 234.054   1
   3   7   5 717.289 97.3948   1
   3   7   6 4082.31 226.227   1
   3   7   7 1409.94 118.038   1
   3   7   8 3224.21 216.651   1
   3   7   9 1963.10 175.328   1
   3   7  10  51.597 102.815   1
   3   7  11 9522.02 683.745   1
   3   7  12 2033.98 477.143   1
   3   8   0 5852.83 277.914   1
   3   8   1 122.001 55.9707   1
   3   8   211431.50 394.915   1
   3   8   334039.20 1225.46   1
   3   8   4 3117.07 180.939   1
   3   8   5 550.863 120.659   1
   3   8   6 6939.67 317.715   1
   3   8   7 108.683 71.6452   1
   3   8   8 2254.76 164.625   1
   3   8   921654.60 911.555   1
   3   8  10 8378.02 459.663   1
   3   8  11 4.17462 80.4637   1
   3   9   0 9308.22 343.919   1
   3   9   1 3546.34 291.413   1
   3   9   217620.40  685.77   1
   3   9   3 98.6058 81.5551   1
   3   9   4 3774.65 343.706   1
   3   9   5 2963.40 274.348   1
   3   9   614006.90 535.144   1
   3   9   711437.30 467.289   1
   3   9   8 1378.18 198.536   1
   3   9  10 65.2391 129.591   1
   3   9  11 3153.96 477.438   1
   3  10   015509.70  533.35   1
   3  10   124448.10 996.481   1
   3  10   2 9202.21 373.919   1
   3  10   3 9547.39 385.513   1
   3  10   4 7422.73 330.331   1
   3  10   5 457.328  101.50   1
   3  10   6 9676.31 435.616   1
   3  10   736371.50 1414.07   1
   3  10   813351.20 756.652   1
   3  10   9 2484.37  239.53   1
   3  10  10 673.002 133.185   1
   3  11   056325.00 1781.18   1
   3  11   1 848.525  127.15   1
   3  11   2-125.879 144.285   1
   3  11   3 1841.95 163.177   1
   3  11   414322.40 540.855   1
   3  11   5 47.1006 65.0088   1
   3  11   6 691.957 139.529   1
   3  11   718617.50 770.281   1
   3  11   8 -11.758 155.707   1
   3  12   0 701.183 148.396   1
   3  12   112543.00 562.051   1
   3  12   2 2148.62  282.09   1
   3  12   3 1332.03 153.611   1
   3  12   4 4226.30 276.495   1
   3  12   5 6894.74 371.436   1
   3  12   6 1311.53 162.287   1
   4 -10   1 158.701  178.67   1
   4 -10   2 3684.84 463.826   1
   4  -9   1 352.688 159.037   1
   4  -9   2-2.24152 146.046   1
   4  -9   3-76.6591 157.564   1
   4  -9   4 1205.94 166.014   1
   4  -9   5 4822.56 503.983   1
   4  -8   113019.90 982.829   1
   4  -8   2 59.9474 221.189   1
   4  -8   3 1039.52 237.465   1
   4  -8   4  786.91 205.545   1
   4  -8   5 722.147 180.881   1
   4  -8   619014.80 960.754   1
   4  -7   1 3098.17 414.191   1
   4  -7   2 505.071 130.847   1
   4  -7   3 7608.69 375.191   1
   4  -7   4 9798.49 477.592   1
   4  -7   5 8436.22 419.382   1
   4  -7   6-34.2259 135.913   1
   4  -7   7-39.4565 120.666   1
   4  -7   8 6182.25 475.196   1
   4  -6   1 3975.88 230.215   1
   4  -6   2  155.92 70.2066   1
   4  -6   3 4798.37 279.445   1
   4  -6   4 9682.40 432.435   1
   4  -6   5 331.857  91.292   1
   4  -6   6 2284.77 300.292   1
   4  -6   7 4878.29 590.773   1
   4  -6   8-24.8296 170.433   1
   4  -6   9 548.146 155.503   1
   4  -5   1 3935.04 266.628   1
   4  -5   2 1670.03 170.911   1
   4  -5   3 622.787 94.3373   1
   4  -5   4 154.259 81.1932   1
   4  -5   5 2675.93 204.227   1
   4  -5   6 260.521 122.176   1
   4  -5   7 1628.81 217.832   1
   4  -5   8 3341.82 287.547   1
   4  -5   9 96.5476 169.571   1
   4  -5  10 307.523 248.463   1
   4  -4   1 1082.53 118.758   1
   4  -4   2 3065.81 224.536   1
   4  -4   3 126.985 132.075   1
   4  -4   4 298.703 161.394   1
   4  -4   5 4832.27 493.842   1
   4  -4   6  296.80 86.2365   1
   4  -4   731319.80 984.502   1
   4  -4   8 70.7857 76.4942   1
   4  -4   9 7757.00 630.496   1
   4  -4  10 695.522 448.975   1
   4  -3   114768.00 502.857   1
   4  -3   2 520.622 115.942   1
   4  -3   3 4632.54 275.836   1
   4  -3   435614.20 1460.80   1
   4  -3   5 7096.96 1013.58   1
   4  -3   6 393.571 121.328   1
   4  -3   7 116.901 70.2073   1
   4  -3   818828.90 688.057   1
   4  -3   9 1564.76 346.303   1
   4  -3  10 103.083 122.809   1
   4  -3  1111851.60  711.15   1
   4  -2   1  352.95 62.4343   1
   4  -2   2 252.605   71.94   1
   4  -2   312325.20 489.214   1
   4  -2   418525.80 982.272   1
   4  -2   5124573.0 3423.87   1
   4  -2   6 873.497 234.908   1
   4  -2   7 2750.64 263.001   1
   4  -2   8 9371.64 520.377   1
   4  -2   9 8956.91 431.275   1
   4  -2  1010639.80 575.166   1
   4  -2  1110321.70 600.193   1
   4  -1   1 1471.71 104.084   1
   4  -1   220344.30 721.674   1
   4  -1   3 33.8394 49.8097   1
   4  -1   434555.30  927.44   1
   4  -1   5 79.6299 94.9377   1
   4  -1   617081.30 1188.89   1
   4  -1   7 434.291 151.091   1
   4  -1   8 3579.36 305.874   1
   4  -1   9 4665.23 368.162   1
   4  -1  10 1138.41 176.601   1
   4  -1  11 5189.67 396.575   1
   4  -1  12 818.874 182.296   1
   4   0   0 4859.43 220.109   1
   4   0   114053.40 577.387   1
   4   0   213372.90 409.853   1
   4   0   326657.20 751.642   1
   4   0   4 143.182 58.3515   1
   4   0   5 478.138 74.4639   1
   4   0   612390.40 650.152   1
   4   0   7  34.556 69.4792   1
   4   0   8 7050.59 611.505   1
   4   0   910335.00 1021.77   1
   4   0  10 5425.79 334.671   1
   4   0  11-49.1969 140.743   1
   4   0  12 -28.253 112.316   1
   4   1   0 1983.24  165.82   1
   4   1   1 1169.15  100.80   1
   4   1   215088.00 570.085   1
   4   1   4 612.623 69.1995   1
   4   1   5 8782.37 503.032   1
   4   1   6 67.1638 78.3678   1
   4   1   7 2578.18 229.482   1
   4   1   8 4176.07 399.473   1
   4   1   9 776.415  152.41   1
   4   1  10 3347.53 281.211   1
   4   1  11 2815.93 223.631   1
   4   1  12 2415.19 240.667   1
   4   2   0 597.624 82.4942   1
   4   2   1 128.443 62.6353   1
   4   2   2 377.646  69.899   1
   4   2   3 1690.27 118.308   1
   4   2   4 5778.37 430.256   1
   4   2   5 906.529  116.38   1
   4   2   611534.70 578.512   1
   4   2   7 1156.63 156.432   1
   4   2   8 649.604 95.5539   1
   4   2   9 1055.66 210.349   1
   4   2  10 987.739 133.608   1
   4   2  11 418.225 117.955   1
   4   2  12 3549.95 300.021   1
   4   3   0 8422.25 315.884   1
   4   3   1 605.493 85.4817   1
   4   3   2 3847.24  227.50   1
   4   3   3 6269.79  393.93   1
   4   3   4 581.861  139.48   1
   4   3   572054.10 1873.49   1
   4   3   6-77.6373 127.361   1
   4   3   7 6938.16 441.152   1
   4   3   8 3531.28 221.181   1
   4   3   9 5479.90 368.117   1
   4   3  10 4501.78 532.917   1
   4   3  11 187.272 298.819   1
   4   3  12 9448.97 698.532   1
   4   4   0 2339.09 151.297   1
   4   4   1 3682.59 211.373   1
   4   4   270353.00 1997.46   1
   4   4   313754.30 803.999   1
   4   4   4 5066.40 354.688   1
   4   4   5 3383.84 237.797   1
   4   4   6 9111.09 424.689   1
   4   4   7 1963.39 188.713   1
   4   4   8 149.361 74.9893   1
   4   4   930946.20 1088.31   1
   4   4  1011154.40 576.269   1
   4   4  11 3664.38 560.583   1
   4   4  12 5174.17 520.354   1
   4   5   0 1434.83 160.773   1
   4   5   1 9836.02 396.697   1
   4   5   2 6508.71 463.824   1
   4   5   3110106.0 3206.57   1
   4   5   4 3066.68 394.641   1
   4   5   5 242.048 98.1962   1
   4   5   6 2235.97 177.893   1
   4   5   7 2956.52 226.107   1
   4   5   8 3553.46 321.136   1
   4   5   9 4885.42 585.633   1
   4   5  1039220.00 1591.84   1
   4   5  11 5.39833 99.8345   1
   4   5  12 168.796 116.095   1
   4   6   019871.50 707.037   1
   4   6   1 2535.75 186.023   1
   4   6   216492.50 540.697   1
   4   6   3 568.132 133.216   1
   4   6   4 2610.41 177.458   1
   4   6   5 1061.01 115.445   1
   4   6   6 1664.50  143.83   1
   4   6   721676.50 1269.13   1
   4   6   8 1189.64 130.197   1
   4   6   9 6072.97 715.438   1
   4   6  10 4452.80  435.84   1
   4   6  11 5349.17  540.14   1
   4   7   0 5054.98 346.253   1
   4   7   1 6343.94 289.713   1
   4   7   2 50.7046 62.3527   1
   4   7   3 1794.18 149.087   1
   4   7   4 155.745 67.7508   1
   4   7   5 504.963 104.825   1
   4   7   6 3480.36 264.356   1
   4   7   7 1519.90 179.965   1
   4   7   8 6358.54 456.472   1
   4   7   9 3.78104 74.7867   1
   4   7  10 1472.48 209.473   1
   4   7  11 3208.88 395.424   1
   4   8   0 3588.36 246.038   1
   4   8   1 2579.08 204.172   1
   4   8   2 3788.44 290.149   1
   4   8   3 2413.46 176.991   1
   4   8   4 2628.56  191.06   1
   4   8   5 3415.18 216.709   1
   4   8   6 1240.06 159.178   1
   4   8   7 3133.28 419.018   1
   4   8   8 1164.84 132.597   1
   4   8   9 307.167 99.6853   1
   4   8  10 5324.69  766.22   1
   4   9   0 1130.58 168.523   1
   4   9   1 417.688 78.9402   1
   4   9   2 9814.65 412.694   1
   4   9   3 1025.19 122.404   1
   4   9   4 7935.77 385.529   1
   4   9   5 3614.98 324.501   1
   4   9   6 542.506 96.1519   1
   4   9   7 255.657  84.746   1
   4   9   8 24.7692 76.3262   1
   4   9   9 3535.42 466.521   1
   4  10   0 1309.02 182.411   1
   4  10   1 1533.59 152.479   1
   4  10   2 2409.50  195.06   1
   4  10   318104.60 654.943   1
   4  10   4 150.521 71.9347   1
   4  10   5 2004.32 230.352   1
   4  10   6  309.78 89.6047   1
   4  10   7  468.35 96.6704   1
   4  10   8 5417.77 327.954   1
   4  11   023831.70 916.524   1
   4  11   1 8086.39 544.928   1
   4  11   2 4042.23 272.881   1
   4  11   3 686.827 130.605   1
   4  11   4 470.881 98.9018   1
   4  11   5 1248.41 158.437   1
   5  -7   114267.60 819.811   1
   5  -7   2 2647.40 287.202   1
   5  -7   3 660.237 185.652   1
   5  -7   4 300.068 115.627   1
   5  -6   1 820.236 191.447   1
   5  -6   2 78.5269 106.339   1
   5  -6   3 489.614 122.535   1
   5  -6   4 3892.45 313.918   1
   5  -6   5 7428.85 509.935   1
   5  -6   6 73.6806 99.0535   1
   5  -5   1 5624.37 385.753   1
   5  -5   2 1324.28 185.284   1
   5  -5   3 1279.59 160.013   1
   5  -5   4 5755.96 363.636   1
   5  -5   5 4118.37 470.068   1
   5  -5   6 3629.89 299.042   1
   5  -5   7  137.20 137.096   1
   5  -4   1 557.837 185.426   1
   5  -4   2 1810.11  211.02   1
   5  -4   3 3162.79 423.089   1
   5  -4   4 1269.06 215.281   1
   5  -4   5 202.344 151.298   1
   5  -4   6 2973.47 261.812   1
   5  -4   7 6743.69 733.034   1
   5  -4   8 166.461 90.5315   1
   5  -3   110732.70  539.56   1
   5  -3   2 89.8257 127.443   1
   5  -3   3 2911.32  261.34   1
   5  -3   4 2061.91 317.928   1
   5  -3   5 8.43268 103.429   1
   5  -3   6 924.573 194.753   1
   5  -3   7 54.4725 187.726   1
   5  -3   815531.40 791.062   1
   5  -3   9-32.6308 310.623   1
   5  -2   113765.20 529.087   1
   5  -2   2 2806.67  284.84   1
   5  -2   3 -47.499 143.452   1
   5  -2   4 2015.04 260.534   1
   5  -2   522801.90 991.648   1
   5  -2   6 1560.29 238.717   1
   5  -2   7 1048.49 245.302   1
   5  -2   8 624.934 176.186   1
   5  -2   9 3956.64  676.73   1
   5  -1   1 393.757 74.9217   1
   5  -1   2 254.096 78.9248   1
   5  -1   3 159.563 127.483   1
   5  -1   413598.90 585.005   1
   5  -1   520760.70 1692.90   1
   5  -1   628733.50 1174.44   1
   5  -1   7 2180.88 312.273   1
   5  -1   8 1307.92 236.574   1
   5  -1   9  208.75 186.886   1
   5  -1  10 97.8059  146.99   1
   5   0   0 1692.94  165.38   1
   5   0   1 29.8344 49.2906   1
   5   0   2 12.9143 46.4839   1
   5   0   3 1249.30 125.154   1
   5   0   4 770.185 132.625   1
   5   0   522385.60 766.851   1
   5   0   6 6880.28 418.838   1
   5   0   7 453.911 132.807   1
   5   0   8 191.313 134.113   1
   5   0   9 457.967 478.668   1
   5   0  10 4852.03 469.449   1
   5   1   0 1723.16 159.723   1
   5   1   1 1340.20 165.756   1
   5   1   2 6599.73 277.625   1
   5   1   319915.00 682.455   1
   5   1   4-36.0263 190.653   1
   5   1   5  144.79 74.9771   1
   5   1   6 624.006 120.699   1
   5   1   7 75.9842 96.9975   1
   5   1   8 2191.01 315.326   1
   5   1   9 6684.44 498.904   1
   5   1  10 3814.33 358.239   1
   5   2   0 82.1266 103.179   1
   5   2   1 1131.39  172.79   1
   5   2   2 1965.77  157.39   1
   5   2   3 2184.35  166.66   1
   5   2   4 4658.59 252.354   1
   5   2   5 2481.61 207.445   1
   5   2   6 3788.71 360.532   1
   5   2   7 241.163  105.43   1
   5   2   8 308.723  164.12   1
   5   2   9 2226.36 415.443   1
   5   2  10 223.675 106.141   1
   5   3   0 4920.44 429.194   1
   5   3   1 5125.40 294.954   1
   5   3   2 3284.26  204.49   1
   5   3   3 252.411 104.081   1
   5   3   4 3852.17  243.59   1
   5   3   5 8136.79 373.427   1
   5   3   6 616.507 178.968   1
   5   3   7 2147.72  253.13   1
   5   3   8 85.4187 99.5218   1
   5   3   9 1382.00 285.497   1
   5   3  10 234.115 172.465   1
   5   4   0 1613.07 223.952   1
   5   4   1 6948.07 643.963   1
   5   4   2 1148.34  155.50   1
   5   4   3  392.54 124.343   1
   5   4   4 356.472 106.094   1
   5   4   5 1392.13 181.288   1
   5   4   615881.80 855.372   1
   5   4   7  654.92 207.686   1
   5   4   8 4950.63 1400.35   1
   5   4   9 1368.73 578.892   1
   5   4  10 215.537  153.54   1
   5   5   0 1307.44 238.639   1
   5   5   1 844.199  128.81   1
   5   5   2 354.611 136.428   1
   5   5   319100.60 1356.07   1
   5   5   4 5925.12 384.735   1
   5   5   5 137.531 88.5753   1
   5   5   6 1411.27 186.301   1
   5   5   7 275.516  109.53   1
   5   5   8 402.828 176.933   1
   5   5   9 292.397 159.167   1
   5   5  1023913.90 2639.55   1
   5   6   0 66.0612 86.7641   1
   5   6   1 58.8991 70.8456   1
   5   6   2 7600.26 471.558   1
   5   6   320836.10 1490.04   1
   5   6   420512.00  939.78   1
   5   6   5 1942.45 175.788   1
   5   6   6 2516.23 293.649   1
   5   6   7 1002.79  137.37   1
   5   6   8 82.6185 112.027   1
   5   6   9 7547.00 1779.05   1
   5   7   0 1109.88 145.908   1
   5   7   1 777.034 116.149   1
   5   7   2 131.458 79.9702   1
   5   7   3 6811.38 358.539   1
   5   7   4 7154.81 497.635   1
   5   7   5 11.4569 72.2718   1
   5   7   6 538.813 111.717   1
   5   7   7 513.671 116.074   1
   5   7   8 5047.65 900.181   1
   5   8   0 1233.60 158.704   1
   5   8   111969.60 509.031   1
   5   8   2 60.5066  110.59   1
   5   8   3  173.23 78.8114   1
   5   8   4-115.205 185.419   1
   5   8   5 77.4274 113.656   1
   5   8   6 250.911 86.1253   1
   5   8   7 3502.68 329.073   1
   5   9   1 264.922 151.227   1
   5   9   2 2296.65 241.396   1
   5   9   3 1572.47 172.366   1
   5   9   4 556.775 129.257   1
   5   9   5 22.8729 78.1555   1
   6  -3   1  655.86 166.294   1
   6  -3   2 547.614 178.854   1
   6  -3   3 562.005 155.809   1
   6  -3   4  723.01 310.751   1
   6  -2   1 1842.42 236.823   1
   6  -2   2 2690.89 297.374   1
   6  -2   3-141.197 282.142   1
   6  -2   4 632.793 344.369   1
   6  -2   5 649.366  216.01   1
   6  -1   1 2451.03 231.497   1
   6  -1   2 4865.88  343.25   1
   6  -1   3 2061.14 243.139   1
   6  -1   4  290.48 202.047   1
   6  -1   5-116.097 215.194   1
   6  -1   6 4498.19 673.625   1
   6   0   0 5362.05 317.324   1
   6   0   1-68.5789 187.869   1
   6   0   2 376.348 135.607   1
   6   0   3 374.685 124.971   1
   6   0   4 93.1823 562.055   1
   6   0   5 6553.81 564.549   1
   6   0   617536.20  993.47   1
   6   1   0 5709.06 365.703   1
   6   1   1 511.981 164.637   1
   6   1   2 562.287 201.438   1
   6   1   3 795.763 161.522   1
   6   1   4 429.051 128.639   1
   6   1   5 3326.77 338.129   1
   6   1   610107.50 1043.52   1
   6   1   7 3494.22 349.511   1
   6   2   0 978.148 243.026   1
   6   2   1 1415.65 174.228   1
   6   2   2 905.439 161.167   1
   6   2   3 1857.47 227.547   1
   6   2   4 8169.49 455.112   1
   6   2   5 780.174 148.118   1
   6   2   6 106.296  229.53   1
   6   2   7-259.757 583.316   1
   6   3   0 1886.00 282.847   1
   6   3   1-59.9486 270.607   1
   6   3   2 1525.75 224.063   1
   6   3   3 2730.62 369.135   1
   6   3   4 710.158 191.292   1
   6   3   5 424.029 172.094   1
   6   3   6 247.281 160.595   1
   6   4   0 250.311 110.185   1
   6   4   1 905.959 173.371   1
   6   4   2 798.052 161.358   1
   6   4   3 1103.54 312.566   1
   6   4   4-122.405 283.646   1
   6   4   5 112.622 126.313   1
   6   4   6 954.043  272.43   1
   6   5   1 575.911 214.857   1
   6   5   2 679.476 137.465   1
   6   5   3-93.9082 212.745   1
   6   5   4-10.4896 211.204   1
   6   5   5 106.781 97.0845   1
   0   0   0    0.00    0.00   1
;
_shelx_hkl_checksum              87554
loop_
_space_group_symop_operation_xyz
'x, y, z'
'-x, -y, -z'
loop_
_atom_site_label
_atom_site_type_symbol
_atom_site_fract_x
_atom_site_fract_y
_atom_site_fract_z
_atom_site_U_iso_or_equiv
_atom_site_adp_type
_atom_site_occupancy
_atom_site_site_symmetry_order
_atom_site_calc_flag
O2 O 0.42236(17) 0.80172(6) 0.08928(6) 0.02462(13) Uani 1 1 d
O1 O 0.6381(2) 1.00647(7) 0.18225(7) 0.03443(17) Uani 1 1 d
N1 N 0.46830(14) 0.60462(6) 0.36427(6) 0.01417(11) Uani 1 1 d
C4 C 0.64570(16) 0.46097(7) 0.35495(7) 0.01343(11) Uani 1 1 d
C2 C 0.32173(16) 0.64553(7) 0.50670(7) 0.01341(11) Uani 1 1 d
C5 C 0.8028(2) 0.42001(9) 0.19357(8) 0.02081(14) Uani 1 1 d
H5A H 0.737(4) 0.5044(18) 0.1130(17) 0.042(4) Uiso 1 1 d
H5B H 0.731(4) 0.3206(18) 0.1712(18) 0.040(3) Uiso 1 1 d
H5C H 1.055(4) 0.4043(17) 0.1820(18) 0.044(4) Uiso 1 1 d
C3 C 0.13154(19) 0.80787(8) 0.51141(9) 0.02025(13) Uani 1 1 d
H3A H 0.269(5) 0.881(2) 0.5361(19) 0.052(4) Uiso 1 1 d
H3B H -0.081(4) 0.8009(16) 0.5921(16) 0.040(4) Uiso 1 1 d
H3C H 0.041(4) 0.842(2) 0.412(2) 0.052(4) Uiso 1 1 d
C1 C 0.5230(2) 0.95028(8) 0.08051(8) 0.02052(14) Uani 1 1 d
H2O H 0.442(5) 0.746(2) 0.184(2) 0.056(4) Uiso 1 1 d
loop_
_atom_site_aniso_label
_atom_site_aniso_U_11
_atom_site_aniso_U_22
_atom_site_aniso_U_33
_atom_site_aniso_U_23
_atom_site_aniso_U_13
_atom_site_aniso_U_12
O2 0.0447(3) 0.0139(2) 0.0168(2) 0.00284(17) -0.0119(2) -0.0053(2)
O1 0.0646(5) 0.0229(3) 0.0210(3) 0.0038(2) -0.0229(3) -0.0137(3)
N1 0.0195(2) 0.0107(2) 0.0120(2) 0.00011(15) -0.00308(17) -0.00064(16)
C4 0.0167(2) 0.0119(2) 0.0115(2) -0.00130(16) -0.00180(17) -0.00123(16)
C2 0.0168(2) 0.0101(2) 0.0134(2) -0.00097(16) -0.00338(17) -0.00018(16)
C5 0.0253(3) 0.0232(3) 0.0131(3) -0.0047(2) 0.0001(2) 0.0019(2)
C3 0.0241(3) 0.0129(2) 0.0240(3) -0.0037(2) -0.0055(2) 0.0045(2)
C1 0.0328(3) 0.0147(2) 0.0149(3) 0.00169(19) -0.0087(2) -0.0028(2)
loop_
_atom_type_symbol
_atom_type_description
_atom_type_scat_dispersion_real
_atom_type_scat_dispersion_imag
_atom_type_scat_source
C C 0.0033 0.0016 'International Tables Vol C Tables 4.2.6.8 and 6.1.1.4'
H H 0.0000 0.0000 'International Tables Vol C Tables 4.2.6.8 and 6.1.1.4'
N N 0.0061 0.0033 'International Tables Vol C Tables 4.2.6.8 and 6.1.1.4'
O O 0.0106 0.0060 'International Tables Vol C Tables 4.2.6.8 and 6.1.1.4'
loop_
_geom_angle_atom_site_label_1
_geom_angle_atom_site_label_2
_geom_angle_atom_site_label_3
_geom_angle
_geom_angle_site_symmetry_1
_geom_angle_site_symmetry_3
C1 O2 H2O 111.0(11) . .
C4 N1 C2 119.66(5) . .
N1 C4 C2 120.10(5) . 2_666
N1 C4 C5 117.81(5) . .
C2 C4 C5 122.08(5) 2_666 .
N1 C2 C4 120.24(5) . 2_666
N1 C2 C3 117.75(5) . .
C4 C2 C3 122.00(6) 2_666 .
C4 C5 H5A 109.9(9) . .
C4 C5 H5B 113.7(9) . .
H5A C5 H5B 107.7(13) . .
C4 C5 H5C 112.0(9) . .
H5A C5 H5C 110.2(12) . .
H5B C5 H5C 102.9(12) . .
C2 C3 H3A 111.1(11) . .
C2 C3 H3B 110.5(8) . .
H3A C3 H3B 107.6(13) . .
C2 C3 H3C 109.8(10) . .
H3A C3 H3C 113.4(14) . .
H3B C3 H3C 104.1(13) . .
O1 C1 O2 126.10(6) . .
O1 C1 C1 122.52(7) . 2_675
O2 C1 C1 111.38(7) . 2_675
loop_
_geom_bond_atom_site_label_1
_geom_bond_atom_site_label_2
_geom_bond_distance
_geom_bond_site_symmetry_2
O2 C1 1.3118(8) .
O2 H2O 0.897(18) .
O1 C1 1.2052(9) .
N1 C4 1.3418(7) .
N1 C2 1.3429(8) .
C4 C2 1.4015(8) 2_666
C4 C5 1.4978(9) .
C2 C3 1.4951(8) .
C5 H5A 0.968(15) .
C5 H5B 0.944(15) .
C5 H5C 0.961(16) .
C3 H3A 0.901(17) .
C3 H3B 0.981(15) .
C3 H3C 0.971(17) .
C1 C1 1.5438(13) 2_675
