#------------------------------------------------------------------------------
#$Date: 2019-11-07 02:30:21 +0200 (Thu, 07 Nov 2019) $
#$Revision: 223433 $
#$URL: file:///home/coder/svn-repositories/cod/cif/8/00/03/8000323.cif $
#------------------------------------------------------------------------------
#
# This file is available in the Crystallography Open Database (COD),
# http://www.crystallography.net/
#
# All data on this site have been placed in the public domain by the
# contributors.
#
data_8000323
loop_
_publ_author_name
'Zhang, Haoke'
'Du, Lili'
'Wang, Lin'
'Liu, Junkai'
'Wan, Qing'
'Kwok, Ryan T. K.'
'Lam, Jacky W. Y.'
'Phillips, David Lee'
'Tang, Ben Zhong'
_publ_section_title
;
 Visualization and Manipulation of Molecular Motion in the Solid State
 through Photoinduced Clusteroluminescence.
;
_journal_name_full               'The journal of physical chemistry letters'
_journal_page_first              7077
_journal_page_last               7085
_journal_paper_doi               10.1021/acs.jpclett.9b02752
_journal_year                    2019
_chemical_formula_moiety         'C14 H14'
_chemical_formula_sum            'C14 H14'
_chemical_formula_weight         182.25
_space_group_crystal_system      monoclinic
_space_group_IT_number           14
_space_group_name_Hall           '-P 2yn'
_space_group_name_H-M_alt        'P 1 21/n 1'
_atom_sites_solution_hydrogens   geom
_atom_sites_solution_primary     direct
_audit_creation_date             2017-06-15
_audit_creation_method
;
Olex2 1.2
(compiled 2017.03.28 svn.r3405 for OlexSys, GUI svn.r5337)
;
_cell_angle_alpha                90
_cell_angle_beta                 100.352(15)
_cell_angle_gamma                90
_cell_formula_units_Z            2
_cell_length_a                   7.7534(14)
_cell_length_b                   6.1617(10)
_cell_length_c                   11.6870(17)
_cell_measurement_reflns_used    455
_cell_measurement_temperature    293(2)
_cell_measurement_theta_max      29.1417
_cell_measurement_theta_min      3.4537
_cell_volume                     549.25(16)
_computing_cell_refinement
;
CrysAlisPro, Agilent Technologies,
Version 1.171.35.11 (release 16-05-2011 CrysAlis171 .NET)
(compiled May 16 2011,17:55:39)
;
_computing_data_collection
;
CrysAlisPro, Agilent Technologies,
Version 1.171.35.11 (release 16-05-2011 CrysAlis171 .NET)
(compiled May 16 2011,17:55:39)
;
_computing_data_reduction
;
CrysAlisPro, Agilent Technologies,
Version 1.171.35.11 (release 16-05-2011 CrysAlis171 .NET)
(compiled May 16 2011,17:55:39)
;
_computing_molecular_graphics    'Olex2 (Dolomanov et al., 2009)'
_computing_publication_material  'Olex2 (Dolomanov et al., 2009)'
_computing_structure_refinement  'ShelXL (Sheldrick, 2015)'
_computing_structure_solution    'ShelXS (Sheldrick, 2008)'
_diffrn_ambient_temperature      293.15
_diffrn_detector_area_resol_mean 10.3592
_diffrn_measured_fraction_theta_full 0.997
_diffrn_measured_fraction_theta_max 0.997
_diffrn_measurement_details
;
#__ type_ start__ end____ width___ exp.time_
  1 omega  -59.00   33.00   1.0000    2.5000
omega____ theta____ kappa____ phi______ frames
    -       11.7808  -38.0000   90.0000 92

#__ type_ start__ end____ width___ exp.time_
  2 omega  -64.00   17.00   1.0000    2.5000
omega____ theta____ kappa____ phi______ frames
    -       11.7808    0.0000  -30.0000 81
;
_diffrn_measurement_device_type  'Xcalibur, Atlas, Gemini ultra'
_diffrn_measurement_method       '\w scans'
_diffrn_orient_matrix_UB_11      -0.0859345000
_diffrn_orient_matrix_UB_12      0.0433525000
_diffrn_orient_matrix_UB_13      -0.0141881000
_diffrn_orient_matrix_UB_21      -0.0318170000
_diffrn_orient_matrix_UB_22      -0.0847685000
_diffrn_orient_matrix_UB_23      0.0316227000
_diffrn_orient_matrix_UB_31      0.0160618000
_diffrn_orient_matrix_UB_32      0.0646389000
_diffrn_orient_matrix_UB_33      0.0510370000
_diffrn_radiation_monochromator  graphite
_diffrn_radiation_type           MoK\a
_diffrn_radiation_wavelength     0.71073
_diffrn_reflns_av_R_equivalents  0.0251
_diffrn_reflns_av_unetI/netI     0.0401
_diffrn_reflns_Laue_measured_fraction_full 0.997
_diffrn_reflns_Laue_measured_fraction_max 0.997
_diffrn_reflns_limit_h_max       6
_diffrn_reflns_limit_h_min       -9
_diffrn_reflns_limit_k_max       6
_diffrn_reflns_limit_k_min       -7
_diffrn_reflns_limit_l_max       14
_diffrn_reflns_limit_l_min       -12
_diffrn_reflns_number            2013
_diffrn_reflns_point_group_measured_fraction_full 0.997
_diffrn_reflns_point_group_measured_fraction_max 0.997
_diffrn_reflns_theta_full        25.242
_diffrn_reflns_theta_max         25.345
_diffrn_reflns_theta_min         3.461
_diffrn_source                   'Enhance (Mo) X-ray Source'
_exptl_absorpt_coefficient_mu    0.062
_exptl_absorpt_correction_T_max  1.00000
_exptl_absorpt_correction_T_min  0.89407
_exptl_absorpt_correction_type   multi-scan
_exptl_absorpt_process_details
;
CrysAlisPro, Agilent Technologies,
Version 1.171.35.11 (release 16-05-2011 CrysAlis171 .NET)
(compiled May 16 2011,17:55:39)
Empirical absorption correction using spherical harmonics,
 implemented in SCALE3 ABSPACK scaling algorithm.
;
_exptl_crystal_colour            colourless
_exptl_crystal_colour_primary    colourless
_exptl_crystal_density_diffrn    1.102
_exptl_crystal_description       block
_exptl_crystal_F_000             196
_exptl_crystal_size_max          0.48
_exptl_crystal_size_mid          0.38
_exptl_crystal_size_min          0.3
_refine_diff_density_max         0.221
_refine_diff_density_min         -0.286
_refine_diff_density_rms         0.070
_refine_ls_extinction_method     none
_refine_ls_goodness_of_fit_ref   1.038
_refine_ls_hydrogen_treatment    constr
_refine_ls_matrix_type           full
_refine_ls_number_parameters     64
_refine_ls_number_reflns         1003
_refine_ls_number_restraints     0
_refine_ls_restrained_S_all      1.038
_refine_ls_R_factor_all          0.1153
_refine_ls_R_factor_gt           0.0739
_refine_ls_shift/su_max          0.000
_refine_ls_shift/su_mean         0.000
_refine_ls_structure_factor_coef Fsqd
_refine_ls_weighting_details
'w=1/[\s^2^(Fo^2^)+(0.1140P)^2^+0.0243P] where P=(Fo^2^+2Fc^2^)/3'
_refine_ls_weighting_scheme      calc
_refine_ls_wR_factor_gt          0.1753
_refine_ls_wR_factor_ref         0.2212
_reflns_Friedel_coverage         0.000
_reflns_number_gt                599
_reflns_number_total             1003
_reflns_threshold_expression     'I > 2\s(I)'
_cod_data_source_file            jz9b02752_si_003.cif
_cod_data_source_block           170615_cis_s_dpe
_cod_original_cell_volume        549.25(15)
_cod_database_code               8000323
_shelx_shelxl_version_number     2016/6
_chemical_oxdiff_formula         'c10 h10'
_shelx_space_group_comment
;
The symmetry employed for this shelxl refinement is uniquely defined
by the following loop, which should always be used as a source of
symmetry information in preference to the above space-group names.
They are only intended as comments.
;
_shelx_estimated_absorpt_t_max   0.982
_shelx_estimated_absorpt_t_min   0.971
_reflns_odcompleteness_completeness 99.52
_reflns_odcompleteness_iscentric 1
_reflns_odcompleteness_theta     26.32
_olex2_refinement_description
;
1. Fixed Uiso
 At 1.2 times of:
  All C(H) groups, All C(H,H) groups
2.a Secondary CH2 refined with riding coordinates:
 C7(H7A,H7B)
2.b Aromatic/amide H refined with riding coordinates:
 C1(H1), C2(H2), C3(H3), C4(H4), C5(H5)
;
_shelx_res_file
;
TITL 170615_cis_S_DPE in P21/n #14
    170615_cis_s_dpe.res
    created by SHELXL-2016/6 at 15:12:11 on 15-Jun-2017
REM reset to P21/n #14
CELL 0.71073 7.75345 6.16167 11.68696 90 100.3522 90
ZERR 2 0.00137 0.00095 0.00169 0 0.0151 0
LATT 1
SYMM 0.5-X,0.5+Y,0.5-Z
SFAC C H
UNIT 28 28

L.S. 10
PLAN  20
SIZE 0.48 0.38 0.3
TEMP 20
BOND $h
htab
fmap 2
acta
SHEL 999 0.83
REM <olex2.extras>
REM <HklSrc "%.\\170615_cis_S_DPE.hkl">
REM </olex2.extras>

WGHT    0.114000    0.024300
FVAR      15.34754
C1    1    0.404714    0.025199    0.758613    11.00000    0.06707    0.06671 =
         0.07186   -0.00088    0.00889   -0.01172
AFIX  43
H1    2    0.343516   -0.100485    0.769926    11.00000   -1.20000
AFIX   0
C2    1    0.425566    0.081207    0.648185    11.00000    0.08211    0.09034 =
         0.06218   -0.00836    0.00609    0.00172
AFIX  43
H2    2    0.377331   -0.005926    0.585592    11.00000   -1.20000
AFIX   0
C3    1    0.515857    0.262419    0.629591    11.00000    0.09155    0.08920 =
         0.07604    0.01623    0.02759    0.01167
AFIX  43
H3    2    0.529024    0.299813    0.554546    11.00000   -1.20000
AFIX   0
C4    1    0.587012    0.389121    0.721156    11.00000    0.07897    0.07207 =
         0.11059    0.01573    0.02902   -0.00762
AFIX  43
H4    2    0.649845    0.512900    0.708848    11.00000   -1.20000
AFIX   0
C5    1    0.566246    0.334564    0.832092    11.00000    0.07165    0.06295 =
         0.08799   -0.01321    0.00234   -0.00348
AFIX  43
H5    2    0.615953    0.422169    0.894113    11.00000   -1.20000
AFIX   0
C6    1    0.473156    0.152506    0.853090    11.00000    0.06194    0.06201 =
         0.06212   -0.00144    0.00787    0.00657
C7    1    0.444594    0.092909    0.973798    11.00000    0.08965    0.08313 =
         0.07142   -0.00222    0.01686    0.02483
AFIX  23
H7A   2    0.470016    0.218468    1.024065    11.00000   -1.20000
H7B   2    0.322147    0.055893    0.970243    11.00000   -1.20000
AFIX   0
HKLF 4




REM  170615_cis_S_DPE in P21/n #14
REM R1 =  0.0739 for     599 Fo > 4sig(Fo)  and  0.1153 for all    1003 data
REM     64 parameters refined using      0 restraints

END

WGHT      0.1159      0.0096

REM No hydrogen bonds found for HTAB generation

REM Highest difference peak  0.221,  deepest hole -0.286,  1-sigma level  0.070
Q1    1   0.3330  0.1566  1.0269  11.00000  0.05    0.22
Q2    1   0.2268 -0.0032  0.8952  11.00000  0.05    0.17
Q3    1   0.2662 -0.2203  0.6199  11.00000  0.05    0.15
Q4    1   0.3060 -0.1136  0.9878  11.00000  0.05    0.14
Q5    1   0.7622  0.4614  0.6199  11.00000  0.05    0.13
Q6    1   0.2311 -0.1924  0.9616  11.00000  0.05    0.13
Q7    1   0.2514 -0.2429  0.9760  11.00000  0.05    0.13
Q8    1   0.2855 -0.1819  0.8515  11.00000  0.05    0.12
Q9    1   0.2535 -0.0742  1.0348  11.00000  0.05    0.12
Q10   1   0.3640 -0.3485  0.7077  11.00000  0.05    0.12
Q11   1   0.3165 -0.3238  0.7954  11.00000  0.05    0.12
Q12   1   0.1862  0.2181  0.9622  11.00000  0.05    0.12
Q13   1   0.8379  0.3866  0.8380  11.00000  0.05    0.11
Q14   1   0.5965  0.7208  0.8048  11.00000  0.05    0.11
Q15   1   0.1788 -0.0093  0.7754  11.00000  0.05    0.11
Q16   1   0.1992  0.1362  0.5946  11.00000  0.05    0.11
Q17   1   0.7445  0.6157  0.6386  11.00000  0.05    0.11
Q18   1   0.7238  0.6122  0.8622  11.00000  0.05    0.11
Q19   1   0.1650  0.0454  0.6625  11.00000  0.05    0.11
Q20   1   0.5966  0.7542  0.6903  11.00000  0.05    0.10
;
_shelx_res_checksum              6121
_shelx_hkl_file
;
   2   0   0 999999. 5700.03   2
   3   0   0-40.9699 66.1857   2
   4   0   0 382.899 161.230   2
  -5   0   0-39.7278 99.5098   2
   5   0   0-5.79823 57.1186   2
  -5   0   0 20.6837 114.959   1
  -6   0   0 17215.3 1344.26   2
  -7   0   0 37.5256 102.853   2
  -8   0   0 1837.31 528.635   2
  -9   0   0 340.299 369.607   2
  -1   1   0 233988. 2042.34   1
   1   1   0 239532. 2223.08   2
   1  -1   0 233052. 2045.12   1
   2   1   0 10957.5 608.574   2
   2  -1   0 9706.98 547.670   1
  -2   1   0 10259.1 555.674   1
  -3   1   0 5874.33 517.820   1
  -3  -1   0 5428.37 531.007   2
   3   1   0 5710.70 540.069   2
  -4   1   0 263.845 141.680   1
   4   1   0 708.798 226.398   2
  -4  -1   0 659.561 229.502   2
  -5  -1   0 1021.02 284.701   2
   5   1   0 893.563 293.451   2
  -5   1   0 787.477 256.157   1
  -6  -1   0 436.112 228.786   2
  -6   1   0 157.163 103.120   2
  -7   1   0 544.486 262.635   2
  -7  -1   0 322.605 218.145   2
  -8  -1   0 780.813 336.206   2
  -8   1   0 244.030 138.386   2
  -9   1   0-6.24470 122.155   2
  -9  -1   0 542.637 322.343   2
   0  -2   0 17759.3 689.569   1
  -1   2   0 142959. 1906.87   1
   1  -2   0 142251. 1938.99   1
   2   2   0 19312.0 909.111   2
  -2   2   0 19680.9 828.056   1
   2  -2   0 19577.7 832.957   1
   3  -2   0 277949. 3627.61   1
  -3   2   0 281288. 3667.55   1
  -3  -2   0 279942. 3972.61   2
   3   2   0 280044. 3954.29   2
  -4  -2   0 44895.0 1794.29   2
  -4   2   0 46446.9 1768.17   1
   4   2   0 46175.6 1814.74   2
  -5   2   0 35324.0 1701.25   1
  -5   2   0 49282.6 2214.45   2
   5   2   0 35894.4 1817.93   2
  -5  -2   0 45280.8 2020.52   2
  -6   2   0 9777.94 1093.20   2
  -6  -2   0 11264.9 1106.16   2
  -7   2   0 676.631 293.540   2
  -7  -2   0 327.919 184.645   2
  -8  -2   0 533.723 292.691   2
  -8   2   0-176.583 206.128   2
  -9  -2   0-688.404 362.991   2
  -9   2   0 163.670 289.085   2
   0  -3   0 13.1281 51.1365   1
   1  -3   0 26804.1 1007.69   1
  -1   3   0 25675.4 987.937   1
   2   3   0 14810.1 923.011   2
  -2   3   0 15312.6 811.212   1
   2  -3   0 15819.7 835.799   1
  -3   3   0 3909.38 460.355   1
   3   3   0 4087.17 530.051   2
   3  -3   0 3867.22 452.514   1
  -4   3   0 8908.64 782.672   1
   4  -3   0 12553.4 905.954   1
  -4   3   0 13417.2 1120.28   2
   4   3   0 8096.98 817.639   2
  -5   3   0 16118.6 1349.14   2
  -5   3   0 12267.0 1006.46   1
  -5  -3   0 16607.9 1282.01   2
  -6  -3   0 1611.27 434.924   2
  -6   3   0 1956.85 539.385   2
  -7  -3   0 2777.29 613.389   2
  -7   3   0 3125.69 700.381   2
  -8  -3   0-549.271 314.088   2
  -8   3   0 120.383 197.556   2
  -9  -3   0-126.731 174.256   2
   0  -4   0 17607.2 963.407   1
  -1  -4   0 1931.17 343.666   1
   1  -4   0 2190.48 335.541   1
   2   4   0 5340.50 625.748   2
  -2   4   0 5504.68 545.950   1
   2  -4   0 6923.00 616.094   1
  -3   4   0 2305.48 376.952   1
   3  -4   0 3298.28 449.070   1
   3   4   0 2243.04 426.346   2
   4  -4   0 52.3662 101.579   1
  -4   4   0 51.1838 70.2777   1
  -5   4   0 126.618 99.9159   2
  -5   4   0 102.265 113.654   1
  -6   4   0 531.698 325.968   2
  -7   4   0 1836.06 569.667   2
  -8   4   0 535.956 336.739   2
   0  -5   0-231.944 135.078   1
   1  -5   0 585.374 187.749   1
  -1  -5   0 849.336 264.373   1
   2   5   0 6472.55 774.819   2
   2  -5   0 6147.69 638.620   1
   3  -5   0 1037.01 268.886   1
  -3   5   0 483.306 187.105   1
   4  -5   0 1435.84 332.946   1
  -4   5   0 1559.94 346.450   1
  -5   5   0 206.054 212.980   2
   5  -5   0 184.191 80.1386   1
  -6   5   0 764.770 355.739   2
  -7   5   0 365.337 276.248   2
   0  -6   0 130.883 120.647   1
   1  -6   0 146.442 121.901   1
  -1  -6   0 11.6001 117.877   1
  -2  -6   0 10.3686 80.9400   1
   2  -6   0 108.695 110.331   1
   3  -6   0-63.6507 90.2101   1
   4  -6   0 72.7687 114.559   1
  -5   6   0 162.558 155.805   2
   5  -6   0 320.416 185.879   1
  -6   6   0 16.5514 251.935   2
   0  -7   0 67.0438 92.7966   1
  -1  -7   0-9.48789 76.9261   1
   1  -7   0-144.511 134.002   1
  -2  -7   0 42.2422 99.4859   1
  -3  -7   0 581.882 286.061   1
  -4  -7   0-387.247 241.059   1
  -5   7   0 441.046 306.969   2
  -9   0   1-31.1670 132.793   2
  -8   0   1 21.7508 200.265   2
  -7   0   1 990.785 361.464   2
  -6   0   1 120.777 125.626   2
   5   0  -1 79.1221 122.971   2
   4   0  -1 67.3400 98.0693   2
   3   0  -1 7942.07 629.176   2
   2   0  -1 49.8351 74.4574   2
  -1   0  -1 28460.7 769.106   1
  -2   0  -1 70.8097 65.0904   1
   2   0   1 1.78714 53.1955   2
   3   0   1 286.069 115.632   2
  -3   0  -1 249.448 133.925   1
   4   0   1 9.14139 105.139   2
  -4   0  -1 26.6639 69.5725   1
  -4   0  -1 47.4269 77.4601   2
   5   0   1 21.3957 60.8788   2
  -5   0  -1-129.464 166.576   2
  -5   0  -1-85.7377 179.467   1
  -6   0  -1-71.2747 119.806   2
  -7   0  -1 65.7323 132.134   2
  -8   0  -1 337.219 234.891   2
  -9   0  -1 1111.35 459.559   2
  -9  -1   1 746.469 399.018   2
  -9   1   1 409.430 275.674   2
  -8  -1   1 1513.42 482.486   2
  -8   1   1 1305.74 502.023   2
  -7  -1   1 4930.42 789.582   2
  -7   1   1 4248.94 749.126   2
  -6  -1   1 1560.64 420.458   2
  -6   1   1 1110.98 333.792   2
  -6   1   1 1479.71 385.162   1
   5   1  -1 7731.63 820.349   2
  -5  -1   1 6017.26 740.475   2
   5  -1  -1 6919.22 791.921   2
  -5   1   1 5073.20 619.117   1
  -4   1   1 146300. 2872.80   1
   4   1  -1 146638. 3177.14   2
   4  -1  -1 144505. 3164.93   2
   3  -1  -1 42827.4 1490.80   2
  -3   1   1 42680.2 1306.37   1
   3   1  -1 44421.8 1498.23   2
  -2   1   1 606520. 3815.85   1
   2   1  -1 602159. 4702.61   2
   1  -1  -1 562490. 2264.63   1
  -1   1   1 562317. 2302.11   1
   1   1  -1 559995. 3857.35   2
   0   1  -1 43183.5 929.703   1
   1   1   1 591885. 3184.72   2
  -1   1  -1 588568. 3864.93   1
  -1  -1  -1 588779. 3205.73   2
  -2   1  -1 291527. 3341.91   1
  -2  -1  -1 289773. 3042.11   2
   2   1   1 291109. 3100.34   2
  -3  -1  -1 82589.4 2039.03   2
   3  -1   1 82500.8 2072.14   1
  -3   1  -1 83979.0 2074.42   1
   3   1   1 84514.3 2044.79   2
   4   1   1 51871.2 1867.87   2
  -4   1  -1 52408.3 1896.79   1
  -4  -1  -1 50564.1 1848.21   2
  -5   1  -1 560.973 273.310   2
  -5   1  -1 300.289 164.125   1
   5   1   1 393.367 197.132   2
  -5  -1  -1 334.714 172.867   2
  -6   1  -1-54.5680 96.1103   2
  -6  -1  -1-16.5884 144.790   2
  -7   1  -1 143.354 165.691   2
  -7  -1  -1-90.8427 237.040   2
  -8  -1  -1 794.467 332.642   2
  -8   1  -1 452.803 218.243   2
  -9   1  -1-131.494 176.712   2
  -9  -1  -1 293.444 245.733   2
  -9  -2   1 266.885 231.400   2
  -9   2   1-92.5208 155.869   2
  -8  -2   1-200.168 195.853   2
  -8   2   1 78.7992 109.580   2
  -7   2   1 438.978 253.716   2
  -7  -2   1 139.696 161.176   2
  -6   2   1 146.908 150.711   2
  -6   2   1 166.513 102.079   1
  -6  -2   1 268.873 209.187   2
  -5   2   1 4602.39 583.244   1
  -5  -2   1 5643.38 729.937   2
  -5   2   1 6391.60 796.614   2
  -4  -2   1 173.742 130.328   2
  -4   2   1 235.683 104.447   1
   4   2  -1 273.909 143.351   2
   3   2  -1 71138.0 2058.80   2
  -3  -2   1 68430.4 2040.12   2
  -3   2   1 68458.0 1676.74   1
  -2   2   1 4380.62 338.486   1
   2  -2  -1 4469.43 343.529   1
   2   2  -1 4373.04 458.301   2
   1  -2  -1 52701.2 959.462   1
  -1   2   1 51896.1 934.704   1
   0  -2   1 2621.74 296.409   1
  -1   2  -1 11068.9 616.020   1
   1   2   1 12175.5 599.467   2
   1  -2   1 11280.4 632.495   1
   2   2   1 18706.3 863.961   2
   2  -2   1 20277.9 959.009   1
  -2   2  -1 19061.1 906.340   1
  -2  -2  -1 18896.8 872.962   2
  -3   2  -1 25660.1 1200.12   1
   3   2   1 25416.9 1156.34   2
   3  -2   1 24876.9 1174.79   1
  -3  -2  -1 24282.8 1137.91   2
   4  -2   1 19080.6 1164.38   1
  -4  -2  -1 18424.9 1137.59   2
  -4   2  -1 20671.1 1206.16   1
   4   2   1 21028.4 1221.95   2
  -5   2  -1 209.368 134.780   1
   5   2   1 543.362 222.706   2
  -5   2  -1 691.922 302.802   2
  -5  -2  -1 464.912 238.616   2
  -6  -2  -1 7304.14 881.453   2
  -6   2  -1 6761.23 920.713   2
  -7   2  -1 860.629 375.529   2
  -7  -2  -1 379.239 240.872   2
  -8  -2  -1 543.014 225.431   2
  -8   2  -1 1274.23 484.188   2
  -9  -2  -1-252.128 229.649   2
  -9   2  -1-240.873 255.348   2
  -9  -3   1-285.241 242.649   2
  -8  -3   1 1265.75 477.734   2
  -8   3   1 1620.10 545.089   2
  -7   3   1 3266.54 712.914   2
  -7  -3   1 3361.89 682.068   2
  -6   3   1 9724.34 1152.35   2
  -6  -3   1 9267.50 1049.99   2
  -6   3   1 9845.60 959.833   1
  -5  -3   1 16721.3 1338.09   2
  -5   3   1 16445.4 1329.76   2
  -4   3   1 15491.7 961.334   1
   4   3  -1 15945.2 1145.51   2
   3  -3  -1 2072.98 307.708   1
   3   3  -1 1974.07 379.768   2
  -3   3   1 1949.19 290.506   1
  -2   3   1 17367.2 759.553   1
   2   3  -1 18368.8 1068.23   2
   2  -3  -1 17159.6 767.831   1
   1  -3  -1 34217.7 992.364   1
   0  -3  -1 8003.94 508.795   1
   0  -3   1 8049.38 607.431   1
   1  -3   1 40531.0 1398.27   1
  -1   3  -1 42465.6 1422.05   1
  -2   3  -1 1029.93 244.508   1
   2  -3   1 1025.48 237.627   1
   2   3   1 1186.83 254.826   2
  -3   3  -1 97.9112 81.0671   1
   3   3   1 58.8027 58.3029   2
   3  -3   1-28.2472 82.6552   1
   4  -3   1 1104.29 292.476   1
  -4  -3  -1 763.349 266.412   2
  -4   3  -1 410.020 187.706   2
  -4   3  -1 645.113 236.700   1
   4   3   1 400.922 191.853   2
  -5   3  -1 5010.57 693.895   1
  -5   3  -1 6015.36 841.019   2
   5   3   1 6754.13 796.420   2
  -5  -3  -1 6083.89 766.614   2
  -6   3  -1 522.947 279.546   2
  -6  -3  -1 467.905 232.527   2
  -7   3  -1 1236.11 463.475   2
  -7  -3  -1 1497.74 441.207   2
  -8   3  -1 110.117 139.881   2
  -8  -3  -1 64.0547 142.602   2
  -9  -3  -1-879.473 410.742   2
  -8   4   1 710.877 442.174   2
  -7   4   1 1796.34 583.319   2
  -6   4   1 961.619 392.527   2
  -5   4   1 1589.05 415.108   2
  -5   4   1 1353.19 331.660   1
   4  -4  -1 871.982 228.127   1
  -4   4   1 442.644 190.153   1
  -4   4   1 1031.72 333.066   2
   3  -4  -1-1.72660 83.2065   1
  -3   4   1 86.5094 71.9868   1
   3   4  -1 118.259 107.569   2
   2   4  -1 2238.31 428.277   2
  -2   4   1 2635.50 335.009   1
   1  -4  -1 4569.35 437.843   1
  -1  -4   1 4697.79 560.026   1
   0  -4  -1 13187.5 773.057   1
   0  -4   1 12609.1 880.943   1
   1  -4   1 29295.7 1331.06   1
   2  -4   1 1035.94 260.989   1
  -2   4  -1 616.984 200.121   1
   2   4   1 435.694 172.031   2
   3   4   1 16232.0 1108.63   2
  -3   4  -1 15616.7 1052.80   1
  -4   4  -1 2361.41 442.646   1
   4  -4   1 3609.20 556.822   1
   4   4   1 2628.78 490.387   2
   5  -4   1 967.509 305.078   1
  -5   4  -1 1289.81 441.579   2
  -6   4  -1 2341.70 596.758   2
  -7   4  -1 907.122 439.161   2
  -8   4  -1 680.663 387.641   2
  -7   5   1 197.524 211.435   2
  -6   5   1 18.4658 107.073   2
  -5   5   1 156.116 149.798   2
   4  -5  -1 121.493 110.667   1
  -4   5   1-12.5762 184.714   2
  -4   5   1 99.7326 71.3741   1
  -3   5   1 869.393 233.290   1
   3  -5  -1 992.764 242.996   1
  -2  -5   1 540.668 213.727   1
   2  -5  -1 733.100 192.987   1
  -1  -5   1 630.662 262.655   1
   1  -5  -1 590.916 195.529   1
   0  -5   1 350.909 172.913   1
   0  -5  -1 398.546 167.653   1
   1  -5   1 307.127 179.185   1
  -1  -5  -1 517.142 176.456   1
  -2   5  -1 137.775 146.007   1
   2  -5   1-15.5479 105.856   1
   2   5   1 15.7408 89.1647   2
   3  -5   1 1024.39 306.351   1
  -3   5  -1 622.768 211.375   1
   3   5   1 818.437 295.064   2
  -4   5  -1 387.311 195.207   1
   4  -5   1 89.0584 183.880   1
  -5   5  -1 805.493 330.935   2
   5  -5   1 409.161 216.264   1
  -6   5  -1-73.1746 229.117   2
  -7   5  -1 119.301 181.207   2
  -6   6   1 156.604 181.206   2
  -5   6   1 564.931 321.873   2
   4  -6  -1 729.412 232.198   1
   3  -6  -1 858.853 240.722   1
  -3  -6   1 388.878 148.668   1
  -2  -6   1-32.6230 96.3875   1
   2  -6  -1 34.0224 82.6321   1
   1  -6  -1 1260.31 297.427   1
  -1  -6   1 1564.43 392.296   1
   0  -6   1 715.639 280.227   1
   0  -6  -1 1137.71 297.308   1
  -1  -6  -1 1016.65 299.294   1
   1  -6   1 1349.87 350.230   1
   2  -6   1 5.12586 88.9324   1
  -2  -6  -1 179.185 136.550   1
   3  -6   1 441.835 240.911   1
   4  -6   1 2405.77 496.445   1
   5  -6   1-245.283 105.808   1
  -5   6  -1 220.005 202.335   2
  -6   6  -1 898.758 422.034   2
  -5   7   1 180.834 209.403   2
  -5  -7   1 494.024 297.864   1
  -4  -7   1 393.209 256.532   1
  -3  -7   1 240.340 215.395   1
  -2  -7   1 32.2941 106.151   1
  -1  -7   1 607.230 331.671   1
   0  -7   1-19.1196 185.535   1
   0  -7  -1 270.576 163.132   1
  -1  -7  -1-4.00727 63.7710   1
   1  -7   1-16.3953 85.0791   1
   2  -7   1 64.6203 101.913   1
  -2  -7  -1 70.1768 91.4882   1
  -3  -7  -1 355.669 233.294   1
  -9   0   2-76.3425 148.995   2
  -8   0   2 1640.00 483.901   2
  -7   0   2 135.896 222.669   2
  -6   0   2 20837.7 1501.86   2
   5   0  -2-30.9522 100.296   2
   4   0  -2 24071.9 1281.94   2
   3   0  -2-63.9051 81.6371   2
   2   0  -2 66384.0 1483.88   2
   1   0  -2 27.7572 33.3592   2
   0   0  -2 266254. 2150.51   1
  -1   0  -2 54.6927 63.8652   1
  -2   0  -2 1862.89 284.545   1
  -2   0  -2 2008.17 277.199   2
  -3   0  -2-72.5643 113.814   2
  -3   0  -2 70.5538 92.9244   1
  -4   0  -2 27013.1 1429.73   1
   4   0   2 26584.8 1358.42   2
  -4   0  -2 27006.1 1386.38   2
  -5   0  -2-49.1978 111.288   2
  -5   0  -2 57.3050 87.1010   1
  -6   0  -2 1419.43 416.892   2
  -7   0  -2-41.2167 101.774   2
  -8   0  -2 2405.58 600.393   2
  -9   0  -2-529.459 325.116   2
  -9  -1   2 296.883 245.616   2
  -9   1   2-204.081 223.819   2
  -8   1   2-135.950 161.881   2
  -8  -1   2-63.7669 161.011   2
  -7   1   2-505.600 265.730   2
  -7  -1   2-83.6324 140.389   2
  -6   1   2 851.550 277.613   1
  -6  -1   2 1652.20 425.083   2
  -6   1   2 1137.88 359.324   2
  -5  -1   2 1030.45 297.651   2
   5  -1  -2 1011.97 294.988   2
  -5   1   2 1178.19 288.255   1
   5   1  -2 1762.94 391.423   2
   4   1  -2 12554.1 935.807   2
   4  -1  -2 12942.5 938.333   2
   3  -1  -2 441.451 158.322   2
   3   1  -2 512.393 161.954   2
   2   1  -2 43759.6 1329.71   2
   2  -1  -2 43487.1 1212.49   2
   0   1  -2 65.2163 62.2436   1
   0  -1  -2 69.8475 30.0305   1
  -1  -1  -2 21546.8 762.063   1
  -1  -1  -2 21930.1 574.654   2
  -1   1  -2 22777.6 874.461   1
   1   1   2 21835.8 579.421   2
  -2   1  -2 31103.1 1187.55   1
  -2  -1  -2 31495.6 994.768   2
   2   1   2 31401.6 1000.71   2
   3   1   2 2897.83 374.684   2
  -3  -1  -2 3096.20 444.369   1
  -3   1  -2 3263.17 440.853   1
  -3  -1  -2 3166.39 399.806   2
   4   1   2 6271.74 645.395   2
  -4  -1  -2 6996.74 682.990   2
  -4  -1  -2 7012.67 753.267   1
  -4   1  -2 6823.99 726.178   2
  -4   1  -2 7340.76 746.491   1
  -5   1  -2 270.379 222.427   2
   5   1   2 29.9071 67.9410   2
  -5  -1  -2 32.2403 130.088   2
  -5   1  -2 137.065 109.235   1
  -6   1  -2 48.5811 123.209   2
  -6  -1  -2 118.109 147.270   2
  -7   1  -2 2273.53 587.529   2
  -7  -1  -2 2094.05 519.362   2
  -8  -1  -2 84.0429 147.969   2
  -8   1  -2 856.425 400.603   2
  -9   1  -2 489.294 321.871   2
  -9  -1  -2 574.606 313.760   2
  -9   2   2-113.752 124.885   2
  -9  -2   2 700.899 361.654   2
  -8  -2   2 855.983 383.725   2
  -8   2   2 1540.23 503.898   2
  -7  -2   2 105.774 156.217   2
  -7   2   2 19.7263 192.117   2
  -6   2   2 116.974 154.753   2
  -6   2   2 81.5286 73.4765   1
  -6  -2   2-8.23497 89.8801   2
  -5  -2   2 11238.9 1043.38   2
  -5   2   2 11647.8 1056.99   2
  -5   2   2 8626.39 760.356   1
   5   2  -2 12569.6 1078.39   2
  -4   2   2 539.950 164.561   1
  -4  -2   2 708.178 209.244   2
   4   2  -2 784.292 252.371   2
  -3   2   2 65827.2 1954.21   2
  -3   2   2 64309.4 1461.58   1
   3   2  -2 66745.7 2056.22   2
  -2   2   2 5205.81 304.122   1
  -2   2   2 4836.30 448.442   2
   2   2  -2 5302.51 525.013   2
   0   2  -2 24336.3 990.696   1
   1   2   2 2368.78 236.882   2
   1  -2   2 2615.90 349.656   1
  -1   2  -2 2225.34 308.674   1
   2   2   2 0.98532 51.1437   2
  -2   2  -2-27.9951 52.4249   1
  -2  -2  -2 15.0299 40.8338   2
   2  -2   2 27.0052 99.3163   1
   3   2   2 2262.33 346.856   2
   3  -2   2 2058.37 367.181   1
  -3   2  -2 1784.69 348.471   1
  -3  -2  -2 1713.04 300.675   2
  -4  -2  -2 7911.88 729.902   2
   4  -2   2 7496.70 773.445   1
   4   2   2 7484.46 726.414   2
  -4   2  -2 5850.01 673.140   1
   5   2   2 1533.51 375.096   2
  -5   2  -2 2427.58 519.546   2
  -5  -2  -2 2486.04 471.760   2
  -6  -2  -2 1781.40 446.158   2
  -6   2  -2 2609.05 612.608   2
  -7   2  -2 3052.58 694.087   2
  -7  -2  -2 3732.20 686.580   2
  -8   2  -2 24.1374 289.937   2
  -8  -2  -2 164.941 170.453   2
  -9  -2  -2 59.6119 144.360   2
  -9   3   2 648.653 412.618   2
  -9  -3   2 23.5843 135.761   2
  -8   3   2 345.128 272.746   2
  -8  -3   2 169.978 181.056   2
  -7  -3   2 284.604 228.857   2
  -7   3   2-85.7559 212.835   2
  -6   3   2 473.339 193.716   1
  -6   3   2 376.640 237.367   2
  -6  -3   2 155.778 115.555   2
  -5   3   2 244.948 153.948   1
  -5   3   2 10.0263 150.175   2
  -4   3   2 701.700 186.616   1
  -4   3   2 703.761 235.668   2
   4   3  -2 735.029 263.797   2
   3   3  -2 9565.47 854.813   2
  -3   3   2 7672.70 514.278   1
   2   3  -2 135.013 82.0566   2
   2  -3  -2 288.700 86.9193   1
  -2   3   2 222.902 71.2929   1
  -1  -3   2 51313.7 1735.73   1
   1  -3  -2 50784.8 992.401   1
   0  -3   2 4331.46 486.415   1
  -1   3  -2 14665.4 905.424   1
   1   3   2 14411.0 755.099   2
   1  -3   2 14327.9 901.805   1
   2  -3   2 18203.6 1071.31   1
  -2   3  -2 18144.9 1074.62   1
   2   3   2 18655.8 931.090   2
   3  -3   2 4254.83 565.391   1
   3   3   2 3747.06 473.887   2
  -3   3  -2 4191.85 549.671   1
   4   3   2 9900.37 877.439   2
   4  -3   2 13184.1 1067.58   1
  -4  -3  -2 14902.3 1057.88   2
  -4   3  -2 10847.5 969.786   1
  -5  -3  -2 15045.2 1187.67   2
   5   3   2 13079.2 1116.29   2
  -5   3  -2 14313.6 1324.69   2
   5  -3   2 13776.6 1177.43   1
  -6   3  -2 4395.04 790.365   2
  -6  -3  -2 4107.54 703.447   2
  -7   3  -2 2286.35 656.597   2
  -7  -3  -2 2885.94 647.712   2
  -8   3  -2 126.369 197.460   2
  -8  -3  -2-253.335 222.377   2
  -9  -3  -2-345.293 261.363   2
  -8   4   2 169.458 195.854   2
  -7   4   2 1693.08 534.985   2
  -6   4   2 676.459 238.327   1
  -6   4   2 165.548 170.396   2
  -5   4   2 1890.14 351.071   1
  -5   4   2 2815.01 584.514   2
  -4   4   2 93.8427 128.099   2
  -4   4   2 113.196 76.4386   1
   3  -4  -2 929.163 187.111   1
  -3   4   2 540.694 150.073   1
   3   4  -2 798.333 280.966   2
  -2  -4   2 59.4857 74.7690   1
   2  -4  -2 35.0457 51.7709   1
  -1  -4   2 1432.49 356.185   1
   1  -4  -2 1008.21 176.673   1
   0  -4   2 98.1390 83.9445   1
   0  -4  -2 98.2628 59.5143   1
  -1   4  -2 2128.58 390.791   1
   1  -4   2 2287.90 396.919   1
   2  -4   2 55.2519 107.709   1
  -2   4  -2 99.3526 91.4922   1
   2   4   2 107.189 44.4496   2
   3   4   2 1053.89 283.186   2
  -3   4  -2 695.850 231.209   1
   4   4   2-13.5720 79.1658   2
  -4   4  -2-101.468 180.125   1
   4  -4   2 89.2996 114.372   1
   5  -4   2 161.210 182.698   1
  -5   4  -2-91.1786 265.381   2
  -6   4  -2-103.003 313.686   2
  -7   4  -2-187.486 225.057   2
  -7   5   2 95.4260 145.305   2
  -6   5   2 313.043 233.575   2
  -5   5   2 666.158 351.176   2
  -4   5   2 646.862 272.617   2
  -4   5   2 700.051 202.186   1
   3  -5  -2 214.468 109.864   1
   2  -5  -2 3190.24 365.391   1
  -2  -5   2 2601.09 501.928   1
   1  -5  -2 3332.82 389.800   1
  -1  -5   2 3377.65 549.322   1
   0  -5   2 15607.9 1151.49   1
   0  -5  -2 16835.3 923.103   1
  -1  -5  -2 8196.23 711.912   1
   1  -5   2 8100.77 834.536   1
  -2   5  -2 20827.3 1349.93   1
   2  -5   2 23175.4 1453.14   1
   3  -5   2 1577.63 398.400   1
   3   5   2 1493.54 358.934   2
   4  -5   2 4434.89 686.474   1
   5  -5   2 336.369 187.560   1
  -5   5  -2 192.107 158.716   2
  -6   5  -2-132.538 194.859   2
  -7   6   2 16.4039 121.642   2
  -6   6   2 59.3625 126.984   2
  -5   6   2 228.771 208.592   2
  -4  -6   2-119.907 157.856   1
  -4   6   2-488.474 266.670   2
   3  -6  -2-21.9605 53.9898   1
  -3  -6   2-39.9819 83.7918   1
   2  -6  -2 966.079 226.723   1
  -2  -6   2 646.832 275.740   1
  -1  -6   2 139.537 105.829   1
   1  -6  -2 185.683 76.4354   1
   0  -6  -2 1668.50 335.195   1
   0  -6   2 2099.80 454.223   1
   1  -6   2 555.194 265.224   1
  -1  -6  -2 270.779 170.225   1
   2  -6   2 178.275 136.020   1
  -2  -6  -2 546.408 224.744   1
   3  -6   2-122.906 140.174   1
   4  -6   2-160.312 151.959   1
   5  -6   2-184.742 169.722   1
  -5  -7   2 786.276 286.832   1
  -5   7   2 502.164 304.073   2
  -4  -7   2 724.014 339.923   1
  -4   7   2-189.798 186.358   2
  -3  -7   2 877.921 358.854   1
  -2  -7   2 3172.23 644.628   1
  -1  -7   2 54.2344 148.596   1
   0  -7   2 1126.38 344.999   1
   1  -7   2 504.876 251.611   1
  -2  -7  -2 162.567 138.072   1
   2  -7   2 122.803 138.876   1
   3  -7   2 1416.77 425.480   1
  -3  -7  -2 844.464 317.639   1
  -3  -8   2 120.800 177.936   1
  -2  -8   2 392.435 251.412   1
  -9   0   3 478.133 310.745   2
  -8   0   3-670.071 334.684   2
  -7   0   3-34.6579 181.853   2
  -6   0   3-59.5389 160.206   2
   5   0  -3 264.513 141.544   2
   4   0  -3 14.7177 73.0274   2
   3   0  -3 7715.05 629.536   2
   2   0  -3-58.8955 68.9177   2
   1   0  -3 90212.9 1450.73   2
   0   0  -3-30.8247 44.1703   1
  -1   0  -3 27678.5 999.883   1
  -2   0  -3-28.3934 76.7219   2
  -2   0  -3 40.3659 75.2405   1
  -3   0  -3 3346.78 462.716   1
  -3   0  -3 3844.16 465.037   2
  -4   0  -3 123.420 151.244   1
  -4   0  -3 8.95913 142.028   2
  -5   0  -3 6904.69 806.009   2
  -6   0  -3-61.4116 91.2585   2
  -7   0  -3 917.564 337.306   2
  -8   0  -3 27.0645 108.373   2
  -9   0  -3 200.714 217.366   2
  -9  -1   3 691.778 364.607   2
  -9   1   3 689.060 398.527   2
  -8  -1   3-464.806 281.314   2
  -8   1   3-48.5588 191.006   2
  -7   1   3 1739.91 481.542   2
  -7  -1   3 1310.32 403.687   2
  -6   1   3-80.2949 208.511   2
  -6  -1   3 38.9754 101.864   2
   5  -1  -3 5632.15 687.043   2
  -5   1   3 6148.17 730.090   2
   5   1  -3 5780.50 731.554   2
   4   1  -3 5178.58 619.407   2
   4  -1  -3 5155.55 595.173   2
  -3   1   3 2439.90 350.453   2
   3   1  -3 2746.30 402.417   2
   3  -1  -3 2723.04 375.662   2
   2  -1  -3 2810.83 307.775   2
  -2   1   3 3167.65 327.434   2
   2   1  -3 3244.94 381.856   2
   1  -1  -3 12154.8 451.322   2
  -1   1   3 12640.3 465.369   2
  -1   1   3 11779.2 359.636   1
   0   1   3 50543.9 972.273   1
   0   1  -3 50505.9 1349.37   1
   0  -1  -3 51374.3 966.433   1
  -1   1  -3 79471.2 1828.41   1
  -1  -1  -3 78207.8 1587.78   1
  -1  -1  -3 79516.7 1082.22   2
   2   1   3 48238.0 1229.80   2
  -2  -1  -3 47813.5 1245.26   2
  -2   1  -3 49197.8 1632.23   1
  -2  -1  -3 48136.5 1538.72   1
  -3   1  -3 48221.0 1813.89   1
  -3  -1  -3 49378.0 1806.13   1
  -3  -1  -3 47843.3 1536.23   2
   3   1   3 47903.9 1528.16   2
  -3   1  -3 47501.9 1765.68   2
  -4   1  -3 161.470 146.795   2
  -4  -1  -3 32.7653 72.3930   2
  -4  -1  -3 115.912 163.886   1
   4   1   3 92.3983 81.6061   2
   4  -1   3 31.0117 92.9907   1
  -4   1  -3 23.9578 62.8375   1
  -5  -1  -3 8214.99 840.153   2
   5   1   3 5792.52 707.270   2
  -5   1  -3 7968.85 911.650   2
  -6   1  -3 8880.00 1060.53   2
  -6  -1  -3 8852.78 976.556   2
  -7  -1  -3 30.7040 96.5829   2
  -7   1  -3 313.329 230.437   2
  -8   1  -3 3214.05 785.290   2
  -8  -1  -3 3443.62 756.851   2
  -9  -1  -3 772.437 376.569   2
  -9   1  -3 485.574 315.733   2
  -9  -2   3 287.058 251.770   2
  -9   2   3-36.8983 213.562   2
  -8   2   3-40.8176 212.091   2
  -8  -2   3 638.716 331.074   2
  -7   2   3 298.114 197.560   2
  -7  -2   3 70.4801 161.839   2
  -6   2   3 44.9475 98.4265   2
  -6  -2   3 323.032 261.175   2
  -6   2   3 30.6417 116.744   1
  -5   2   3 949.484 245.107   1
  -5   2   3 1108.50 344.898   2
  -5  -2   3 1202.22 333.708   2
   4   2  -3 854.579 276.027   2
  -4   2   3 547.102 167.878   1
   3   2  -3 2054.37 382.300   2
  -3   2   3 1993.12 336.741   2
  -3   2   3 1888.51 231.554   1
  -2   2   3 1740.83 128.667   1
   2   2  -3 1682.36 310.399   2
  -2   2   3 1633.56 246.585   2
  -1   2   3 11610.7 526.602   2
   0   2  -3 58020.1 1700.31   1
   0  -2  -3 57261.8 994.697   1
   1   2   3 18047.2 585.999   2
  -1   2  -3 18332.4 975.622   1
  -2   2  -3 40022.2 1568.65   1
  -2  -2  -3 37256.2 1106.13   2
   2   2   3 36393.4 1115.75   2
   2  -2   3 38364.9 1567.57   1
   3  -2   3 375.847 160.289   1
   3   2   3 308.211 119.942   2
  -3   2  -3 400.877 157.752   1
  -3  -2  -3 291.851 118.365   2
   4   2   3 405.629 167.065   2
  -4  -2  -3 1010.76 311.754   1
  -4  -2  -3 643.545 182.895   2
  -4   2  -3 394.739 190.666   1
   4  -2   3 563.731 236.599   1
  -4   2  -3 797.988 258.938   2
   5   2   3 2396.19 466.472   2
  -5   2  -3 3511.13 627.450   2
   5  -2   3 2804.06 540.740   1
  -5  -2  -3 2535.43 466.759   2
  -6   2  -3 1305.62 430.297   2
  -6  -2  -3 1810.95 435.222   2
  -7  -2  -3 3440.86 680.667   2
  -7   2  -3 2574.99 663.501   2
  -8   2  -3 691.207 368.893   2
  -8  -2  -3 1685.91 508.496   2
  -9  -2  -3 150.212 192.712   2
  -9  -3   3 188.630 346.262   2
  -9   3   3 215.583 226.505   2
  -8   3   3 406.391 312.142   2
  -8  -3   3 586.079 337.084   2
  -7   3   3 846.583 369.161   2
  -7  -3   3 1174.31 423.125   2
  -6   3   3 233.056 241.464   2
  -6   3   3 134.043 132.379   1
  -5   3   3 865.199 300.201   2
  -5   3   3 497.274 182.963   1
  -4   3   3 112.564 85.2245   2
  -4   3   3 26.1635 47.8222   1
   4   3  -3 36.1536 75.9636   2
  -3   3   3 8313.45 442.445   1
   3   3  -3 10952.3 949.942   2
  -2   3   3 618.114 165.778   2
  -1  -3   3 17986.6 1073.72   1
   0   3  -3 174.307 133.633   1
   0  -3   3-8.38671 85.9631   1
   1  -3   3 78.0598 88.7973   1
   1   3   3 105.665 61.4006   2
  -1   3  -3 16.5390 57.2323   1
   2  -3   3 5723.44 652.388   1
  -2   3  -3 5183.76 607.086   1
   2   3   3 4070.60 414.658   2
   3  -3   3 3346.98 536.783   1
   3   3   3 3363.53 435.207   2
  -3   3  -3 2859.36 487.861   1
   4  -3   3 7100.53 821.230   1
  -4  -3  -3 6432.87 685.038   2
   4   3   3 4633.61 585.097   2
   5  -3   3 2740.11 567.424   1
  -5   3  -3 3199.24 647.099   2
   5   3   3 3293.23 577.845   2
  -5  -3  -3 2558.47 509.699   2
  -6   3  -3 1544.86 484.590   2
  -6  -3  -3 1968.00 513.508   2
  -7   3  -3 214.522 305.089   2
  -7  -3  -3 120.565 153.572   2
  -8  -3  -3 906.793 380.826   2
  -8   3  -3 568.903 346.050   2
  -9  -3  -3 409.296 292.036   2
  -8   4   3 231.417 259.634   2
  -7   4   3-212.344 213.928   2
  -6   4   3 3062.03 640.148   2
  -5   4   3 134.071 91.4620   1
  -5   4   3 370.572 217.907   2
  -4   4   3 8942.24 926.861   2
  -4   4   3 6187.36 480.204   1
  -3   4   3 4925.89 638.236   2
  -2  -4   3 8349.33 864.856   1
   2  -4  -3 6856.84 340.604   1
   1  -4  -3 603.108 114.115   1
  -1  -4   3 588.334 217.111   1
   0  -4   3 152.447 125.317   1
   0  -4  -3 249.794 95.1673   1
  -1   4  -3 6965.61 754.460   1
   1   4   3 7093.42 583.239   2
   1  -4   3 9040.68 862.066   1
   2   4   3 9311.91 714.938   2
  -2   4  -3 9237.86 882.873   1
  -3   4  -3 23570.9 1465.44   1
   3  -4   3 22370.4 1500.89   1
   4  -4   3 8119.60 932.392   1
   4   4   3 6139.38 719.423   2
   5  -4   3 4984.68 757.699   1
  -5   4  -3 5927.00 924.248   2
  -6   4  -3 477.454 297.461   2
   6  -4   3 391.172 236.729   1
  -7   4  -3-105.334 166.718   2
  -8   5   3 34.2346 143.452   2
  -7   5   3-202.404 200.461   2
  -6   5   3 40.3630 153.494   2
  -5   5   3 303.204 164.024   2
  -4   5   3 677.676 277.107   2
  -3  -5   3-55.8530 111.482   1
  -3   5   3 173.966 174.971   2
  -2  -5   3 1982.22 462.177   1
   2  -5  -3 1088.14 161.238   1
   1  -5  -3 91.6991 59.9396   1
  -1  -5   3 22.0179 109.119   1
   0  -5   3 1049.91 336.376   1
   0  -5  -3 1242.04 223.702   1
   1  -5   3-72.4368 114.648   1
   1   5   3-72.6671 67.7698   2
   2   5   3 267.274 140.803   2
   2  -5   3 334.952 222.399   1
   3   5   3 427.561 190.017   2
   3  -5   3 302.537 214.494   1
   4  -5   3-259.408 189.746   1
   5  -5   3-92.8719 137.698   1
   6  -5   3-18.1099 93.2912   1
  -6   5  -3-50.4784 143.840   2
  -7   6   3 232.788 247.226   2
  -6   6   3-342.211 246.281   2
  -5   6   3 18.9627 84.0658   2
  -4   6   3-217.793 181.960   2
  -4  -6   3 121.409 131.813   1
  -3  -6   3 6694.27 950.432   1
  -2  -6   3 799.874 330.925   1
  -1  -6   3 16073.3 1364.67   1
   1  -6  -3 15331.7 798.797   1
   0  -6  -3 3804.48 459.536   1
   0  -6   3 4045.43 678.393   1
  -1  -6  -3 6230.57 654.428   1
   1  -6   3 6595.21 867.762   1
   2  -6   3 1049.43 365.979   1
   3  -6   3 213.603 177.456   1
   4  -6   3-83.8021 131.756   1
   5  -6   3 35.7092 96.3522   1
   6  -6   3 203.974 191.403   1
  -5  -7   3 214.110 228.648   1
  -5   7   3 23.8524 129.762   2
  -4  -7   3 337.764 246.678   1
  -4   7   3-16.2058 91.4100   2
  -3  -7   3-295.702 224.303   1
  -2  -7   3 491.246 261.211   1
  -1  -7   3 311.098 216.958   1
   0  -7   3 392.613 238.030   1
   1  -7   3 565.273 285.035   1
   2  -7   3 127.878 155.100   1
   3  -7   3 7.99587 76.9164   1
   4  -7   3-40.6550 116.347   1
  -3  -8   3 877.090 392.827   1
  -2  -8   3 987.090 399.441   1
  -1  -8   3-12.0334 96.6600   1
  -9   0   4 105.663 165.882   2
  -8   0   4 511.544 289.172   2
  -7   0   4 95.0190 215.237   2
  -6   0   4 3871.58 652.703   2
  -5   0   4-191.619 146.762   2
   5   0  -4 17.0849 74.3943   2
   4   0  -4 23670.4 1305.20   2
  -3   0   4 11.8926 64.8799   2
   3   0  -4-7.27237 69.2104   2
  -2   0   4 42720.5 1292.94   2
   2   0  -4 41605.2 1271.10   2
   1   0  -4-10.0224 37.9325   2
  -1   0   4-3.58835 56.6387   1
   1   0  -4 20.3036 58.5468   1
   0   0  -4 7457.01 508.222   1
  -1   0  -4 57.5600 43.3914   1
  -2   0  -4 58556.9 1585.62   2
  -2   0  -4 57654.2 1822.67   1
  -3   0  -4-16.9164 70.0717   2
  -3   0  -4 30.8149 70.5355   1
  -4   0  -4 57453.5 2266.69   1
  -4   0  -4 56184.9 2083.01   2
  -5   0  -4 27.2647 117.493   2
  -6   0  -4 6251.77 862.080   2
  -7   0  -4-662.509 312.504   2
  -8   0  -4 354.937 259.448   2
  -9   0  -4-290.227 253.838   2
  -9   1   4-303.393 244.784   2
  -9  -1   4 71.4292 160.479   2
  -8  -1   4 35.7858 141.868   2
  -8   1   4 62.1306 140.547   2
  -7   1   4 337.294 228.696   2
  -7  -1   4 597.574 312.906   2
  -6   1   4 711.927 276.991   2
  -6  -1   4 790.186 303.284   2
  -5   1   4 203.578 201.982   2
   5   1  -4-72.5814 100.723   2
   5  -1  -4-33.5704 79.2539   2
  -5  -1   4 86.4337 109.360   2
   4   1  -4 3537.34 525.497   2
   4  -1  -4 3238.57 471.826   2
   3   1  -4 181.143 90.1133   2
  -3   1   4 263.967 130.774   2
   3  -1  -4 279.165 138.678   2
   2  -1  -4 4326.62 386.805   2
   2   1  -4 4064.43 453.892   2
  -2   1   4 4175.88 372.410   2
   1  -1  -4 9131.27 408.519   1
  -1   1   4 9039.37 421.044   1
  -1   1   4 9090.32 397.602   2
   1  -1  -4 9626.79 412.776   2
   0  -1  -4 2192.22 239.198   1
   0   1   4 2057.06 235.372   1
   0   1  -4 2328.58 320.771   1
  -1  -1  -4 700.014 108.461   2
  -1   1  -4 464.795 160.770   1
   1   1   4 637.777 167.313   1
  -1  -1  -4 749.766 180.092   1
  -2   1  -4 3290.50 463.749   1
  -2  -1  -4 3297.42 334.202   2
  -2  -1  -4 3459.26 437.823   1
  -3  -1  -4 8804.50 798.241   1
  -3   1  -4 8413.65 799.096   1
  -3  -1  -4 8912.33 677.250   2
   4  -1   4 644.035 245.087   1
  -4  -1  -4 875.480 251.241   2
  -4  -1  -4 1077.82 305.812   1
  -4   1  -4 1036.01 297.427   2
  -4   1  -4 874.481 256.928   1
  -5  -1  -4 1246.01 341.582   2
  -5   1  -4 1570.97 409.443   2
  -6   1  -4 417.056 274.042   2
  -6  -1  -4 59.7977 139.752   2
  -7  -1  -4-20.1788 205.120   2
  -7   1  -4 125.144 121.194   2
  -8  -1  -4 325.792 240.703   2
  -8   1  -4 20.3041 124.023   2
  -9  -1  -4-151.999 186.630   2
  -9   2   4-216.517 223.837   2
  -9  -2   4-80.9501 152.400   2
  -8   2   4 21.6675 135.174   2
  -8  -2   4 53.2232 139.293   2
  -7   2   4-59.5217 230.209   2
  -7  -2   4 163.603 165.381   2
  -6   2   4-143.702 110.509   1
  -6   2   4 17.3912 152.275   2
  -6  -2   4-147.279 149.023   2
  -5   2   4 488.021 247.094   2
  -5  -2   4 421.250 254.670   2
  -4   2   4 871.362 196.280   1
   4   2  -4 1295.72 330.147   2
  -3   2   4 140.435 53.6849   1
  -3   2   4 180.450 106.080   2
   3   2  -4 181.353 113.071   2
   2   2  -4 30250.9 1431.30   2
  -2   2   4 31921.6 1085.55   2
  -1   2   4 4139.20 285.085   2
   0   2  -4 115538. 2574.64   1
   0  -2  -4 113410. 1573.90   1
  -1  -2  -4 4162.11 402.858   1
   1   2   4 4138.56 229.093   2
  -1   2  -4 4247.33 515.483   1
  -2  -2  -4 35794.3 1435.74   1
  -2  -2  -4 36318.8 1022.83   2
   2   2   4 36498.2 1053.38   2
  -2   2  -4 38280.5 1647.22   1
  -3  -2  -4 26.8398 84.8541   1
  -3   2  -4 136.657 149.645   1
   3  -2   4 114.383 149.105   1
   3   2   4 121.379 89.0669   2
  -3  -2  -4-29.5943 82.4332   2
   4  -2   4 98.6208 92.2837   1
  -4  -2  -4 357.494 217.662   1
   4   2   4 244.448 145.762   2
  -4  -2  -4 570.272 210.701   2
  -4   2  -4 351.132 206.962   2
  -5  -2  -4 3900.68 593.272   2
   5  -2   4 4435.14 696.501   1
  -5   2  -4 4602.79 720.351   2
   5   2   4 3281.39 537.695   2
  -6  -2  -4 567.725 245.900   2
  -6   2  -4 913.351 335.639   2
  -7  -2  -4 2897.91 613.032   2
  -7   2  -4 4344.85 844.496   2
  -8  -2  -4-52.9526 140.588   2
  -8   2  -4 71.1983 266.442   2
  -9  -2  -4 762.654 380.395   2
  -9   3   4 361.318 273.961   2
  -8   3   4-395.617 272.283   2
  -8  -3   4-102.074 178.178   2
  -7   3   4 247.174 161.704   2
  -6   3   4-9.12126 136.369   2
  -6   3   4 145.669 134.557   1
  -5   3   4-100.624 179.268   2
  -5   3   4 36.4890 41.8183   1
  -4   3   4 791.242 265.328   2
  -4   3   4 320.228 96.3174   1
  -3   3   4 821.312 228.112   2
   3   3  -4 2259.36 454.658   2
  -2   3   4 12805.1 765.346   2
  -2  -3   4 13677.4 1037.27   1
  -1  -3   4 13619.0 992.016   1
  -1   3   4 13822.1 658.721   2
   0  -3   4 22588.8 1270.78   1
   0  -3  -4 19738.5 681.560   1
   0   3  -4 22813.6 1274.13   1
  -1  -3  -4 4689.52 449.080   1
   1   3   4 4249.54 319.148   2
   1  -3   4 4566.41 578.473   1
  -1   3  -4 4563.12 572.420   1
   2   3   4 216.794 94.4147   2
  -2  -3  -4 227.292 130.239   1
   2  -3   4 358.398 211.542   1
  -2   3  -4 199.979 131.180   1
  -3  -3  -4 771.507 263.094   1
   3   3   4 304.987 129.134   2
   3  -3   4 623.399 254.906   1
  -3   3  -4 500.908 225.045   1
   4   3   4 2400.72 418.138   2
  -4  -3  -4 2633.04 434.535   2
   4  -3   4 3406.29 617.791   1
   5  -3   4 2656.84 571.593   1
   5   3   4 2468.49 474.198   2
  -5   3  -4 1781.17 485.840   2
  -5  -3  -4 2380.51 480.108   2
  -6   3  -4 1840.45 526.585   2
  -6  -3  -4 1631.73 435.876   2
  -7   3  -4-90.7570 183.212   2
  -7  -3  -4 262.632 198.490   2
  -8  -3  -4 402.659 260.410   2
  -8   4   4-427.500 282.529   2
  -7   4   4-10.7501 121.572   2
  -6   4   4 917.495 347.100   2
  -5   4   4 988.553 334.500   2
  -5   4   4 755.559 175.567   1
  -4   4   4 1767.38 399.656   2
  -4   4   4 1035.60 150.200   1
  -3  -4   4 3883.48 640.460   1
  -2  -4   4 335.454 183.919   1
  -2   4   4 239.237 101.601   2
  -1  -4   4 387.820 199.949   1
   0  -4   4 272.725 194.884   1
  -1   4  -4 2505.32 483.396   1
   1   4   4 2460.78 316.782   2
   1  -4   4 3586.92 566.298   1
   2  -4   4 215.943 131.603   1
   2   4   4 257.724 121.694   2
   3  -4   4 5930.27 816.882   1
   3   4   4 4404.49 525.069   2
   4   4   4 444.713 224.440   2
   4  -4   4-411.945 235.350   1
   5  -4   4 1831.83 521.166   1
   6  -4   4 25.3969 156.062   1
  -6   4  -4 86.2259 155.510   2
  -7   4  -4-113.078 243.418   2
  -8   5   4 498.456 294.624   2
  -7   5   4-106.476 159.383   2
  -6   5   4 253.322 209.593   2
  -5   5   4 5214.88 818.218   2
  -4  -5   4 199.362 155.545   1
  -4   5   4 64.2874 131.372   2
  -3  -5   4 4376.39 734.999   1
  -3   5   4 4211.44 617.976   2
  -2  -5   4 11.1586 107.562   1
   1  -5  -4 542.139 85.8075   1
  -1  -5   4 943.894 327.744   1
   0  -5  -4 2721.37 317.713   1
   0  -5   4 2797.03 555.666   1
   1   5   4 5564.05 561.651   2
   1  -5   4 8509.90 946.927   1
   2  -5   4 4547.31 712.731   1
   2   5   4 3508.27 474.263   2
   3   5   4 2448.61 426.531   2
   3  -5   4 2216.62 522.681   1
   4  -5   4 497.078 226.450   1
   5  -5   4 97.4660 149.528   1
   6  -5   4 290.502 229.355   1
  -6   5  -4-772.480 393.980   2
  -7   6   4-99.8537 165.775   2
  -6   6   4 343.295 243.057   2
  -5   6   4-226.303 187.607   2
  -5  -6   4-29.0670 110.948   1
  -4   6   4 123.395 115.166   2
  -4  -6   4 547.785 322.712   1
  -3   6   4-120.415 125.221   2
  -3  -6   4 403.112 237.511   1
  -2  -6   4 479.168 261.575   1
  -1  -6   4-160.361 236.334   1
   0  -6   4 140.818 143.383   1
   0  -6  -4 147.725 63.1056   1
  -1  -6  -4-220.738 125.376   1
   1  -6   4 72.4723 106.655   1
   2  -6   4-99.2370 141.996   1
   3  -6   4 106.420 148.741   1
   4  -6   4-402.885 254.532   1
   5  -6   4-217.642 200.449   1
   6  -6   4-249.123 217.655   1
  -5   7   4 665.429 374.226   2
  -4  -7   4 459.071 289.880   1
  -4   7   4-526.854 281.133   2
  -3  -7   4 675.041 338.824   1
  -3   7   4 960.339 320.653   2
  -2  -7   4 1694.23 501.960   1
  -1  -7   4 92.3449 252.774   1
   0  -7   4 962.290 347.370   1
   1  -7   4 439.139 262.357   1
   2  -7   4 595.287 303.476   1
   3  -7   4 368.045 254.110   1
   4  -7   4-274.431 220.457   1
  -2  -8   4 484.722 301.277   1
  -1  -8   4-651.264 332.375   1
   0  -8   4 86.9138 139.399   1
  -9   0   5 614.243 323.762   2
  -8   0   5-16.7409 227.641   2
  -7   0   5 59.1576 146.283   2
  -6   0   5-216.892 196.465   2
  -5   0   5 1215.48 352.953   2
   5   0  -5 980.563 297.475   2
   4   0  -5-16.1762 102.730   2
  -3   0   5 26465.8 1232.73   2
   3   0  -5 26259.1 1235.46   2
  -2   0   5 35.4077 66.8041   1
   2   0  -5-28.1607 67.6072   2
   1   0  -5 89238.3 1878.01   1
  -1   0   5 89150.7 1925.31   1
   1   0  -5 90498.8 1751.75   2
   0   0   5 38.8674 61.0430   1
   0   0  -5-3.53185 61.0805   1
  -1   0  -5 17338.4 961.775   1
  -2   0  -5 6.27489 66.0516   1
  -3   0  -5 592.292 210.873   2
  -3   0  -5 755.521 247.041   1
  -4   0  -5 147.556 167.565   2
  -5   0  -5 120.097 84.8107   2
  -6   0  -5-98.7812 223.437   2
  -7   0  -5-402.832 255.568   2
  -8   0  -5-347.283 254.993   2
  -9   0  -5-531.315 335.412   2
  -9   1   5 80.4036 156.041   2
  -9  -1   5 260.105 252.676   2
  -8  -1   5 1832.47 561.313   2
  -8   1   5 2056.42 579.703   2
  -7   1   5-85.6553 164.598   2
  -7  -1   5 51.0931 185.769   2
  -6  -1   5 7044.52 892.848   2
  -6   1   5 7981.22 930.138   2
  -5  -1   5 3629.58 611.399   2
  -5   1   5 3972.39 589.847   2
   5  -1  -5 4220.57 605.580   2
   4   1  -5 5032.88 642.955   2
   4  -1  -5 4483.67 570.115   2
   3   1  -5 45257.9 1746.67   2
  -3   1   5 45701.0 1538.50   2
   3  -1  -5 45563.2 1559.17   2
   2   1  -5 27650.0 1253.80   2
   2  -1  -5 27011.6 989.347   2
  -2   1   5 25798.8 950.490   2
  -2   1   5 26218.9 858.269   1
   1  -1  -5 99274.2 1648.86   1
   1   1  -5 102140. 2303.87   1
   1  -1  -5 100855. 1415.04   2
  -1   1   5 101569. 1688.42   1
   0   1   5 53531.0 1384.68   1
   0  -1  -5 51073.1 1327.05   1
   0  -1  -5 49905.7 733.783   2
   0   1  -5 50679.0 1644.25   1
   1   1   5 56871.5 1646.93   1
  -1  -1  -5 56868.4 1647.85   1
  -1  -1  -5 57101.2 1053.95   2
  -1   1  -5 58160.4 1899.80   1
  -2   1  -5 578.043 203.960   1
  -2  -1  -5 461.551 137.165   2
  -2  -1  -5 724.235 220.212   1
  -3  -1  -5 12536.0 1001.05   1
  -3   1  -5 13477.7 1079.73   1
  -3  -1  -5 13179.5 848.312   2
  -4  -1  -5 375.488 164.412   2
   4  -1   5 369.811 199.234   1
  -4   1  -5 210.865 138.100   2
  -5  -1  -5 1709.19 400.327   2
  -5   1  -5 1719.04 440.844   2
  -6  -1  -5 844.439 318.505   2
  -6   1  -5 250.226 258.589   2
  -7  -1  -5 51.3345 128.746   2
  -7   1  -5-43.1153 213.531   2
  -8  -1  -5 469.716 300.464   2
  -8   1  -5 170.744 210.105   2
  -9  -1  -5-815.405 391.837   2
  -9   2   5-283.139 238.253   2
  -9  -2   5 740.813 384.778   2
  -8   2   5 753.090 411.223   2
  -8  -2   5 388.006 276.844   2
  -7   2   5 1178.90 398.491   2
  -7  -2   5 1824.03 522.860   2
  -7   2   5 1331.40 367.564   1
  -6  -2   5 1464.97 430.893   2
  -6   2   5 991.614 264.253   1
  -6   2   5 1212.49 386.453   2
  -5   2   5 3184.08 536.354   2
   5  -2  -5 3347.92 540.632   2
   4   2  -5 2659.64 492.460   2
   4  -2  -5 1931.99 365.742   2
   3   2  -5 2252.73 428.003   2
   3  -2  -5 2063.97 331.175   2
  -3   2   5 1884.96 306.375   2
  -2   2   5 4174.19 382.102   2
   2   2  -5 4925.03 608.887   2
   1  -2  -5 416.448 72.7366   1
  -1   2   5 365.386 72.4168   2
   0   2  -5 7547.18 705.356   1
   0  -2  -5 7770.74 467.095   1
  -1   2  -5 4809.58 586.496   1
  -1  -2  -5 4797.85 473.336   1
  -2  -2  -5 1441.88 308.553   1
  -2   2  -5 1136.32 282.848   1
  -2  -2  -5 1028.09 164.623   2
  -3  -2  -5 1907.19 295.898   2
  -3   2  -5 1854.10 400.724   1
  -3  -2  -5 2011.47 420.092   1
   3  -2   5 1779.16 412.783   1
  -4  -2  -5 142.022 76.9465   2
   4  -2   5 277.308 214.921   1
  -5  -2  -5 60.2024 74.6906   2
   5  -2   5 129.847 152.068   1
  -5   2  -5-173.610 258.374   2
  -6  -2  -5-4.36173 80.0461   2
  -6   2  -5-41.5886 128.220   2
  -7  -2  -5-54.4089 114.680   2
  -7   2  -5 328.021 279.179   2
  -8   2  -5-131.991 185.602   2
  -8  -2  -5-677.068 326.773   2
  -9  -2  -5-557.992 323.144   2
  -9   3   5 346.831 274.074   2
  -8   3   5-124.234 169.478   2
  -7   3   5-111.404 151.272   2
  -6   3   5 829.803 331.427   2
  -6   3   5 978.568 251.317   1
  -5   3   5 1954.33 440.370   2
  -5   3   5 1605.97 263.875   1
  -4   3   5 6341.36 380.133   1
  -3  -3   5 2704.90 511.948   1
  -3   3   5 2739.41 410.799   2
   3   3  -5 3026.60 547.529   2
  -2  -3   5 19099.7 1274.80   1
  -2   3   5 18547.6 874.520   2
  -1   3   5 1111.37 164.794   2
   0   3  -5 1218.54 313.193   1
   0  -3   5 1287.10 329.992   1
   0  -3  -5 1289.37 183.057   1
  -1  -3  -5 12691.4 761.141   1
  -1   3  -5 12878.2 1035.78   1
   1  -3   5 12014.6 1022.12   1
   2  -3   5 9295.68 927.627   1
  -2  -3  -5 8582.35 757.474   1
   2   3   5 7099.26 457.357   2
  -2   3  -5 9879.41 941.571   1
  -3  -3  -5 5354.66 691.564   1
   3  -3   5 5024.13 733.885   1
   3   3   5 3953.98 438.333   2
   4  -3   5 7463.21 940.834   1
  -4  -3  -5 6977.31 677.477   2
   4   3   5 5407.20 601.629   2
   5  -3   5 226.225 222.858   1
   5   3   5 506.365 205.724   2
  -5   3  -5 320.087 195.565   2
  -5  -3  -5 613.540 233.539   2
  -6   3  -5 879.877 348.137   2
   6  -3   5 1114.07 396.857   1
  -6  -3  -5 1124.71 347.936   2
  -7   3  -5-129.100 184.338   2
  -7  -3  -5 29.0568 118.612   2
  -8  -3  -5 325.472 229.534   2
  -8   4   5 183.629 193.457   2
  -7   4   5-62.5344 119.352   2
  -6   4   5 239.301 261.050   2
  -5   4   5-39.6987 86.8279   2
  -4   4   5 252.626 151.977   2
  -3  -4   5 4945.10 758.985   1
  -2   4   5-26.0401 69.0765   2
  -2  -4   5 31.4328 150.594   1
  -1   4   5 5649.34 468.669   2
  -1  -4   5 6325.85 789.745   1
   0  -4  -5 226.038 79.9440   1
   0  -4   5 332.864 205.199   1
   0   4   5 205.286 81.8573   2
   1   4   5-12.1178 35.7738   2
   1  -4   5 195.588 209.888   1
  -1  -4  -5 109.862 84.3212   1
  -2  -4  -5 119.869 91.6486   1
   2   4   5 65.2583 45.2513   2
  -3  -4  -5 2210.00 444.068   1
   3   4   5 1995.68 333.768   2
   3  -4   5 2475.10 570.551   1
   4   4   5-38.5000 141.081   2
   4  -4   5-128.632 151.156   1
   5  -4   5 103.914 156.272   1
   6  -4   5 269.699 226.769   1
  -6   4  -5 270.535 236.200   2
  -8   5   5 417.138 296.474   2
  -7   5   5 72.2622 143.067   2
  -6   5   5-187.083 170.353   2
  -5   5   5 1031.17 364.168   2
  -5  -5   5 723.139 307.107   1
  -4   5   5 226.300 159.945   2
  -4  -5   5 123.281 239.939   1
  -3  -5   5 64.2355 157.463   1
  -3   5   5 101.799 102.891   2
  -2  -5   5 1109.02 362.702   1
  -1  -5   5 2409.39 531.440   1
   0  -5  -5 1819.91 224.295   1
   0  -5   5 2092.47 514.989   1
   0  -5  -5 1846.20 232.763   1
   0   5   5 1345.44 255.377   2
   1   5   5 2344.94 326.567   2
  -1  -5  -5 3110.74 410.744   1
  -2  -5  -5 253.867 128.605   1
   2  -5   5 231.594 192.208   1
   3  -5   5 775.516 327.531   1
   4  -5   5 133.619 205.137   1
   5  -5   5-235.031 213.749   1
   6  -5   5 397.990 273.004   1
  -7   6   5 1121.84 448.666   2
  -6   6   5-437.254 264.335   2
  -5  -6   5-70.8670 140.504   1
  -5   6   5-62.9241 115.018   2
  -4  -6   5 40.0246 118.830   1
  -4   6   5-137.610 142.338   2
  -3   6   5 142.240 116.386   2
  -3  -6   5 15.9397 138.471   1
  -2   6   5-6.22063 48.6675   2
  -2  -6   5 0.93764 163.161   1
  -1  -6   5 403.970 222.014   1
   0  -6   5 1419.33 443.319   1
   1  -6   5 530.606 264.768   1
   2  -6   5 899.520 359.363   1
   3  -6   5 995.375 394.194   1
   4  -6   5-374.763 257.855   1
   5  -6   5 336.410 254.024   1
  -4  -7   5 616.677 337.132   1
  -3  -7   5-534.031 305.555   1
  -2  -7   5 181.180 198.257   1
  -1  -7   5-150.313 188.674   1
   0  -7   5 463.607 279.963   1
   1  -7   5 258.986 105.710   1
   2  -7   5-102.706 153.149   1
   3  -7   5 879.680 394.320   1
   4  -7   5-143.184 172.745   1
  -1  -8   5-376.218 270.545   1
   0  -8   5-199.590 204.184   1
  -9   0   6-28.5358 116.758   2
  -8   0   6 6928.40 1035.87   2
  -7   0   6 120.337 135.430   2
  -6   0   6 159.633 145.555   2
   5   0  -6 64.0925 77.2931   2
  -5   0   6-32.6633 130.710   2
   4   0  -6 53218.4 2011.80   2
  -4   0   6 52712.1 2003.43   2
   3   0  -6 64.5653 60.5267   2
  -3   0   6 79.7526 104.591   1
  -2   0   6 187682. 3065.03   1
   2   0  -6 191370. 3010.85   2
  -1   0   6 34.0143 59.2084   1
   1   0  -6 44.7240 84.8500   1
   1   0  -6-19.3823 102.116   2
   0   0   6 43268.1 1570.25   1
   0   0  -6 42909.2 1495.19   1
  -1   0  -6 68.4280 63.7501   1
  -2   0  -6 434.287 186.461   1
   2   0   6 298.912 165.893   1
   3   0   6-18.1117 85.9645   1
  -3   0  -6-74.1805 120.980   2
  -3   0  -6 5.56549 72.4381   1
  -4   0  -6 791.831 262.926   2
  -5   0  -6 262.243 219.932   2
  -6   0  -6 447.718 247.161   2
  -7   0  -6 1.01595 192.287   2
  -8   0  -6-89.8651 144.350   2
  -9   1   6 85.6154 169.270   2
  -9  -1   6 517.420 332.904   2
  -8   1   6 580.898 321.415   2
  -8  -1   6 316.572 263.502   2
  -7   1   6-101.028 152.737   2
  -7  -1   6 269.433 237.122   2
  -6   1   6-36.8253 97.5654   2
  -6  -1   6 441.475 278.777   2
  -5  -1   6 3602.92 607.792   2
  -5   1   6 3379.94 561.580   2
   5  -1  -6 3523.16 574.639   2
   4   1  -6 979.407 288.738   2
   4  -1  -6 998.286 268.302   2
  -3   1   6 16471.1 835.745   1
  -3   1   6 16248.9 934.519   2
   3   1  -6 14881.8 1043.94   2
   3  -1  -6 15730.1 929.671   2
   2  -1  -6 1125.70 209.016   2
  -2   1   6 1242.49 216.030   2
  -2   1   6 895.661 181.624   1
   2   1  -6 926.046 227.690   2
   1  -1  -6 10029.3 598.481   1
   1   1  -6 10085.5 779.846   1
   1  -1  -6 10646.7 498.220   2
  -1   1   6 10934.9 645.102   1
   0   1   6 2432.36 331.236   1
   0  -1  -6 2295.86 192.223   2
   0  -1  -6 2190.51 310.542   1
   0   1  -6 2244.55 374.031   1
  -1  -1  -6 78.9841 64.5154   1
   1   1   6 46.7397 66.5094   1
  -1   1  -6 254.000 141.361   1
  -1  -1  -6 37.3144 48.7897   2
  -2  -1  -6 3826.92 519.412   1
  -2  -1  -6 3663.32 380.227   2
  -2   1  -6 3922.43 553.555   1
  -3   1  -6 12.3801 64.4042   1
  -3  -1  -6-269.642 131.662   2
   3  -1   6 9.14475 97.8527   1
  -3  -1  -6-76.8256 82.0615   1
   4  -1   6 518.979 229.365   1
  -4  -1  -6 506.105 198.738   2
  -4   1  -6 676.306 278.371   2
  -5  -1  -6 122.615 166.956   2
  -5   1  -6 70.6263 127.716   2
   5  -1   6 9.70815 113.550   1
  -6  -1  -6 366.688 214.963   2
  -6   1  -6 368.874 297.388   2
  -7  -1  -6 23.6324 191.939   2
  -7   1  -6-167.006 193.526   2
  -8  -1  -6-294.663 231.849   2
  -8   1  -6-414.742 294.873   2
  -9   2   6-124.509 170.443   2
  -9  -2   6 208.889 225.066   2
  -8   2   6-84.3515 182.222   2
  -8  -2   6 155.139 277.302   2
  -7  -2   6 9750.09 1203.12   2
  -7   2   6 8492.41 1066.16   2
  -6   2   6 2422.29 535.950   2
  -5   2   6 30773.4 1685.93   2
   5  -2  -6 27587.0 1582.57   2
   4  -2  -6 7844.05 754.214   2
  -3  -2   6 14596.0 1129.71   1
   3   2  -6 15432.3 1149.66   2
  -3   2   6 14674.8 868.405   2
   3  -2  -6 14300.9 863.670   2
  -3   2   6 14852.0 580.876   1
   2   2  -6 1852.45 390.666   2
  -2   2   6 1462.10 216.943   2
  -2   2   6 1463.85 160.620   1
   1  -2  -6 1554.33 186.571   1
   1   2  -6 1764.29 358.274   1
  -1   2   6 1725.79 199.644   1
   0   2  -6 20712.5 1249.82   1
   0  -2  -6 18855.1 817.976   1
  -1  -2  -6 17580.8 950.537   1
  -1   2  -6 19065.7 1234.44   1
  -2  -2  -6 17932.5 1130.00   1
   2  -2   6 17848.9 1300.41   1
  -2   2  -6 18196.0 1287.57   1
  -2  -2  -6 16611.8 641.346   2
  -3  -2  -6 4926.90 479.960   2
   3  -2   6 4806.88 709.087   1
  -3  -2  -6 5043.51 678.321   1
  -4  -2  -6 814.990 217.062   2
   4  -2   6 887.740 318.261   1
  -5  -2  -6 305.067 204.593   2
   5  -2   6 604.525 307.034   1
  -5   2  -6 281.236 180.888   2
  -6  -2  -6 106.091 117.214   2
  -6   2  -6-149.751 221.323   2
  -7  -2  -6 424.711 253.232   2
  -7   2  -6 306.717 241.934   2
  -8  -2  -6-509.205 282.831   2
  -8   2  -6-73.0237 176.236   2
  -9   3   6-265.052 239.834   2
  -8   3   6 605.329 318.288   2
  -7   3   6-40.2940 138.578   2
  -6   3   6 4069.99 680.241   2
  -5   3   6 173.227 84.6721   2
  -5   3   6 274.898 102.759   1
  -4   3   6 5361.02 253.968   1
  -4   3   6 5416.02 246.335   1
  -3   3   6 1315.73 271.348   2
  -3  -3   6 1490.46 404.786   1
  -2  -3   6 6716.32 790.856   1
  -2   3   6 6962.85 495.311   2
  -1  -3   6 462.578 212.397   1
   0  -3  -6 46.1111 55.8865   1
   0   3  -6-38.4134 71.1161   1
  -1  -3  -6 3929.67 445.433   1
   1  -3   6 4678.81 673.268   1
  -2  -3  -6 2109.35 395.907   1
   2  -3   6 2362.71 515.329   1
  -3  -3  -6 1112.86 328.420   1
   3  -3   6 1578.74 443.395   1
   4  -3   6 512.551 308.730   1
  -4  -3  -6 227.340 119.197   2
   5  -3   6 171.869 96.8769   1
  -5   3  -6 504.065 300.158   2
  -5  -3  -6 315.923 158.667   2
   6  -3   6-142.472 176.092   1
  -6   3  -6-213.476 207.122   2
  -6  -3  -6 152.146 153.484   2
  -7   3  -6 617.689 346.432   2
  -7  -3  -6 18.3689 93.4443   2
  -8   4   6 204.518 190.958   2
  -7   4   6-276.768 210.852   2
  -6   4   6 175.371 192.012   2
  -5   4   6 50.9186 97.7081   2
  -4   4   6 1201.03 319.104   2
  -4  -4   6 1470.90 439.009   1
  -3   4   6 351.350 162.529   2
  -3  -4   6 5396.51 805.799   1
  -2   4   6 7711.82 592.729   2
  -2  -4   6 10231.9 1066.87   1
  -1   4   6 9179.18 495.295   2
  -1  -4   6 12412.9 1160.07   1
   0  -4  -6 9573.70 484.915   1
   0  -4   6 10880.9 1085.95   1
  -1  -4  -6 3422.49 416.146   1
   1  -4   6 3409.82 617.649   1
  -2  -4  -6 1199.77 294.895   1
   2   4   6 852.290 141.422   2
   2  -4   6 1330.04 392.760   1
  -3  -4  -6 144.776 127.976   1
   3   4   6 123.523 56.7192   2
   3  -4   6-56.6382 152.424   1
   4  -4   6-51.1813 191.417   1
   5  -4   6 608.654 330.718   1
   6  -4   6 404.379 287.611   1
  -6   4  -6-5.05059 275.450   2
  -8   5   6-793.732 385.420   2
  -7   5   6-286.853 217.526   2
  -6   5   6-79.1898 120.097   2
  -6  -5   6 105.812 158.924   1
  -5   5   6 486.274 275.254   2
  -5  -5   6 520.617 340.539   1
  -4   5   6 8.41752 115.015   2
  -4  -5   6-64.9195 221.027   1
  -3  -5   6-33.1298 101.867   1
  -2  -5   6 2238.58 552.305   1
  -2   5   6 426.301 158.549   2
  -1   5   6 5909.31 497.089   2
  -1  -5   6 5261.79 811.937   1
   0   5   6 4615.97 369.482   2
   0   5   6 4952.26 384.951   2
   0  -5  -6 4521.06 287.513   1
   0  -5   6 5622.76 822.864   1
   0  -5  -6 4485.09 282.544   1
   1  -5   6 5725.32 875.504   1
   2  -5   6 1854.26 526.834   1
   3  -5   6-174.841 189.136   1
   4  -5   6 487.972 293.333   1
   5  -5   6 791.688 369.977   1
   6  -5   6 268.403 237.798   1
  -6   6   6 573.041 305.471   2
  -5   6   6 601.559 276.687   2
  -5  -6   6-236.197 236.754   1
  -4   6   6 211.194 94.0621   2
  -4  -6   6 89.3677 145.350   1
  -3  -6   6 361.390 247.414   1
  -2  -6   6-414.676 263.840   1
  -1  -6   6-255.877 213.860   1
   0  -6   6-184.956 190.272   1
   1  -6   6 314.680 248.975   1
   2  -6   6 1149.65 411.535   1
   3  -6   6 423.546 280.533   1
   4  -6   6 1407.98 502.178   1
   5  -6   6-244.844 224.954   1
  -3  -7   6-572.380 325.923   1
  -2  -7   6-301.633 238.747   1
  -1  -7   6 270.684 221.619   1
   0  -7   6-59.5916 143.640   1
   1  -7   6 168.887 188.363   1
   2  -7   6 1458.80 548.965   1
   3  -7   6 438.789 295.623   1
  -9   0   7 98.4996 170.857   2
  -8   0   7-44.6104 128.518   2
  -7   0   7 647.636 350.054   2
  -6   0   7-69.6220 106.115   2
  -5   0   7 861.480 281.715   2
   4   0  -7-29.6289 85.4075   2
  -4   0   7 30.4823 86.7319   2
   3   0  -7 76.8009 94.7490   2
   2   0  -7 51.5633 86.8100   2
  -2   0   7-22.8946 108.899   1
  -1   0   7 513.990 192.753   1
   1   0  -7 1275.46 265.737   1
   1   0  -7 1103.20 218.127   2
   0   0  -7 36.9521 75.2431   1
  -1   0  -7 4411.36 560.502   1
  -2   0  -7 195.348 119.218   1
   2   0   7 11.6931 95.7465   1
   3   0   7 2587.07 498.156   1
  -3   0  -7 2488.21 423.253   2
  -4   0  -7-12.0492 77.1478   2
   4   0   7-197.468 236.782   1
  -5   0  -7-33.1987 175.633   2
  -6   0  -7 43.6269 113.603   2
  -7   0  -7 42.9036 122.912   2
  -8   0  -7-138.715 185.279   2
  -9   1   7 1954.13 594.124   2
  -9  -1   7 2262.26 705.744   2
  -8   1   7 764.542 367.328   2
  -8  -1   7 848.102 439.579   2
  -7   1   7 5262.03 848.736   2
  -7  -1   7 6461.75 974.133   2
  -6   1   7 12859.5 1210.68   2
  -6  -1   7 12781.8 1262.79   2
  -5   1   7 1364.38 364.420   2
   5  -1  -7 726.055 210.611   2
  -4  -1   7 14101.3 1131.66   1
   4   1  -7 13106.1 1083.69   2
   4  -1  -7 13154.7 997.695   2
  -3  -1   7 2633.41 467.873   1
  -3   1   7 2491.88 382.890   2
   3   1  -7 2912.39 484.065   2
   3  -1  -7 2750.57 404.468   2
  -3   1   7 2491.38 348.102   1
   2  -1  -7 425.972 148.153   2
  -2   1   7 518.222 150.261   1
   2   1  -7 289.714 148.045   2
   1  -1  -7 5832.82 506.568   1
   1   1  -7 6032.63 645.618   1
   1  -1  -7 6868.47 428.360   2
  -1   1   7 6581.60 555.554   1
   0   1   7 6771.75 624.260   1
   0  -1  -7 6486.89 367.683   2
   0  -1   7 6330.25 695.055   1
   0  -1  -7 6360.92 578.397   1
   0   1  -7 6292.32 673.267   1
  -1  -1  -7 819.503 240.323   1
  -1  -1  -7 567.173 124.975   2
   1  -1   7 534.692 243.349   1
  -1   1  -7 827.209 265.283   1
   2   1   7-80.4692 159.346   1
  -2  -1  -7-43.4377 56.7024   2
  -2   1  -7-92.7528 100.152   1
   2  -1   7-5.15811 144.589   1
  -2  -1  -7-141.034 116.992   1
  -3  -1  -7 176.770 117.580   2
   3  -1   7 495.576 239.206   1
  -3  -1  -7 468.198 217.546   1
   4  -1   7 1148.43 393.653   1
  -4  -1  -7 1355.98 324.613   2
  -4   1  -7 1222.60 369.087   2
  -5  -1  -7 112.200 141.978   2
  -5   1  -7 29.3542 104.067   2
   5  -1   7 133.466 85.6670   1
  -6  -1  -7 47.3853 93.5405   2
  -6   1  -7-372.541 245.283   2
  -7  -1  -7-44.2076 106.396   2
  -7   1  -7 187.940 195.551   2
  -8  -1  -7-4.52123 84.9281   2
  -8   1  -7-557.898 345.372   2
  -9   2   7-1.27291 108.128   2
  -8   2   7 52.6947 190.108   2
  -7   2   7 554.791 290.527   2
  -6   2   7 754.641 319.471   2
   5  -2  -7 2363.02 472.983   2
  -5   2   7 3006.82 538.915   2
  -4   2   7 764.686 181.099   1
  -4  -2   7 1109.88 347.844   1
   4  -2  -7 644.235 223.362   2
  -3   2   7 290.468 125.120   2
  -3  -2   7 408.932 209.908   1
  -3   2   7 242.308 85.2467   1
   3  -2  -7 191.560 101.430   2
   3   2  -7 338.155 158.322   2
  -2  -2   7 632.792 219.298   1
   2  -2  -7 599.425 132.374   2
  -2   2   7 631.258 126.960   1
  -2   2   7 516.836 131.383   2
   2   2  -7 476.768 209.471   2
   1   2  -7 737.097 248.288   1
  -1   2   7 775.303 156.052   1
   1  -2  -7 812.994 160.764   1
  -1  -2   7 629.743 264.569   1
   0   2  -7 1153.19 301.870   1
   0   2   7 1210.08 237.828   1
   0  -2   7 716.134 264.323   1
   0  -2  -7 1145.86 225.717   1
  -1   2  -7 281.049 164.443   1
   1  -2   7 606.113 292.034   1
  -1  -2  -7 327.752 132.836   1
   2  -2   7 2158.16 482.519   1
  -2  -2  -7 1963.04 209.581   2
  -2  -2  -7 2546.63 439.519   1
  -3  -2  -7 197.124 97.2403   2
   3  -2   7-108.163 99.9017   1
  -3  -2  -7 101.901 110.388   1
  -4  -2  -7 1461.58 305.101   2
   4  -2   7 1812.93 505.349   1
  -5  -2  -7 245.653 147.584   2
   5  -2   7 318.454 253.487   1
  -5   2  -7 20.0228 114.666   2
  -6  -2  -7 576.676 265.486   2
  -6   2  -7-60.3241 144.285   2
  -7  -2  -7-52.4404 119.370   2
  -7   2  -7 510.083 307.976   2
  -9   3   7-593.360 346.145   2
  -8   3   7 451.150 277.965   2
  -7   3   7 252.562 197.647   2
  -6   3   7 2117.05 506.011   2
  -5   3   7 2235.13 255.288   1
  -5   3   7 2436.74 497.764   2
  -5   3   7 1878.02 237.188   1
  -4  -3   7 11970.5 1212.82   1
  -3  -3   7 14084.2 1253.43   1
  -3   3   7 12887.3 816.366   2
  -2   3   7 10967.9 560.675   2
  -2  -3   7 13720.9 1206.35   1
  -1  -3   7 9140.06 981.839   1
   0  -3   7 2776.72 532.143   1
   0  -3  -7 2048.86 265.558   1
   1  -3   7 539.733 222.493   1
  -1  -3  -7 640.347 191.378   1
  -2  -3  -7 230.957 144.151   1
   2  -3   7 476.847 266.426   1
  -3  -3  -7-8.89581 68.0998   1
   3  -3   7-103.726 104.078   1
   4  -3   7-107.034 148.214   1
  -4  -3  -7 347.681 165.616   2
   5  -3   7 86.1186 116.270   1
  -5   3  -7-24.1069 115.391   2
  -5  -3  -7-65.2971 97.4712   2
   6  -3   7 90.6024 120.299   1
  -6   3  -7 725.073 355.303   2
  -7   3  -7 127.951 197.569   2
  -8   4   7 403.129 270.646   2
  -7   4   7-55.3653 120.392   2
  -6   4   7 529.272 255.209   2
  -5  -4   7 142.192 176.780   1
  -5   4   7 192.036 106.653   2
  -4  -4   7 343.947 205.781   1
  -3  -4   7 6979.33 945.880   1
  -3   4   7 4272.33 495.950   2
  -2   4   7 4256.17 384.354   2
  -2  -4   7 4324.20 718.299   1
  -1  -4   7 11733.0 1184.42   1
   0  -4   7 2343.78 535.022   1
   0  -4  -7 2116.53 230.844   1
  -1  -4  -7 3276.13 408.080   1
   1  -4   7 3791.89 703.707   1
  -2  -4  -7-93.5727 93.6913   1
   2  -4   7 335.371 297.622   1
   3  -4   7 24.0196 192.286   1
   4  -4   7 429.406 274.254   1
   5  -4   7 31.5227 123.373   1
   6  -4   7 100.360 160.978   1
  -6   4  -7 539.068 337.837   2
  -7   5   7 14.7099 284.082   2
  -6   5   7 26.9049 95.8452   2
  -6  -5   7 388.824 104.191   1
  -5   5   7 47.5690 97.7359   2
  -5  -5   7 130.441 185.662   1
  -4  -5   7 340.766 226.366   1
  -4   5   7 317.803 172.301   2
  -3  -5   7 245.919 157.983   1
  -2  -5   7 54.9296 156.036   1
  -2   5   7-14.1116 42.3835   2
  -1  -5   7 2680.61 615.520   1
   0  -5   7 536.439 281.905   1
   1  -5   7 2987.90 672.049   1
   2  -5   7 1139.98 412.152   1
   3  -5   7 448.073 280.199   1
   4  -5   7 400.150 280.179   1
   5  -5   7 217.129 206.679   1
  -4  -6   7 1025.53 425.257   1
  -3  -6   7 14.6972 203.161   1
  -2  -6   7 34.0891 117.138   1
  -1  -6   7-233.571 210.625   1
   0  -6   7-87.1313 151.003   1
   1  -6   7 2137.96 643.058   1
   2  -6   7 705.711 349.399   1
   3  -6   7 2986.25 725.888   1
   4  -6   7-54.3709 287.570   1
  -2  -7   7 260.461 244.272   1
  -1  -7   7-144.074 179.093   1
   0  -7   7-103.133 171.982   1
   1  -7   7-39.8460 149.939   1
  -9   0   8-185.567 210.193   2
  -8   0   8 4346.94 864.253   2
  -7   0   8 53.3374 135.430   2
  -6   0   8 2307.60 514.558   2
  -5   0   8 2.48383 95.5841   1
  -5   0   8-147.930 113.128   2
   4   0  -8 83.6589 58.7362   2
  -4   0   8 299.648 192.673   1
   3   0  -8 164.076 63.3413   2
   2   0  -8 1903.14 333.996   2
   1   0  -8-36.3923 63.9873   1
   1   0  -8 52.0352 93.0613   2
   0   0   8 32030.9 1561.60   1
   0   0  -8 31475.5 1497.32   1
   1   0   8 95.2542 114.189   1
  -1   0  -8 100.963 120.281   1
   2   0   8 24921.9 1567.94   1
   3   0   8-262.543 270.568   1
  -3   0  -8 60.4991 103.073   2
   4   0   8 869.646 240.533   1
  -4   0  -8 1651.42 403.875   2
  -5   0  -8 6.93033 89.3067   2
  -6   0  -8 646.314 301.670   2
  -7   0  -8-501.715 291.461   2
  -8   0  -8 391.360 329.025   2
  -9  -1   8 608.618 360.967   2
  -9   1   8 247.165 281.011   2
  -8  -1   8-57.6450 141.047   2
  -8   1   8 179.783 189.414   2
  -7  -1   8-206.821 184.009   2
  -7   1   8 309.965 254.544   2
  -6   1   8 452.216 273.146   2
  -5  -1   8 88.1309 146.521   1
   5  -1  -8-213.139 154.835   2
  -5   1   8-44.2509 124.804   2
   4   1  -8 333.885 242.362   2
   4  -1  -8 295.563 159.694   2
  -4  -1   8 131.279 92.5211   1
   3   1  -8 2145.23 429.719   2
  -3  -1   8 1837.00 409.317   1
   3  -1  -8 2448.39 386.907   2
  -3   1   8 2433.16 366.095   1
   2  -1  -8 1291.13 237.907   2
  -2   1   8 1314.75 286.176   1
   2   1  -8 1142.42 300.681   2
  -2  -1   8 1396.71 327.756   1
   1  -1  -8 14111.0 875.471   1
   1   1  -8 14480.3 1082.44   1
  -1   1   8 14789.2 913.055   1
   1  -1  -8 15084.4 682.672   2
  -1  -1   8 15355.6 1138.51   1
   0  -1  -8 9630.77 503.162   2
   0  -1   8 10857.6 990.914   1
   0  -1  -8 9952.79 784.804   1
   0   1  -8 9823.13 903.496   1
   1   1   8 7802.24 765.702   1
   1  -1   8 7088.89 832.469   1
  -1  -1  -8 7873.96 494.065   2
  -1  -1  -8 7576.38 750.915   1
  -1   1  -8 8381.13 864.384   1
   2   1   8 7760.62 842.843   1
   2  -1   8 8184.58 920.174   1
  -2  -1  -8 8733.76 885.098   1
  -2  -1  -8 8882.09 630.900   2
  -3  -1  -8-5.73708 59.6884   2
   3  -1   8-220.047 215.968   1
   4  -1   8 1850.96 487.057   1
  -4  -1  -8 1721.18 372.395   2
  -4   1  -8 1333.00 390.462   2
   5  -1   8 1375.67 436.418   1
  -5  -1  -8 1747.27 426.293   2
  -5   1  -8 1574.70 449.735   2
  -6  -1  -8-170.437 158.702   2
  -6   1  -8-90.6798 222.684   2
  -7  -1  -8 599.896 302.963   2
  -7   1  -8 811.647 380.756   2
  -9   2   8-386.773 280.250   2
  -8   2   8-768.381 354.495   2
  -7   2   8 353.323 242.162   2
  -6   2   8 3253.47 609.698   2
  -5   2   8 2843.18 519.779   2
  -5   2   8 1392.53 272.103   1
  -5  -2   8 3065.10 626.296   1
   5  -2  -8 3451.39 555.532   2
  -4  -2   8 8489.03 992.484   1
   4  -2  -8 8262.53 761.721   2
  -4   2   8 6403.44 509.348   1
  -3   2   8 231.036 98.8180   1
   3  -2  -8 337.340 136.431   2
  -3  -2   8 270.170 100.807   1
  -3   2   8 295.738 113.682   2
  -2  -2   8 1752.31 433.539   1
   2   2  -8 1972.25 438.455   2
  -2   2   8 1407.47 223.951   1
   2  -2  -8 1723.92 229.618   2
  -1   2   8 437.431 146.059   1
   1  -2  -8 446.368 147.792   1
  -1  -2   8 419.326 217.054   1
   0   2   8 282.802 145.360   1
   0  -2   8 87.7294 141.766   1
   0  -2  -8 267.802 131.298   1
  -1  -2  -8 267.610 133.266   1
   1  -2   8 138.642 115.303   1
   2  -2   8-54.0828 190.199   1
  -2  -2  -8 75.8414 89.8680   1
  -2  -2  -8 9.82463 17.5015   2
   3  -2   8 4655.01 775.806   1
  -3  -2  -8 4188.26 414.150   2
  -4  -2  -8 848.731 224.279   2
   4  -2   8 722.981 323.859   1
   5  -2   8 3023.55 727.415   1
  -5   2  -8 2740.65 631.947   2
  -5  -2  -8 3091.18 509.578   2
  -6   2  -8 1282.73 465.557   2
  -7   2  -8 766.201 475.129   2
  -9   3   8 437.165 314.771   2
  -8   3   8 220.976 207.593   2
  -7   3   8 100.984 131.905   2
  -6   3   8 382.295 214.429   2
  -6  -3   8 173.694 183.344   1
  -5  -3   8 4476.98 801.820   1
  -5   3   8 3241.28 559.023   2
  -5   3   8 4029.43 293.925   1
  -4  -3   8 707.973 312.872   1
  -3   3   8 8053.99 622.866   2
  -3  -3   8 10724.4 1131.46   1
  -2  -3   8-218.355 259.986   1
  -1  -3   8 3173.02 606.636   1
   0  -3   8 1261.50 379.216   1
   0  -3  -8 1279.58 233.993   1
  -1  -3  -8 217.220 138.281   1
   1  -3   8 219.940 202.905   1
   2  -3   8 2898.74 610.132   1
  -2  -3  -8 3047.54 493.565   1
   3  -3   8 961.642 364.215   1
   4  -3   8 1773.66 522.669   1
   5  -3   8-395.298 281.499   1
  -5   3  -8 127.175 168.568   2
   6  -3   8 788.341 413.664   1
  -6   3  -8-28.2575 114.905   2
  -8   4   8 352.293 266.689   2
  -7   4   8 184.489 212.592   2
  -7  -4   8 392.269 292.026   1
  -6   4   8 676.193 287.387   2
  -6  -4   8 220.701 178.769   1
  -5   4   8 103.415 149.833   2
  -5  -4   8 266.923 234.164   1
  -4  -4   8 42.9134 133.155   1
  -3  -4   8 2371.32 575.093   1
  -3   4   8 2916.65 376.830   2
  -2  -4   8 746.371 348.585   1
  -1  -4   8 2055.88 531.417   1
   0  -4   8 991.493 351.149   1
   0  -4  -8 1031.29 172.108   1
  -1  -4  -8-70.4064 72.3488   1
   1  -4   8-270.099 211.600   1
   2  -4   8 282.015 213.957   1
   3  -4   8 52.6001 211.216   1
   4  -4   8 49.4431 127.239   1
   5  -4   8 68.3116 199.433   1
  -5  -5   8 435.125 252.768   1
  -4  -5   8-319.388 251.435   1
  -3  -5   8 906.431 387.163   1
  -2  -5   8 1729.07 502.900   1
  -1  -5   8 120.549 138.149   1
   0  -5   8 3479.62 716.018   1
   1  -5   8 319.965 221.781   1
   2  -5   8 1084.00 471.225   1
   3  -5   8-557.805 324.936   1
   4  -5   8 77.1966 143.096   1
  -4  -6   8-260.651 237.294   1
  -3  -6   8 324.027 221.717   1
  -2  -6   8 120.092 226.010   1
  -1  -6   8 162.417 181.425   1
   0  -6   8 285.409 234.624   1
   1  -6   8 246.873 228.834   1
   2  -6   8 26.1943 105.175   1
   3  -6   8 459.268 311.336   1
  -9   0   9-227.636 237.755   2
  -8   0   9 165.393 181.946   2
  -7   0   9-165.376 181.998   2
  -6   0   9 35.7792 196.056   2
  -6   0   9-96.6470 141.682   1
  -5   0   9 2021.03 426.216   1
   4   0  -9 5.53264 122.146   2
  -4   0   9-6.45958 82.2825   1
   3   0  -9 6550.50 705.158   2
  -3   0   9 7075.98 755.820   1
   2   0  -9 124.537 85.4060   2
  -2   0   9 18.0284 96.2800   1
  -1   0   9 94.4183 70.0764   1
   1   0  -9 265.278 175.585   1
   1   0  -9 255.562 139.610   2
   0   0  -9 139.201 86.0315   1
   0   0   9 29.6086 114.838   1
   1   0   9 13906.8 1168.43   1
  -1   0  -9 13124.6 1102.08   1
   2   0   9-210.892 239.076   1
   3   0   9 16610.3 1428.56   1
  -3   0  -9 16483.3 1141.28   2
   4   0   9 46.8260 139.176   1
  -4   0  -9 104.990 189.204   2
  -5   0  -9 3391.37 633.098   2
  -6   0  -9 699.157 318.376   2
  -7   0  -9-385.712 252.017   2
  -9   1   9 699.195 372.121   2
  -8   1   9 231.476 212.566   2
  -7   1   9 363.128 229.249   2
  -6  -1   9 483.411 248.011   1
  -6   1   9 214.959 156.091   1
  -6   1   9 345.142 220.921   2
  -5   1   9-7.43625 61.8106   1
  -5  -1   9 70.0553 95.1075   1
  -5   1   9 20.9014 99.1238   2
   4  -1  -9 2547.07 455.911   2
  -4  -1   9 2727.83 528.291   1
   3   1  -9 759.885 269.055   2
  -3  -1   9 608.725 245.684   1
   3  -1  -9 921.760 259.681   2
   2   1  -9 18966.7 1253.89   2
   2  -1  -9 17888.8 909.217   2
  -2  -1   9 18709.5 1328.50   1
   1  -1  -9 10360.9 814.746   1
   1   1  -9 10587.1 970.524   1
   1  -1  -9 10274.1 593.821   2
  -1  -1   9 10369.9 997.439   1
   0  -1  -9 5755.60 411.518   2
   0  -1   9 6062.60 785.087   1
   0  -1  -9 6057.12 655.433   1
   1   1   9 21040.1 1342.60   1
   1  -1   9 20038.8 1473.13   1
  -1  -1  -9 19061.1 812.852   2
   2   1   9 3642.23 606.388   1
   2  -1   9 4054.88 697.535   1
  -2  -1  -9 3836.13 425.306   2
   3  -1   9 8712.09 1089.30   1
  -3  -1  -9 8789.24 745.049   2
   4  -1   9 7700.03 1072.00   1
  -4  -1  -9 7587.96 794.141   2
  -4   1  -9 7612.18 925.231   2
   5  -1   9 353.567 204.486   1
  -5  -1  -9 659.185 278.349   2
  -5   1  -9 42.5399 113.222   2
  -6  -1  -9 874.550 356.128   2
  -6   1  -9 928.702 431.892   2
  -7   1  -9-177.629 208.574   2
  -9   2   9 276.249 251.043   2
  -8   2   9 270.119 230.330   2
  -7   2   9 102.062 197.122   2
  -6  -2   9 466.491 304.109   1
  -6   2   9 39.5796 106.356   2
  -5   2   9 66.5109 63.5995   1
   5  -2  -9 389.472 190.080   2
  -5  -2   9 578.589 287.200   1
  -5   2   9 429.582 239.729   2
   4  -2  -9 1969.57 384.415   2
  -4   2   9 1579.51 274.629   1
  -4  -2   9 1820.70 494.114   1
  -3   2   9 6884.45 539.670   1
   3  -2  -9 7947.32 629.108   2
  -2   2   9 11696.7 737.360   1
   2  -2  -9 13455.5 612.308   2
  -2  -2   9 14625.1 1269.29   1
   1  -2  -9 12075.6 779.183   1
  -1   2   9 9806.68 723.459   1
  -1  -2   9 12018.4 1139.18   1
   0  -2   9 15805.3 1340.33   1
   0  -2  -9 15351.8 964.215   1
  -1  -2  -9 694.717 226.898   1
   1  -2   9 1150.00 376.299   1
  -2  -2  -9 2417.37 472.441   1
   2  -2   9 2543.03 569.333   1
  -3  -2  -9 861.559 180.390   2
   3  -2   9 570.278 303.175   1
  -4  -2  -9 123.742 78.7431   2
   4  -2   9 156.019 198.230   1
   5  -2   9 718.861 400.994   1
  -5   2  -9 241.492 164.363   2
  -6   2  -9 272.695 227.074   2
  -7   2  -9 47.0114 159.769   2
  -8   3   9 136.644 167.466   2
  -7   3   9-17.2176 94.1577   2
  -7  -3   9 400.252 273.127   1
  -6   3   9 189.479 172.350   2
  -6  -3   9 381.735 277.328   1
  -5   3   9 1975.90 441.906   2
  -5  -3   9 2017.47 557.264   1
  -4  -3   9-0.94864 166.030   1
  -3  -3   9 1299.36 397.142   1
  -2  -3   9-38.1003 143.393   1
  -1  -3   9 867.055 333.396   1
   0  -3   9 28.7192 92.9181   1
   0  -3  -9 58.9317 60.0501   1
  -1  -3  -9 3820.80 508.083   1
   1  -3   9 3357.39 688.613   1
   2  -3   9 239.852 214.710   1
  -2  -3  -9 17.2055 61.2526   1
   3  -3   9 634.498 326.281   1
   4  -3   9 212.611 167.913   1
   5  -3   9 595.108 405.114   1
  -5   3  -9-123.735 151.910   2
  -6   3  -9 1211.48 484.488   2
  -7   4   9 1909.25 510.525   2
  -6   4   9 1475.63 418.593   2
  -6  -4   9 1102.09 463.983   1
  -5  -4   9 4150.88 838.060   1
  -5   4   9 4596.92 655.059   2
  -4  -4   9 1983.54 554.601   1
  -3  -4   9 1291.33 459.783   1
  -2  -4   9 116.561 204.292   1
  -1  -4   9 234.085 201.094   1
   0  -4   9 1719.75 499.561   1
   1  -4   9 619.613 338.612   1
   2  -4   9 953.954 395.827   1
   3  -4   9 458.386 298.513   1
   4  -4   9-142.493 186.465   1
  -5  -5   9 897.684 462.098   1
  -4  -5   9 452.013 285.537   1
  -3  -5   9 166.275 230.809   1
  -2  -5   9 348.631 183.900   1
  -1  -5   9 215.780 270.936   1
   0  -5   9-82.0234 160.619   1
   1  -5   9 525.051 326.800   1
   2  -5   9-282.631 236.533   1
   3  -5   9 367.169 328.072   1
  -2  -6   9 618.839 354.615   1
  -1  -6   9-245.897 237.753   1
   0  -6   9 459.913 233.429   1
   1  -6   9 18.5463 143.133   1
  -8   0  10-88.2354 145.636   2
  -7   0  10 435.647 242.382   1
  -6   0  10 1908.53 492.823   1
  -5   0  10-7.04965 123.142   1
   4   0 -10 5224.00 700.709   2
  -4   0  10 5445.51 724.703   1
   3   0 -10-48.3465 77.9836   2
  -3   0  10-58.8585 121.488   1
   2   0 -10-115.128 109.031   2
  -2   0  10 4.20706 125.432   1
   1   0 -10-389.033 192.196   1
  -1   0  10-288.390 216.306   1
   1   0 -10 33.0577 75.1399   2
   0   0  10 21072.5 1463.73   1
   1   0  10 451.430 239.885   1
   2   0  10 21543.9 1621.72   1
   3   0  10 280.646 244.333   1
  -3   0 -10-21.5918 115.537   2
   4   0  10 2316.60 590.635   1
  -4   0 -10 2792.40 532.740   2
  -5   0 -10 364.311 237.111   2
  -9   1  10 532.252 338.387   2
  -8  -1  10 109.494 154.402   1
  -8   1  10 1.16203 68.8401   2
  -7   1  10 366.840 202.990   1
  -7  -1  10 651.503 305.020   1
  -7   1  10 385.470 247.976   2
  -6   1  10-23.9006 67.2282   1
  -6   1  10 30.1857 101.527   2
  -6  -1  10-83.0441 104.293   1
  -5   1  10 843.272 265.145   1
  -5  -1  10 1583.65 434.612   1
   4  -1 -10 333.095 172.993   2
  -4  -1  10 136.032 98.5792   1
   3  -1 -10 101.209 94.2068   2
  -3  -1  10-74.5245 143.617   1
   2  -1 -10 245.209 130.343   2
  -2  -1  10 147.834 145.734   1
   2   1 -10 384.326 206.007   2
   1  -1 -10 4294.19 565.549   1
  -1   1  10 5105.65 641.510   1
   1  -1 -10 4749.01 419.207   2
  -1  -1  10 4804.14 716.545   1
   0  -1 -10 2028.06 405.703   1
   0   1  10 2013.84 430.906   1
   0  -1 -10 1746.07 242.166   2
   0  -1  10 1876.85 443.421   1
   1   1  10 7016.78 845.154   1
   1  -1  10 7234.86 937.887   1
  -1  -1 -10 6971.62 510.217   2
   2   1  10 1558.98 417.410   1
  -2  -1 -10 1894.01 309.042   2
   2  -1  10 1711.50 480.190   1
  -3  -1 -10 264.145 96.3738   2
   3  -1  10 261.943 262.194   1
   4  -1  10 275.852 269.829   1
  -4  -1 -10 119.788 103.356   2
  -4   1 -10-215.435 178.267   2
   5  -1  10 122.699 176.835   1
  -5   1 -10 344.598 190.963   2
  -6   1 -10-102.798 147.952   2
  -9   2  10 17.0980 121.223   2
  -8  -2  10 23.4265 95.5315   1
  -8   2  10-39.7701 115.090   2
  -7  -2  10 120.972 166.417   1
  -7   2  10-190.493 181.866   2
  -6  -2  10 57.6446 190.312   1
  -6   2  10 214.409 172.515   2
  -5   2  10 374.804 137.105   1
  -5   2  10 357.342 191.400   2
  -5  -2  10 536.324 273.672   1
  -4  -2  10 2272.55 540.511   1
   4  -2 -10 1385.89 320.129   2
  -4   2  10 2020.40 316.457   1
  -3   2  10 7130.98 596.116   1
   3  -2 -10 6338.57 549.834   2
  -3  -2  10 7005.61 937.726   1
  -2   2  10 482.301 166.851   1
   2  -2 -10 556.146 117.692   2
  -2  -2  10 658.595 275.321   1
   1  -2 -10 9290.68 741.378   1
  -1  -2  10 9974.56 1104.40   1
   0  -2 -10 243.370 149.315   1
   0  -2  10 232.409 177.279   1
  -1  -2 -10 949.927 264.013   1
   1  -2  10 1028.13 365.534   1
   2  -2  10 93.8740 159.590   1
   3  -2  10 1074.43 430.239   1
   4  -2  10 318.734 208.711   1
  -4   2 -10 525.387 233.419   2
   5  -2  10 1342.33 534.187   1
  -5   2 -10 633.770 296.673   2
  -6   2 -10 546.855 318.684   2
  -8   3  10 493.830 294.652   2
  -7  -3  10-274.382 234.459   1
  -7   3  10-144.686 160.657   2
  -6  -3  10 746.828 393.747   1
  -6   3  10 216.777 166.484   2
  -5  -3  10 1624.31 558.223   1
  -5   3  10 724.186 220.158   2
  -4  -3  10 3511.65 708.944   1
  -3  -3  10 2821.20 656.498   1
  -2  -3  10 7407.25 1041.27   1
  -1  -3  10 269.868 251.374   1
   0  -3  10 1612.93 511.736   1
   1  -3  10 210.235 156.635   1
   2  -3  10 136.652 178.609   1
   3  -3  10 18.4293 153.894   1
   4  -3  10 909.563 474.076   1
  -5   3 -10-3.69469 117.631   2
  -6  -4  10-460.329 312.586   1
  -5  -4  10 225.326 130.332   1
  -4  -4  10 484.139 325.673   1
  -3  -4  10 215.765 202.974   1
  -2  -4  10 152.937 190.043   1
  -1  -4  10-4.28400 217.910   1
   0  -4  10 202.539 205.476   1
   1  -4  10 149.819 214.333   1
   2  -4  10 159.229 183.544   1
   3  -4  10 30.5441 190.379   1
  -4  -5  10 260.682 137.766   1
  -3  -5  10 155.726 245.025   1
  -2  -5  10 182.224 208.469   1
  -1  -5  10 272.534 245.107   1
   0  -5  10-175.464 104.021   1
   1  -5  10 3.78413 105.634   1
   2  -5  10 299.789 327.901   1
  -8   0  11-165.627 167.526   1
  -7   0  11 52.5750 112.365   1
  -6   0  11 332.276 205.255   1
  -5   0  11-54.2393 97.3524   1
  -4   0  11-96.9052 84.5614   1
   3   0 -11 26.9872 68.9143   2
  -3   0  11 240.592 218.055   1
   2   0 -11-339.348 163.110   2
  -2   0  11-28.8526 126.419   1
  -1   0  11-196.020 159.855   1
   1   0 -11 66.3930 67.1551   2
   0   0  11-23.2719 99.7470   1
   1   0  11 797.407 339.600   1
   2   0  11 224.825 174.199   1
  -2   0 -11-123.105 114.151   2
   3   0  11 417.716 299.069   1
  -3   0 -11 370.911 176.476   2
   4   0  11-131.261 165.437   1
  -4   0 -11-36.1928 176.738   2
  -8  -1  11 134.280 158.754   1
  -8   1  11 127.223 166.478   2
  -7  -1  11-199.861 192.989   1
  -6   1  11 131.583 124.449   1
  -6  -1  11 312.996 222.319   1
  -5  -1  11 905.314 374.882   1
  -5   1  11 671.614 242.622   1
  -4  -1  11 205.945 174.111   1
   4  -1 -11 340.729 172.265   2
  -4   1  11-39.0936 66.5576   1
  -3   1  11 527.504 218.492   1
   3  -1 -11 952.091 261.689   2
  -3  -1  11 1138.75 366.630   1
  -2  -1  11 2636.78 577.181   1
  -2   1  11 2814.19 481.174   1
   2  -1 -11 2575.53 359.399   2
  -1  -1  11-69.9253 121.391   1
   1  -1 -11-33.2193 75.3880   2
   1  -1 -11-99.8046 106.516   1
  -1   1  11 60.4646 151.553   1
   1   1 -11 131.209 163.909   2
   0   1  11 1679.74 414.564   1
   0  -1 -11 1450.65 228.306   2
   0  -1  11 1666.31 462.404   1
   1   1  11 555.971 272.144   1
  -1  -1 -11 470.180 132.733   2
   1  -1  11 372.312 255.294   1
   2   1  11 62.8177 113.267   1
   2  -1  11 262.300 292.170   1
   3  -1  11 215.058 227.274   1
   4  -1  11 391.830 331.095   1
  -4   1 -11 369.455 97.6523   2
  -5   1 -11 389.592 250.486   2
   5  -1  11-919.183 429.916   1
  -8  -2  11 533.933 249.807   1
  -8   2  11-514.950 305.101   2
  -7  -2  11-208.433 209.946   1
  -7   2  11 640.684 308.182   2
  -6  -2  11 228.141 206.453   1
  -5  -2  11 153.936 177.934   1
  -4  -2  11 79.7886 160.014   1
  -4   2  11-109.745 83.4775   1
  -3   2  11 71.5581 64.1443   1
  -3  -2  11 704.387 305.687   1
  -2  -2  11 566.556 331.353   1
  -1  -2  11 1200.14 420.834   1
   1  -2 -11 1166.47 285.314   1
   0   2  11 67.5125 84.7478   1
   0  -2 -11 167.391 124.001   1
   0  -2  11 421.380 250.723   1
   1  -2  11 14.0762 161.425   1
   2  -2  11 676.862 360.684   1
   3  -2  11 775.923 369.029   1
   4  -2  11 44.8288 154.405   1
  -4   2 -11 394.788 177.004   2
  -5   2 -11 372.857 242.681   2
  -6  -3  11 241.775 219.322   1
  -5  -3  11 21.3796 211.784   1
  -4  -3  11 1020.90 442.235   1
  -3  -3  11-168.555 164.079   1
  -2  -3  11 628.024 360.109   1
  -1  -3  11-205.483 202.959   1
   0  -3  11 501.019 306.693   1
   1  -3  11-82.5300 121.087   1
   2  -3  11 576.859 358.609   1
   3  -3  11 274.834 245.791   1
  -5   3 -11-592.826 346.143   2
  -5  -4  11 241.440 251.365   1
  -4  -4  11 337.394 262.815   1
  -3  -4  11 721.181 371.310   1
  -2  -4  11 130.636 175.956   1
  -1  -4  11 301.812 230.516   1
   0  -4  11-117.110 178.387   1
   1  -4  11 143.542 223.932   1
   2  -4  11-713.597 382.652   1
  -2  -5  11 1302.02 514.765   1
  -1  -5  11 36.7896 112.004   1
  -7   0  12-414.405 240.833   1
  -6   0  12-80.5113 115.353   1
  -5   0  12 77.8036 111.740   1
  -4   0  12 589.353 259.659   1
  -3   0  12 94.1766 122.478   1
  -2   0  12 66.9568 167.485   1
  -1   0  12 151.332 161.092   1
   0   0  12-33.4698 89.1461   1
   1   0  12-108.775 142.600   1
   2   0  12-29.3569 163.458   1
  -2   0 -12-27.3052 135.913   2
   3   0  12 352.282 251.268   1
   4   0  12 108.725 165.229   1
  -8  -1  12 731.354 360.432   1
  -7  -1  12 43.1401 108.815   1
  -6  -1  12-59.7538 124.508   1
  -5  -1  12 53.3613 119.882   1
  -5   1  12-177.427 137.610   1
  -4   1  12 182.343 168.972   1
  -4  -1  12 122.380 205.446   1
  -3  -1  12 388.244 247.037   1
  -3   1  12 402.222 192.895   1
  -2  -1  12 88.9183 196.071   1
  -2   1  12 145.870 125.005   1
  -1   1  12 629.399 261.045   1
  -1  -1  12 578.933 346.288   1
   0   1  12-224.747 162.773   1
   0  -1  12 180.399 182.010   1
   1   1  12-183.138 162.318   1
   1  -1  12 300.973 257.857   1
   2   1  12 119.274 144.989   1
   2  -1  12 167.071 187.058   1
   3  -1  12 564.165 280.390   1
  -3   1 -12-46.9723 103.808   2
   4  -1  12 713.318 407.180   1
  -7  -2  12 100.027 153.369   1
  -6  -2  12 193.241 194.904   1
  -5  -2  12-75.9539 133.900   1
  -4  -2  12 234.268 287.706   1
  -3  -2  12 193.630 227.834   1
  -2  -2  12 651.333 307.002   1
  -1  -2  12 5.16369 158.508   1
  -1   2  12-25.0659 66.3574   1
   0   2  12 285.426 169.659   1
   0  -2  12 879.454 391.994   1
   1  -2  12 222.069 176.560   1
   2  -2  12-176.263 191.167   1
   3  -2  12 93.3000 171.561   1
  -4   2 -12 220.112 200.613   2
  -6  -3  12-132.184 282.101   1
  -5  -3  12 22.8068 99.2850   1
  -4  -3  12-177.244 213.827   1
  -3  -3  12 169.556 191.825   1
  -2  -3  12 317.933 244.578   1
  -1  -3  12 370.526 257.878   1
   0  -3  12 701.072 343.736   1
   1  -3  12-327.887 264.837   1
   2  -3  12 727.096 394.394   1
  -4  -4  12 309.174 264.333   1
  -3  -4  12 803.535 446.312   1
  -2  -4  12 193.631 218.718   1
  -1  -4  12 915.901 428.531   1
   0  -4  12 335.627 411.226   1
  -6   0  13 218.874 186.404   1
  -5   0  13 589.814 277.589   1
  -4   0  13 63.4890 107.468   1
  -3   0  13 746.098 302.792   1
  -2   0  13 178.282 150.408   1
  -1   0  13 527.800 293.470   1
   0   0  13-172.459 167.578   1
   1   0  13-156.170 163.244   1
   2   0  13 288.615 276.173   1
   3   0  13 219.643 205.587   1
  -7  -1  13 48.7111 132.373   1
  -6  -1  13-247.280 208.410   1
  -5  -1  13 5.29995 74.3849   1
  -4   1  13-0.68292 137.458   1
  -4  -1  13-44.6764 111.363   1
  -3  -1  13 224.650 192.385   1
  -3   1  13-123.065 124.308   1
  -2  -1  13 214.991 193.921   1
  -2   1  13-147.483 136.692   1
  -1   1  13 7.68709 65.4238   1
  -1  -1  13 556.730 293.000   1
   0   1  13 135.865 139.456   1
   0  -1  13 119.560 176.071   1
   1   1  13 391.669 235.279   1
   1  -1  13-93.7150 154.849   1
   2   1  13-54.5076 111.487   1
   2  -1  13-129.801 158.159   1
   3  -1  13-326.007 264.870   1
  -6  -2  13-149.558 195.109   1
  -5  -2  13 501.596 276.642   1
  -4  -2  13 251.670 219.442   1
  -3  -2  13-394.703 258.294   1
  -2  -2  13-52.6023 128.320   1
  -1  -2  13 296.081 240.264   1
   0   2  13-67.3212 63.1402   1
   0  -2  13 34.9838 116.750   1
   1  -2  13 130.204 190.050   1
   2  -2  13 336.304 262.027   1
  -5  -3  13 486.370 323.720   1
  -4  -3  13-529.229 331.405   1
  -3  -3  13 270.803 238.790   1
  -2  -3  13-405.618 278.275   1
  -1  -3  13 204.709 222.775   1
   0  -3  13 450.224 268.496   1
   1  -3  13-208.395 226.864   1
  -5   0  14-521.034 269.692   1
  -4   0  14 272.175 197.905   1
  -3   0  14 388.611 203.906   1
  -2   0  14 412.619 244.083   1
  -1   0  14-51.2261 230.799   1
   0   0  14 99.9737 142.864   1
   1   0  14 38.0902 115.521   1
   2   0  14-63.3198 130.030   1
  -6  -1  14-3.58432 172.063   1
  -5  -1  14-587.320 313.148   1
  -4  -1  14 238.599 205.419   1
  -3  -1  14 387.384 254.787   1
  -2   1  14 252.851 169.785   1
  -2  -1  14 288.509 224.584   1
  -1   1  14 32.3261 92.6570   1
  -1  -1  14 149.736 169.980   1
   0   1  14 576.267 281.084   1
   0  -1  14 263.193 277.672   1
   1   1  14 564.623 289.622   1
   1  -1  14-121.426 161.235   1
   2   1  14-21.3200 110.849   1
   2  -1  14 281.051 234.999   1
  -5  -2  14-392.043 298.205   1
  -4  -2  14-129.514 176.439   1
  -3  -2  14 164.057 182.451   1
  -2  -2  14-105.531 150.645   1
  -1  -2  14 548.584 319.575   1
   0  -2  14-235.808 221.184   1
   1  -2  14 682.511 384.560   1
  -3   0  15 404.831 255.374   1
  -2   0  15-129.288 156.539   1
  -1   0  15 979.643 405.265   1
   0   0  15-38.7697 119.968   1
   1   0  15 141.798 132.305   1
  -5  -1  15-825.200 386.277   1
  -4  -1  15 754.522 399.400   1
  -3  -1  15-332.442 251.498   1
  -2  -1  15 327.940 236.977   1
  -1  -1  15 333.617 273.081   1
   0  -1  15-678.470 366.262   1
  -4  -2  15 740.947 394.051   1
  -3  -2  15-433.396 305.085   1
  -2  -2  15 1517.84 571.912   1
   0   0   0    0.00    0.00   0
;
_shelx_hkl_checksum              88058
_olex2_submission_special_instructions 'No special instructions were received'
loop_
_space_group_symop_operation_xyz
'x, y, z'
'-x+1/2, y+1/2, -z+1/2'
'-x, -y, -z'
'x-1/2, -y-1/2, z-1/2'
loop_
_atom_site_label
_atom_site_type_symbol
_atom_site_fract_x
_atom_site_fract_y
_atom_site_fract_z
_atom_site_U_iso_or_equiv
_atom_site_adp_type
_atom_site_occupancy
_atom_site_site_symmetry_order
_atom_site_calc_flag
_atom_site_refinement_flags_posn
C1 C 0.4047(3) 0.0252(4) 0.7586(2) 0.0690(8) Uani 1 1 d .
H1 H 0.343516 -0.100485 0.769926 0.083 Uiso 1 1 calc R
C2 C 0.4256(3) 0.0812(5) 0.6482(2) 0.0791(9) Uani 1 1 d .
H2 H 0.377331 -0.005926 0.585592 0.095 Uiso 1 1 calc R
C3 C 0.5159(4) 0.2624(5) 0.6296(2) 0.0840(9) Uani 1 1 d .
H3 H 0.529024 0.299813 0.554546 0.101 Uiso 1 1 calc R
C4 C 0.5870(4) 0.3891(5) 0.7212(3) 0.0857(9) Uani 1 1 d .
H4 H 0.649845 0.512900 0.708848 0.103 Uiso 1 1 calc R
C5 C 0.5662(3) 0.3346(4) 0.8321(2) 0.0757(8) Uani 1 1 d .
H5 H 0.615953 0.422169 0.894113 0.091 Uiso 1 1 calc R
C6 C 0.4732(3) 0.1525(4) 0.85309(18) 0.0624(8) Uani 1 1 d .
C7 C 0.4446(3) 0.0929(5) 0.9738(2) 0.0811(9) Uani 1 1 d .
H7A H 0.470016 0.218468 1.024065 0.097 Uiso 1 1 calc R
H7B H 0.322147 0.055893 0.970243 0.097 Uiso 1 1 calc R
loop_
_atom_site_aniso_label
_atom_site_aniso_U_11
_atom_site_aniso_U_22
_atom_site_aniso_U_33
_atom_site_aniso_U_23
_atom_site_aniso_U_13
_atom_site_aniso_U_12
C1 0.0671(15) 0.0667(16) 0.0719(16) -0.0009(12) 0.0089(11) -0.0117(12)
C2 0.0821(19) 0.090(2) 0.0622(17) -0.0084(13) 0.0061(13) 0.0017(15)
C3 0.092(2) 0.089(2) 0.0760(18) 0.0162(16) 0.0276(15) 0.0117(16)
C4 0.0790(19) 0.0721(18) 0.111(2) 0.0157(17) 0.0290(16) -0.0076(14)
C5 0.0717(17) 0.0630(16) 0.0880(19) -0.0132(13) 0.0023(13) -0.0035(12)
C6 0.0619(15) 0.0620(15) 0.0621(15) -0.0014(11) 0.0079(11) 0.0066(11)
C7 0.0897(19) 0.0831(17) 0.0714(17) -0.0022(13) 0.0169(13) 0.0248(14)
loop_
_atom_type_symbol
_atom_type_description
_atom_type_scat_dispersion_real
_atom_type_scat_dispersion_imag
_atom_type_scat_source
C C 0.0033 0.0016 'International Tables Vol C Tables 4.2.6.8 and 6.1.1.4'
H H 0.0000 0.0000 'International Tables Vol C Tables 4.2.6.8 and 6.1.1.4'
loop_
_geom_angle_atom_site_label_1
_geom_angle_atom_site_label_2
_geom_angle_atom_site_label_3
_geom_angle
_geom_angle_site_symmetry_1
C2 C1 H1 119.5 .
C2 C1 C6 121.0(2) .
C6 C1 H1 119.5 .
C1 C2 H2 119.7 .
C3 C2 C1 120.6(3) .
C3 C2 H2 119.7 .
C2 C3 H3 120.2 .
C2 C3 C4 119.7(3) .
C4 C3 H3 120.2 .
C3 C4 H4 119.9 .
C3 C4 C5 120.1(3) .
C5 C4 H4 119.9 .
C4 C5 H5 119.3 .
C4 C5 C6 121.3(2) .
C6 C5 H5 119.3 .
C1 C6 C7 120.6(2) .
C5 C6 C1 117.3(2) .
C5 C6 C7 122.2(2) .
C6 C7 H7A 108.9 .
C6 C7 H7B 108.9 .
C7 C7 C6 113.5(2) 3_657
C7 C7 H7A 108.9 3_657
C7 C7 H7B 108.9 3_657
H7A C7 H7B 107.7 .
loop_
_geom_bond_atom_site_label_1
_geom_bond_atom_site_label_2
_geom_bond_distance
_geom_bond_site_symmetry_2
C1 H1 0.9300 .
C1 C2 1.373(3) .
C1 C6 1.380(3) .
C2 H2 0.9300 .
C2 C3 1.356(4) .
C3 H3 0.9300 .
C3 C4 1.359(4) .
C4 H4 0.9300 .
C4 C5 1.377(4) .
C5 H5 0.9300 .
C5 C6 1.380(4) .
C6 C7 1.512(3) .
C7 C7 1.495(5) 3_657
C7 H7A 0.9700 .
C7 H7B 0.9700 .
