#------------------------------------------------------------------------------
#$Date: 2019-10-28 03:21:59 +0200 (Mon, 28 Oct 2019) $
#$Revision: 219627 $
#$URL: file:///home/coder/svn-repositories/cod/cif/8/00/02/8000282.cif $
#------------------------------------------------------------------------------
#
# This file is available in the Crystallography Open Database (COD),
# http://www.crystallography.net/
#
# All data on this site have been placed in the public domain by the
# contributors.
#
data_8000282
loop_
_publ_author_name
'Tang, Zheng'
'Gao, Kai-Ge'
'Sun, Xiao-Fan'
'Yang, Xing-Ming'
'Wu, Yi-Zhang'
'Gao, Zhang-Ran'
'Cai, Hong-Ling'
'Wu, X. S.'
_publ_section_title
;
 High-Temperature Molecular Ferroelectric Tris(2-hydroxyethyl) Ammonium
 Bromide with Dielectric Relaxation.
;
_journal_name_full               'The journal of physical chemistry letters'
_journal_page_first              6650
_journal_page_last               6655
_journal_paper_doi               10.1021/acs.jpclett.9b02875
_journal_year                    2019
_chemical_formula_sum
'C8 H13 Be Br N O3 ad ar at2 be2 ca co d2 de di2 dr e5 ec en er ff h hy ic2 io ld n nn of og om ou rd re s sh si so t te th4 to tu ul us wh wi'
_chemical_formula_weight         227.07
_space_group_crystal_system      trigonal
_space_group_IT_number           160
_space_group_name_Hall           'R 3 -2"'
_space_group_name_H-M_alt        'R 3 m :H'
_symmetry_space_group_name_Hall  'R 3 -2"'
_symmetry_space_group_name_H-M   'R 3 m :H'
_atom_sites_solution_hydrogens   difmap
_audit_creation_method           SHELXL-2014/7
_cell_angle_alpha                90
_cell_angle_beta                 90
_cell_angle_gamma                120
_cell_formula_units_Z            3
_cell_length_a                   8.4155(6)
_cell_length_b                   8.4155(6)
_cell_length_c                   11.6376(8)
_cell_measurement_reflns_used    2395
_cell_measurement_temperature    273(2)
_cell_measurement_theta_max      27.404
_cell_measurement_theta_min      25.242
_cell_volume                     713.76(9)
_computing_structure_refinement  'SHELXL-2014/7 (Sheldrick, 2014)'
_diffrn_ambient_temperature      273(2)
_diffrn_measured_fraction_theta_full 1.000
_diffrn_measured_fraction_theta_max 1.000
_diffrn_measurement_device_type  Rigaku
_diffrn_radiation_type           MoK\a
_diffrn_radiation_wavelength     0.71073
_diffrn_reflns_av_R_equivalents  0.0316
_diffrn_reflns_av_unetI/netI     0.0305
_diffrn_reflns_Laue_measured_fraction_full 1.000
_diffrn_reflns_Laue_measured_fraction_max 1.000
_diffrn_reflns_limit_h_max       8
_diffrn_reflns_limit_h_min       -10
_diffrn_reflns_limit_k_max       10
_diffrn_reflns_limit_k_min       -9
_diffrn_reflns_limit_l_max       14
_diffrn_reflns_limit_l_min       -15
_diffrn_reflns_number            2395
_diffrn_reflns_point_group_measured_fraction_full 1.000
_diffrn_reflns_point_group_measured_fraction_max 1.000
_diffrn_reflns_theta_full        25.242
_diffrn_reflns_theta_max         27.407
_diffrn_reflns_theta_min         3.298
_exptl_absorpt_coefficient_mu    4.285
_exptl_crystal_colour            colorless
_exptl_crystal_density_diffrn    1.585
_exptl_crystal_description       bulk
_exptl_crystal_F_000             354
_refine_diff_density_max         0.260
_refine_diff_density_min         -0.260
_refine_diff_density_rms         0.051
_refine_ls_abs_structure_details
;
 Refined as an inversion twin.
;
_refine_ls_abs_structure_Flack   0.94(3)
_refine_ls_extinction_method     none
_refine_ls_goodness_of_fit_ref   0.972
_refine_ls_hydrogen_treatment    refall
_refine_ls_matrix_type           full
_refine_ls_number_parameters     46
_refine_ls_number_reflns         434
_refine_ls_number_restraints     8
_refine_ls_restrained_S_all      0.985
_refine_ls_R_factor_all          0.0188
_refine_ls_R_factor_gt           0.0188
_refine_ls_shift/su_max          0.000
_refine_ls_shift/su_mean         0.000
_refine_ls_structure_factor_coef Fsqd
_refine_ls_weighting_details
'w=1/[\s^2^(Fo^2^)+(0.0300P)^2^] where P=(Fo^2^+2Fc^2^)/3'
_refine_ls_weighting_scheme      calc
_refine_ls_wR_factor_gt          0.0436
_refine_ls_wR_factor_ref         0.0436
_reflns_Friedel_coverage         0.977
_reflns_Friedel_fraction_full    1.000
_reflns_Friedel_fraction_max     1.000
_reflns_number_gt                434
_reflns_number_total             434
_reflns_threshold_expression     'I > 2\s(I)'
_cod_data_source_file            jz9b02875_si_004.cif
_cod_data_source_block           1
_cod_original_cell_volume        713.76(11)
_cod_original_formula_sum
'C6 H13 Br1 N1 O3 (Because of the disorder situation, the three hydrogen atoms which should be connected with C2 are difficult to be added.)'
_cod_database_code               8000282
_shelx_shelxl_version_number     2014/7
_shelx_space_group_comment
;
The symmetry employed for this shelxl refinement is uniquely defined
by the following loop, which should always be used as a source of
symmetry information in preference to the above space-group names.
They are only intended as comments.
;
_shelx_res_file
;

    1.res created by SHELXL-2014/7


TITL 3 in R3m
CELL 0.71073   8.41550   8.41550  11.63760  90.0000  90.0000 120.0000
ZERR    1.00   0.00060   0.00060   0.00080   0.0000   0.0000   0.0000
LATT -3
SYMM -Y, X-Y, Z
SYMM -X+Y, -X, Z
SYMM -Y, -X, Z
SYMM -X+Y, Y, Z
SYMM X, X-Y, Z
SFAC C H N O BR
UNIT 18 48 3 9 3
TEMP 0

HTAB
ACTA
TWIN -1 0 0 0 -1 0 0 0 -1
DFIX 1.50 0.02 N1 C1 C1 C2 C2 O1
DFIX 1.00 0.02 N1 H1 C1 H2  C2 H5 O1 H6
L.S.40
BOND
FMAP 2
PLAN 40

WGHT    0.030000
SWAT    0.125441    0.6840
BASF   0.94470
FVAR       0.21008
BR1   5    0.333333    0.666667    0.293122    10.16667    0.03015    0.03015 =
         0.03069    0.00000    0.00000    0.01508
C2    1   -0.167262    0.167262    0.227547    10.50000    0.04355    0.04355 =
         0.03431    0.00029   -0.00029    0.03136
N1    3    0.000000    0.000000    0.265867    10.16667    0.02122    0.02122 =
         0.02305    0.00000    0.00000    0.01061
C1    1   -0.149272    0.037414    0.305142    10.50000    0.02606    0.03517 =
         0.03071    0.00149    0.00213    0.01960
O1    4   -0.189708    0.101634    0.113706    10.50000    0.07353    0.05236 =
         0.03313   -0.00922   -0.01592    0.04317
H1    2    0.000000    0.000000    0.180853    10.16667    0.03845
H2    2   -0.280526   -0.062344    0.318044    11.00000    0.20218
H5    2   -0.235912    0.235912    0.223407    10.50000    0.03690
H6    2   -0.191324    0.191324    0.056899    10.50000    0.29399
HKLF 4

REM  3 in R3m
REM R1 =  0.0188 for     434 Fo > 4sig(Fo)  and  0.0188 for all     434 data
REM     46 parameters refined using      8 restraints

END

WGHT      0.0238      0.0000

REM Instructions for potential hydrogen bonds
EQIV $1 x-1, y-1, z
HTAB C1 Br1_$1
EQIV $2 -y-1/3, x-y+1/3, z+1/3
HTAB C1 O1_$2
EQIV $3 x-2/3, y-1/3, z-1/3
HTAB O1 Br1_$3

REM Highest difference peak  0.260,  deepest hole -0.260,  1-sigma level  0.051
Q1    1   0.3793  0.7586  0.2577  10.50000  0.05    0.26
Q2    1   0.2872  0.7128  0.3319  10.50000  0.05    0.24
Q3    1  -0.0255  0.3094  0.2269  11.00000  0.05    0.17
Q4    1  -0.3279  0.0269  0.3586  11.00000  0.05    0.16
Q5    1  -0.0697  0.1849 -0.0363  11.00000  0.05    0.14
Q6    1  -0.4268 -0.2134  0.1786  10.50000  0.05    0.14
Q7    1  -0.0809  0.0809  0.4342  10.50000  0.05    0.14
Q8    1  -0.2328 -0.0613  0.4498  11.00000  0.05    0.13
Q9    1   0.3885  0.6115  0.1383  10.50000  0.05    0.12
Q10   1  -0.4033 -0.1357  0.2247  11.00000  0.05    0.12
Q11   1  -0.3782  0.2435  0.1202  10.50000  0.05    0.12
Q12   1  -0.3695 -0.1847  0.4302  10.50000  0.05    0.11
Q13   1   0.3269  0.8031  0.2886  11.00000  0.05    0.11
Q14   1  -0.2513  0.2513  0.1484  10.50000  0.05    0.10
Q15   1  -0.3048 -0.1524  0.4890  10.50000  0.05    0.10
Q16   1  -0.2748  0.2748  0.3009  10.50000  0.05    0.10
Q17   1  -0.0578  0.0578  0.2908  10.50000  0.05    0.09
Q18   1  -0.3935 -0.0553  0.2991  11.00000  0.05    0.09
Q19   1   0.3333  0.6667  0.4133  10.16667  0.05    0.09
Q20   1  -0.1607  0.2615 -0.0983  11.00000  0.05    0.09
Q21   1  -0.3155  0.2004  0.1795  11.00000  0.05    0.08
Q22   1  -0.3975  0.1024  0.1393  11.00000  0.05    0.08
Q23   1  -0.4215 -0.1697  0.3494  11.00000  0.05    0.08
Q24   1  -0.4575 -0.2288  0.4025  10.50000  0.05    0.08
Q25   1   0.3333  0.6667  0.1727  10.16667  0.05    0.07
Q26   1   0.0247  0.0493  0.0388  10.50000  0.05    0.07
Q27   1  -0.1643  0.0723  0.2670  11.00000  0.05    0.07
Q28   1  -0.3053  0.1658  0.2287  11.00000  0.05    0.07
Q29   1  -0.2989  0.1009  0.0237  11.00000  0.05    0.06
Q30   1   0.0021  0.4204  0.1854  11.00000  0.05    0.06
Q31   1  -0.2102  0.2102  0.3191  10.50000  0.05    0.06
Q32   1  -0.2369  0.3816  0.2911  10.50000  0.05    0.06
Q33   1   0.0617  0.1233  0.1328  10.50000  0.05    0.06
Q34   1  -0.0672  0.0672  0.1161  10.50000  0.05    0.06
Q35   1  -0.3392 -0.0167  0.1190  11.00000  0.05    0.05
Q36   1  -0.3333  0.3333  0.1694  10.16667  0.05    0.05
Q37   1   0.2364  0.4727  0.2527  10.50000  0.05    0.05
Q38   1  -0.4640  0.0721  0.2303  10.50000  0.05    0.04
Q39   1  -0.1383  0.0391  0.0891  11.00000  0.05    0.04
Q40   1  -0.2240  0.0013  0.1257  11.00000  0.05    0.04
;
_shelx_res_checksum              26050
_shelx_hkl_file
;
   1  -2   0  243.56   13.24
   1  -2   0  257.59   13.35
   1   1   0  243.06   13.33
  -2   1   0  226.95   13.29
   2  -1   0  257.58   13.32
  -1  -1   0  261.02   13.30
  -1  -1   0  244.02   13.33
  -1   2   0  234.76   13.23
  -1   2   0  244.56   13.34
  -1  -1   0  250.59   13.31
   2  -1   0  227.19   13.29
   0  -3   0  208.48   10.47
  -3   3   0  201.75   10.59
  -3   3   0  202.13   10.45
   3   0   0  215.42   10.58
   0  -3   0  203.90   10.59
   3   0   0  209.47   10.59
   3  -3   0  180.25   10.58
   3  -3   0  177.34   10.43
   0   3   0  186.61   10.56
  -3   0   0  176.55   10.54
   0   3   0  166.57   10.45
  -3   0   0  168.60   10.51
  -4   2   0  457.41   28.44
   2  -4   0  548.65   28.58
  -4   2   0  506.95   28.53
   2  -4   0  519.48   28.37
   4  -2   0  472.99   28.47
  -2  -2   0  550.90   28.54
  -2  -2   0  519.71   28.48
  -2   4   0  528.95   28.58
  -2   4   0  515.21   28.34
  -2  -2   0  578.16   28.55
   4  -2   0  537.22   28.54
  -2  -2   0  554.84   28.48
  -5   1   0  144.50    8.38
   4  -5   0  157.20    8.47
   4  -5   0  154.04    8.15
  -5   1   0  149.66    8.36
   5  -1   0  150.49    8.43
  -1  -4   0  149.98    8.28
  -1  -4   0  145.01    8.39
  -1  -4   0  146.51    8.38
  -1  -4   0  156.18    8.27
  -4   5   0  137.99    8.16
  -4   5   0  146.35    8.45
   5  -1   0  143.69    8.37
   1  -5   0  152.12    8.57
   4   1   0  154.81    8.57
  -5   4   0  144.80    8.35
  -5   4   0  139.81    8.51
   5  -4   0  150.90    8.55
  -1   5   0  150.33    8.34
  -4  -1   0  153.00    8.48
  -4  -1   0  162.31    8.49
  -1   5   0  148.96    8.52
  -4  -1   0  153.06    8.51
   5  -4   0  148.85    8.38
   3  -6   0  114.83    6.61
   3  -6   0  107.71    6.27
  -6   3   0  109.72    6.47
  -6   3   0  109.17    6.57
  -3  -3   0  114.54    6.53
  -3  -3   0  115.58    6.54
  -3   6   0  111.15    6.62
  -3   6   0  115.42    6.24
   6  -3   0  113.31    6.59
  -3  -3   0  119.17    6.47
   6  -3   0  112.02    6.52
  -3  -3   0  115.15    6.48
   0  -6   0  171.63    9.51
  -6   6   0  168.40    9.47
   0  -6   0  175.80    9.50
   6   0   0  168.23    9.79
   0  -6   0  168.27    9.74
  -6   6   0  168.48    9.77
   6  -6   0  166.65    9.43
  -6   0   0  169.92    9.70
   0   6   0  171.42    9.69
  -6   0   0  173.47    9.67
  -7   2   0   87.03    5.30
   5  -7   0   85.64    4.81
  -7   2   0   85.89    5.20
  -2  -5   0   81.03    5.22
  -2  -5   0   90.33    5.24
  -5   7   0   85.88    4.82
  -2  -5   0   88.01    5.09
  -2  -5   0   83.14    5.06
  -5   7   0   91.22    5.39
  -7   5   0   86.34    5.34
   2  -7   0   80.01    5.33
   2  -7   0   90.56    5.03
   5   2   0   87.72    5.45
   2  -7   0   87.35    4.94
  -7   5   0   87.44    5.10
   7  -5   0   85.13    5.13
  -2   7   0   83.70    5.30
  -5  -2   0   90.90    5.27
  -5  -2   0   92.26    5.25
  -8   1   0   38.54    2.82
  -8   1   0   38.44    2.92
  -1  -7   0   36.51    2.93
  -7   8   0   34.16    2.33
  -1  -7   0   35.30    2.55
  -7   8   0   34.07    3.02
  -8   4   0   72.21    4.42
  -8   4   0   63.24    4.58
  -4  -4   0   70.09    4.40
  -4   8   0   70.29    4.57
  -4  -4   0   73.74    4.37
  -8   7   0   33.42    2.90
   1  -8   0   35.37    2.51
   1  -8   0   33.40    2.31
  -8   7   0   34.05    2.46
  -1   8   0   34.49    2.73
  -7  -1   0   35.43    3.44
   8  -7   0   33.36    2.42
  -9   3   0   34.79    2.95
  -9   3   0   34.52    2.85
  -3  -6   0   31.56    2.64
  -6   9   0   28.11    2.93
  -3  -6   0   29.67    2.47
  -9   6   0   30.56    2.48
  -9   6   0   28.25    2.80
   3  -9   0   30.71    2.00
  -6  -3   0   30.40    3.83
  -3   9   0   36.06    3.36
  -6  -3   0   31.72    2.59
   0  -9   0   18.52    2.86
   0  -9   0   14.67    1.84
  -9   9   0   17.09    2.64
  -9   0   0   12.61    1.98
  -9   0   0   13.37    2.16
 -10   2   0   21.21    2.88
 -10   2   0   24.12    3.98
  -2  -8   0   21.40    2.35
  -2  -8   0   24.92    2.79
  -8  10   0   24.86    3.11
 -10   5   0   15.04    2.48
 -10   5   0   17.45    2.25
  -5  10   0   18.06    2.55
  -5  -5   0   16.21    2.09
  -5  -5   0   14.76    2.12
 -10   8   0   25.01    3.08
  -8  -2   0   22.66    2.46
  -2  10   0   21.98    2.77
  -8  -2   0   23.94    2.60
   0   1  -1   59.55    3.34
  -1   0  -1   61.41    3.36
   1  -1  -1   58.93    3.30
   0   1  -1   62.20    3.40
  -1   0  -1   60.83    3.32
   3  -2  -1  207.26   11.02
   3  -2  -1  201.56   10.94
  -1   3  -1  215.40   10.93
  -2  -1  -1  211.22   11.01
  -1   3  -1  212.21   11.08
  -2  -1  -1  216.63   10.97
  -3   2   1  180.62   10.92
   1  -3   1  198.69   10.92
   1  -3   1  174.90   11.17
   2   1   1  196.05   10.98
  -3   2   1  189.45   11.00
   2   1   1  198.17   11.01
   0  -2  -1  869.05   47.97
  -2   2  -1  835.36   47.97
  -2   2  -1  806.52   48.04
   2   0  -1 1000.00   48.06
   2  -2   1  889.56   47.98
  -2   0   1  965.73   48.05
   2  -2   1  909.18   48.05
  -2   0   1  826.54   47.99
  -3  -2  -1   54.36    3.29
  -2   5  -1   49.67    3.37
  -2   5  -1   52.42    3.13
  -3  -2  -1   52.39    3.25
   5  -3  -1   51.66    3.23
   5  -3  -1   51.49    3.33
  -3  -2  -1   52.08    3.25
  -5   3   1   55.75    3.21
   3   2   1   56.49    3.34
  -5   3   1   58.55    3.36
   2  -5   1   59.07    3.19
   3   2   1   56.15    3.34
   2  -5   1   58.10    3.46
   2  -3  -1  217.21   10.84
  -3   1  -1  215.32   10.83
  -3   1  -1  199.38   10.81
   1   2  -1  215.06   10.81
  -1  -2   1  169.59   10.93
  -2   3   1  190.24   10.84
  -1  -2   1  179.97   10.85
   3  -1   1  186.87   10.82
  -3   4  -1  129.69    7.46
  -1  -3  -1  135.09    7.49
  -1  -3  -1  135.44    7.55
  -1  -3  -1  144.17    7.49
  -1  -3  -1  134.45    7.53
   4  -1  -1  140.61    7.60
  -3   4  -1  135.24    7.66
   3  -4   1  135.63    7.47
  -4   1   1  131.42    7.54
  -4   1   1  138.15    7.55
   3  -4   1  135.02    7.65
  -4   1   1  126.70    7.59
  -4  -3  -1   72.01    4.35
   7  -4  -1   68.52    4.31
  -4  -3  -1   72.30    4.32
  -3   7  -1   75.44    4.12
  -3   7  -1   67.35    4.51
  -4  -3  -1   69.78    4.37
  -7   4   1   72.97    4.28
  -7   4   1   71.39    4.48
  -7   4   1   74.19    4.32
   3  -7   1   68.42    4.18
   0   4  -1  194.46   10.99
   4  -4  -1  178.41   10.93
  -4   0  -1  185.02   10.88
  -4   0  -1  183.80   10.91
   0   4  -1  191.27   10.85
   4  -4  -1  173.77   10.73
  -4   4   1  210.27   10.97
   4   0   1  210.48   10.99
  -4   4   1  203.77   10.74
   0  -4   1  209.80   10.85
   0  -4   1  202.69   11.02
   4   0   1  218.35   10.94
  -4   3  -1  133.76    7.47
   3   1  -1  138.87    7.63
  -4   3  -1  132.24    7.57
   1  -4  -1  133.22    7.36
   1  -4  -1  135.67    7.37
   1  -4  -1  137.95    7.54
  -3  -1   1  123.22    7.56
   4  -3   1  134.52    7.60
  -1   4   1  131.85    7.52
  -3  -1   1  133.67    7.53
  -3  -1   1  144.49    7.54
   4  -3   1  135.19    7.50
   6  -2  -1  123.11    7.81
  -2  -4  -1  137.17    7.69
  -4   6  -1  139.39    7.97
  -2  -4  -1  136.22    7.72
  -4   6  -1  133.39    7.59
  -2  -4  -1  128.85    7.76
  -2  -4  -1  139.59    7.77
  -6   2   1  144.25    7.78
  -6   2   1  139.02    7.78
  -6   2   1  137.08    7.87
   4  -6   1  146.35    7.63
   4  -6   1  137.12    7.94
  -4   9  -1   23.97    2.98
  -5  -4  -1   27.71    2.35
  -5  -4  -1   25.32    2.26
  -9   5   1   27.33    2.33
  -9   5   1   27.16    2.61
   6  -5  -1   67.26    4.05
  -1   6  -1   68.05    4.34
  -5  -1  -1   68.37    4.24
  -1   6  -1   69.42    4.10
  -5  -1  -1   67.71    4.21
  -6   5   1   71.73    4.04
   5   1   1   73.20    4.35
   1  -6   1   73.51    4.11
  -6   5   1   70.47    4.31
   1  -6   1   66.93    4.39
  -5   2  -1   50.77    3.36
  -5   2  -1   52.70    3.35
   3  -5  -1   48.52    3.35
   5  -2   1   60.18    3.41
   5  -2   1   57.89    3.39
  -2  -3   1   58.43    3.33
  -3   5   1   57.47    3.44
  -2  -3   1   56.91    3.43
  -2  -3   1   57.68    3.31
  -2  -3   1   56.38    3.45
   0  -5  -1  115.69    6.42
  -5   5  -1  111.31    6.70
   0  -5  -1  113.16    6.59
   5   0  -1  109.30    6.66
  -5   5  -1  108.13    6.47
   0  -5  -1  109.57    6.42
  -5   0   1  115.24    6.67
  -5   0   1  120.33    6.60
   5  -5   1  120.83    6.47
  -5   0   1  116.46    6.57
   0   5   1  117.48    6.55
   5  -5   1  119.32    6.74
  -3  -5  -1   22.68    1.95
  -3  -5  -1   20.65    2.02
  -5   8  -1   19.72    2.60
  -3  -5  -1   23.40    1.90
  -5   8  -1   22.70    1.55
  -8   3   1   22.02    2.21
  -8   3   1   21.05    1.97
  -6  -2  -1   51.80    3.56
  -6  -2  -1   51.76    3.61
  -2   8  -1   50.34    3.77
   2  -8   1   56.75    3.34
  -8   6   1   56.72    3.43
  -8   6   1   57.56    3.44
   2  -8   1   55.27    3.50
  -6   1  -1   67.74    4.14
   5  -6  -1   65.68    3.77
   5  -6  -1   62.93    4.22
  -6   1  -1   65.99    4.13
   6  -1   1   69.78    4.17
  -1  -5   1   71.53    4.04
   6  -1   1   61.54    4.52
  -1  -5   1   68.03    4.26
  -1  -5   1   73.19    4.05
  -5   6   1   70.71    4.25
  -1  -5   1   67.16    4.24
  -5   6   1   66.91    3.80
   2  -6  -1  130.82    7.79
   2  -6  -1  130.71    7.49
  -6   4  -1  126.66    7.83
   4   2  -1  133.79    7.93
   2  -6  -1  130.94    7.53
  -6   4  -1  130.68    7.70
   6  -4   1  144.06    7.77
  -4  -2   1  147.88    7.78
  -2   6   1  141.21    7.82
  -4  -2   1  144.19    7.87
  -4  -2   1  145.86    7.79
   6  -4   1  133.27    7.86
  -6   7  -1   19.69    1.67
  -1  -6  -1   19.35    1.89
  -6   7  -1   20.64    2.14
  -1  -6  -1   20.51    1.68
  -1  -6  -1   20.22    1.66
  -1  -6  -1   20.09    1.93
  -7   1   1   26.45    1.98
   6  -7   1   25.77    1.59
  -7   1   1   23.67    2.05
  -4  -6  -1   19.60    2.20
  -4  -6  -1   21.31    2.17
  -6  10  -1   17.04    2.72
 -10   4   1   18.44    2.50
 -10   4   1   19.06    2.68
  -3  10  -1   13.15    2.04
  -7  -3  -1   14.33    2.09
  -7  -3  -1   13.72    1.99
 -10   7   1   17.10    2.05
 -10   7   1   16.61    2.64
  -7   0  -1   30.16    2.44
   0   7  -1   28.47    2.64
  -7   7   1   35.17    2.04
   0  -7   1   33.36    2.23
   0  -7   1   28.27    2.31
  -7   7   1   30.46    2.10
   4  -7  -1   66.29    4.38
  -7   3  -1   70.27    4.35
  -7   3  -1   68.19    4.39
  -3  -4   1   70.25    4.42
  -3  -4   1   76.30    4.30
  -3  -4   1   70.26    4.43
  -4   7   1   71.07    4.47
  -7   6  -1   20.74    1.71
   1  -7  -1   19.43    1.90
   1  -7  -1   20.27    1.51
   1  -7  -1   18.47    1.55
  -1   7   1   25.00    1.88
   7  -6   1   22.33    1.69
  -7   9  -1   22.52    2.65
  -2  -7  -1   21.29    2.21
  -2  -7  -1   19.38    2.00
  -9   2   1   19.21    2.55
  -9   2   1   22.32    2.31
  -1   9  -1   15.75    2.49
  -8  -1  -1   14.67    2.04
  -8  -1  -1   16.22    2.10
   1  -9   1   12.60    1.63
  -9   8   1   12.27    1.96
  -2  -6   1   58.02    3.99
  -2  -6   1   58.58    3.73
  -8   5  -1   21.64    1.91
  -8   5  -1   21.01    2.18
  -5  -3   1   21.73    2.11
  -3   8   1   21.42    2.10
  -5  -3   1   22.57    1.96
  -8   8  -1   49.98    4.00
   0  -8  -1   59.57    3.91
  -8   8  -1   50.66    3.54
   0  -8  -1   56.15    3.49
  -8   0   1   53.88    3.82
  -8   0   1   56.64    3.96
  -9   1  -1   17.66    2.29
  -9   1  -1   15.07    2.26
  -8   9   1   12.65    1.96
  -1  -8   1   11.43    1.71
  -1  -8   1   15.84    2.61
  -9   4  -1   25.34    2.54
  -4  -5   1   24.65    2.42
  -4  -5   1   27.01    2.28
  -9   7  -1   22.48    2.12
  -9   7  -1   21.54    2.58
  -2   9   1   20.40    2.23
  -7  -2   1   19.49    2.30
  -7  -2   1   20.64    2.15
 -10   3  -1   10.46    1.89
 -10   3  -1   15.54    2.06
  -3  -7   1   14.37    2.00
  -7  10   1   12.81    2.04
  -3  -7   1   13.86    1.92
 -10   6  -1   19.90    2.69
 -10   6  -1   17.64    2.31
  -6  -4   1   19.52    2.39
  -4  10   1   17.71    2.47
  -6  -4   1   19.54    2.25
  -1   1  -2  389.05   19.55
  -1   1  -2  402.55   19.55
   1   0  -2  397.81   19.51
   0  -1  -2  385.57   19.49
   1   0  -2  379.53   19.56
  -1   0   2  332.10   19.49
   0   1   2  315.14   19.47
  -1   0   2  313.30   19.53
   1  -1   2  337.64   19.53
   1  -1   2  345.08   19.53
  -2   0  -2  318.29   19.09
   0   2  -2  328.65   19.10
  -2   0  -2  318.52   19.02
   2  -2  -2  319.85   19.05
   0   2  -2  364.28   19.19
   2  -2  -2  309.61   18.97
   0  -2   2  382.40   19.08
   2   0   2  366.83   19.11
  -2   2   2  373.03   18.98
  -2   2   2  355.85   19.07
   0  -2   2  381.33   19.19
   2   0   2  392.89   19.04
  -2   3  -2  236.43   13.77
  -2   3  -2  268.31   13.83
  -1  -2  -2  263.47   13.63
  -1  -2  -2  271.00   13.62
  -1  -2  -2  245.53   13.68
   3  -1  -2  271.17   13.76
   2  -3   2  252.15   13.71
   1   2   2  248.34   13.68
   2  -3   2  229.39   13.79
  -3   1   2  227.27   13.68
  -3   1   2  241.12   13.76
  -3  -1  -2  302.01   15.61
  -1   4  -2  297.55   15.82
  -3  -1  -2  276.49   15.68
  -1   4  -2  296.34   15.62
   4  -3  -2  297.57   15.72
   1  -4   2  272.43   15.82
   1  -4   2  286.69   15.62
  -4   3   2  267.21   15.70
  -4   3   2  274.86   15.56
   1  -3  -2  254.29   13.45
  -3   2  -2  260.70   13.61
   1  -3  -2  265.03   13.55
   2   1  -2  257.16   13.62
  -3   2  -2  261.42   13.65
   2   1  -2  257.42   13.71
   3  -2   2  241.55   13.63
  -1   3   2  228.42   13.54
  -2  -1   2  232.76   13.57
  -2  -1   2  229.60   13.67
   3  -2   2  242.65   13.61
  -3   5  -2  163.82    8.92
  -3   5  -2  159.76    9.16
   5  -2  -2  158.57    9.05
  -2  -3  -2  162.82    8.98
  -2  -3  -2  166.41    8.91
   2   3   2  173.18    9.02
  -5   2   2  149.21    8.95
   3  -5   2  166.45    8.96
  -5   2   2  166.42    8.97
  -5   2   2  148.89    9.04
   3  -5   2  151.73    9.15
  -4  -2  -2   94.34    5.62
  -2   6  -2   92.92    5.77
  -2   6  -2  100.11    5.50
   6  -4  -2   92.12    5.72
  -4  -2  -2  103.07    5.56
  -6   4   2   93.91    5.49
  -6   4   2   95.40    5.71
   2  -6   2   99.35    5.54
   4   2   2   99.33    5.73
  -6   4   2  102.00    5.51
   2  -6   2   87.63    5.81
   4   2   2   93.91    5.63
  -4   1  -2  282.36   15.49
   3  -4  -2  297.86   15.49
   1   3  -2  302.95   15.48
  -4   1  -2  289.28   15.46
   4  -1   2  287.28   15.45
  -3   4   2  269.57   15.46
  -1  -3   2  273.09   15.57
  -1  -3   2  254.88   15.54
   4  -1   2  273.85   15.51
  -1  -3   2  284.95   15.44
   0  -4  -2  183.97   10.15
  -4   4  -2  166.55   10.24
   4   0  -2  177.79   10.39
   0  -4  -2  167.57   10.15
  -4   4  -2  170.26   10.37
   0  -4  -2  173.59   10.20
   4  -4   2  193.98   10.41
  -4   0   2  197.32   10.32
   4  -4   2  202.18   10.28
  -4   0   2  186.22   10.39
  -4   0   2  198.53   10.29
   0   4   2  203.72   10.25
  -4   7  -2   57.86    3.21
  -3  -4  -2   57.61    3.38
  -4   7  -2   57.67    3.68
  -3  -4  -2   55.60    3.46
  -3  -4  -2   58.11    3.28
  -3  -4  -2   54.86    3.34
  -7   3   2   47.20    3.34
  -7   3   2   43.22    3.30
  -7   3   2   47.71    3.50
   4  -7   2   46.16    3.21
  -5  -3  -2   32.51    2.53
  -3   8  -2   34.40    2.30
  -3   8  -2   34.41    2.87
  -5  -3  -2   35.83    2.41
  -5  -3  -2   32.75    2.62
  -8   5   2   30.82    2.40
   3  -8   2   31.93    2.43
  -8   5   2   33.87    2.43
  -5   0  -2   90.74    4.56
   5  -5  -2   87.51    4.66
  -5   0  -2   91.07    4.64
   5   0   2   72.13    4.64
  -5   5   2   76.32    4.29
  -5   5   2   70.16    4.27
   0  -5   2   72.18    4.45
   5   0   2   71.77    4.52
  -5   5   2   67.83    4.56
   0  -5   2   68.92    4.70
   2  -5  -2  163.97    8.85
   3   2  -2  157.07    9.02
  -5   3  -2  156.03    8.86
  -5   3  -2  155.93    8.93
  -3  -2   2  161.11    8.96
  -2   5   2  157.39    8.88
   5  -3   2  167.67    8.92
  -3  -2   2  158.36    8.99
  -3  -2   2  160.01    8.86
   5  -3   2  152.47    8.92
  -3  -2   2  152.13    8.87
  -1  -5  -2   78.28    4.38
  -1  -5  -2   78.55    4.28
  -1  -5  -2   77.96    4.36
  -5   6  -2   80.08    4.67
  -5   6  -2   75.13    4.36
  -1  -5  -2   74.60    4.31
  -6   1   2   62.39    4.39
   5  -6   2   62.39    4.28
  -4  -5  -2   34.94    2.65
  -5   9  -2   32.29    2.30
  -5   9  -2   34.99    3.16
  -4  -5  -2   37.37    2.57
  -9   4   2   30.84    3.06
  -4  10  -2   17.52    2.81
  -6  -4  -2   21.20    2.27
  -6  -4  -2   21.27    2.11
 -10   6   2   19.49    2.77
  -6  -1  -2   41.57    2.99
  -6  -1  -2   45.33    2.90
  -1   7  -2   44.17    3.17
  -1   7  -2   45.39    2.86
   1  -7   2   39.80    2.84
  -7   6   2   45.18    2.66
  -7   6   2   41.39    3.06
   6   1   2   41.98    3.17
  -7   6   2   39.54    2.62
   4  -6  -2   97.15    5.68
  -6   2  -2   98.03    5.66
  -6   2  -2  100.89    5.69
  -2  -4   2   93.76    5.76
   6  -2   2   97.08    5.68
   6  -2   2   93.64    5.71
  -2  -4   2   97.43    5.59
  -2  -4   2   96.97    5.58
  -4   6   2   96.53    5.70
  -2  -4   2   91.65    5.76
   5   1  -2   74.17    4.46
  -6   5  -2   75.70    4.38
   1  -6  -2   73.39    3.93
   1  -6  -2   76.97    4.16
  -6   5  -2   73.68    4.15
  -5  -1   2   62.71    4.15
  -5  -1   2   60.47    4.28
  -1   6   2   60.52    4.07
   6  -5   2   60.42    4.08
  -6   8  -2   69.98    4.34
  -2  -6  -2   76.21    4.44
  -2  -6  -2   75.39    4.46
  -2  -6  -2   73.40    4.51
   6  -8   2   68.95    4.28
  -8   2   2   70.49    4.78
  -2   9  -2   22.21    2.62
  -7  -2  -2   21.59    2.25
  -7  -2  -2   24.47    2.15
  -9   7   2   21.40    1.94
  -9   7   2   20.81    2.60
   2  -9   2   21.06    1.94
  -7   1  -2   47.33    3.09
  -7   1  -2   50.07    3.19
  -1  -6   2   41.93    2.92
  -1  -6   2   44.29    3.33
  -6   7   2   38.78    3.14
  -7   4  -2   54.67    3.38
   3  -7  -2   53.43    3.24
  -7   4  -2   54.29    3.25
  -4  -3   2   47.10    3.37
  -3   7   2   47.25    3.28
  -4  -3   2   47.28    3.20
   7  -4   2   43.26    3.24
   0  -7  -2   41.76    2.65
  -7   7  -2   43.44    2.86
   0  -7  -2   41.93    2.85
   0  -7  -2   43.12    2.88
   0  -7  -2   40.82    2.65
   7  -7   2   36.77    2.70
  -7   0   2   37.83    3.43
  -3  -7  -2   14.19    2.00
  -7  10  -2   10.86    2.02
  -3  -7  -2   15.93    1.90
 -10   3   2   14.68    2.26
 -10   3   2   14.16    1.92
  -8   0  -2   51.83    3.71
  -8   0  -2   50.38    3.58
   0  -8   2   56.15    4.11
  -8   8   2   48.15    3.81
   0  -8   2   45.86    3.32
  -8   3  -2   31.55    2.79
  -8   3  -2   32.75    2.87
  -5   8   2   33.88    2.77
  -3  -5   2   31.57    2.47
  -3  -5   2   38.55    2.88
  -8   6  -2   71.64    4.46
  -8   6  -2   71.47    4.77
   2  -8  -2   72.44    4.14
   2  -8  -2   68.50    4.49
  -2   8   2   72.18    4.48
  -1  -8  -2   10.53    1.63
  -1  -8  -2   11.78    1.90
  -8   9  -2    9.67    1.93
  -9   1   2    7.53    1.45
  -9   1   2   11.11    1.87
  -9   2  -2   25.61    2.56
  -9   2  -2   24.08    2.47
  -2  -7   2   22.55    2.18
  -2  -7   2   19.63    2.71
  -7   9   2   22.46    2.69
  -9   5  -2   33.64    2.92
  -5  -4   2   33.27    2.60
  -4   9   2   32.28    2.79
  -5  -4   2   30.03    2.80
  -9   8  -2    9.70    1.49
  -9   8  -2   10.51    1.87
  -1   9   2   10.27    1.54
  -8  -1   2   11.57    1.81
  -8  -1   2   11.40    1.68
 -10   4  -2   21.96    2.69
 -10   4  -2   19.59    2.57
  -4  -6   2   22.66    2.30
  -6  10   2   20.96    2.82
  -4  -6   2   18.35    2.58
 -10   7  -2   16.95    2.71
  -7  -3   2   14.04    2.44
  -7  -3   2   14.09    2.09
   0   0  -3  446.68   25.65
   0   0  -3  443.26   25.67
   0   0   3  520.80   25.66
   0   0   3  483.28   25.67
   2  -1  -3  450.12   24.78
  -1   2  -3  469.26   24.92
   2  -1  -3  453.59   24.86
  -1   2  -3  456.73   24.85
  -2   1   3  425.40   24.87
   1   1   3  458.90   24.83
  -2   1   3  467.97   24.79
   1  -2   3  476.09   24.87
   1   1  -3  458.44   24.54
  -2   1  -3  465.67   24.55
   1  -2  -3  467.87   24.46
   1  -2  -3  454.27   24.45
  -2   1  -3  465.64   24.59
   2  -1   3  446.95   24.53
  -1   2   3  444.68   24.45
   2  -1   3  420.74   24.67
  -1   2   3  447.80   24.45
  -1  -1   3  464.77   24.64
  -1  -1   3  428.40   24.54
  -1  -1   3  456.40   24.72
  -2  -2  -3  128.58    7.42
   4  -2  -3  124.00    7.58
  -2   4  -3  128.23    7.53
  -2  -2  -3  123.06    7.55
  -2   4  -3  122.14    7.67
  -2  -2  -3  127.98    7.39
   2  -4   3  150.81    7.58
  -4   2   3  142.30    7.53
  -4   2   3  140.11    7.63
   2   2   3  151.48    7.58
  -4   2   3  145.71    7.51
   0   3  -3  284.80   15.36
   3  -3  -3  274.69   15.19
  -3   0  -3  259.95   15.22
   0   3  -3  277.17   15.18
  -3   3   3  275.17   15.19
   0  -3   3  277.46   15.34
   3   0   3  287.44   15.13
   0  -3   3  291.26   15.20
  -3   3   3  265.21   15.05
  -3   3   3  273.09   15.04
   3   0   3  283.30   15.25
  -3   3  -3  155.18    9.35
   3   0  -3  166.84    9.46
   0  -3  -3  151.61    9.24
   0  -3  -3  162.75    9.18
  -3   3  -3  158.07    9.43
   3   0  -3  155.32    9.33
   0   3   3  182.66    9.25
   0   3   3  184.16    9.20
   3  -3   3  181.02    9.38
  -3   0   3  170.34    9.44
  -3   0   3  174.95    9.33
   3  -3   3  179.08    9.46
  -3  -3  -3  119.96    6.99
   6  -3  -3  139.57    7.65
  -3   6  -3  121.90    7.24
  -3  -3  -3  120.87    6.89
  -3  -3  -3  128.71    6.85
  -3   6  -3  123.91    6.94
   3   3   3  123.31    7.04
   3  -6   3  124.78    7.00
  -6   3   3  121.49    6.93
  -6   3   3  118.55    6.96
  -6   3   3  113.81    7.09
   3  -6   3  112.03    7.26
   5  -4  -3  150.48    9.05
  -4  -1  -3  163.45    9.07
  -4  -1  -3  150.90    8.87
  -1   5  -3  158.97    8.95
  -1   5  -3  154.33    9.19
  -5   4   3  164.44    8.84
   1  -5   3  167.04    8.98
  -5   4   3  163.94    8.86
   4   1   3  163.01    8.96
  -5   4   3  162.53    9.07
   1  -5   3  157.21    9.24
   4   1   3  165.39    9.08
  -4   2  -3  122.25    7.93
  -4   2  -3  129.22    7.95
   2   2  -3  130.66    7.94
  -2  -2   3  148.93    7.95
  -2  -2   3  142.26    8.09
   4  -2   3  150.47    8.00
  -2   4   3  147.51    7.91
   4  -2   3  153.44    8.00
  -2  -2   3  153.18    8.06
  -1  -4  -3  179.14    9.20
  -4   5  -3  175.66    9.34
  -1  -4  -3  159.93    9.26
   5  -1  -3  165.84    9.45
  -1  -4  -3  158.86    9.24
  -4   5  -3  177.42    9.56
  -5   1   3  158.24    9.30
   4  -5   3  163.57    9.32
   4  -5   3  162.16    9.51
  -5   1   3  162.88    9.34
  -5   1   3  156.48    9.45
   1   4   3  176.41    9.29
  -4  -4  -3   58.25    3.85
  -4  -4  -3   60.32    3.66
  -4   8  -3   60.49    3.72
  -4  -4  -3   56.67    3.78
  -8   4   3   63.63    3.87
   4  -8   3   61.14    3.86
  -5  -2  -3   78.47    4.64
  -2   7  -3   78.02    4.89
  -2   7  -3   79.17    4.48
  -5  -2  -3   77.45    4.42
   5   2   3   70.26    4.60
  -7   5   3   73.52    4.38
  -7   5   3   71.25    4.37
   2  -7   3   72.72    4.53
  -7   5   3   70.56    4.68
  -5   1  -3  153.28    8.89
  -5   1  -3  151.95    8.97
   1   4  -3  160.78    8.93
   4  -5  -3  146.92    8.90
  -1  -4   3  146.13    9.07
   5  -1   3  169.18    8.93
  -1  -4   3  171.05    8.93
  -1  -4   3  157.82    9.08
  -4   5   3  161.29    8.95
   5  -1   3  168.32    9.04
   4   1  -3  182.36    9.75
   1  -5  -3  172.14    9.30
  -5   4  -3  168.61    9.52
  -5   4  -3  173.89    9.66
   1  -5  -3  182.46    9.42
   1  -5  -3  183.33    9.29
  -1   5   3  161.63    9.39
  -4  -1   3  154.17    9.61
   5  -4   3  163.27    9.64
  -4  -1   3  155.32    9.51
   5  -4   3  168.82    9.55
  -5   7  -3   68.69    4.64
  -2  -5  -3   70.07    4.14
  -2  -5  -3   67.97    4.19
  -2  -5  -3   68.98    4.18
  -2  -5  -3   68.57    4.24
  -5   7  -3   69.24    4.26
  -7   2   3   74.20    4.39
  -7   2   3   70.19    4.54
   5  -7   3   75.37    4.28
  -5  -5  -3   16.54    2.26
  -5  10  -3   15.71    2.74
  -5  -5  -3   20.45    2.19
 -10   5   3   16.93    2.70
 -10   5   3   17.85    2.35
  -3   9  -3   17.43    2.62
  -6  -3  -3   20.54    1.91
  -6  -3  -3   22.33    2.32
  -3   9  -3   21.94    2.00
  -9   6   3   22.25    1.99
  -9   6   3   20.18    2.46
  -6   0  -3  118.84    7.19
   0   6  -3  123.78    7.32
   0   6  -3  119.42    7.02
  -6   0  -3  122.47    6.99
   6   0   3  121.84    7.06
  -6   6   3  123.76    7.13
   0  -6   3  119.59    7.01
  -6   6   3  116.56    6.68
  -6   6   3  125.29    6.69
   3  -6  -3  126.53    6.85
  -6   3  -3  118.34    6.93
   3   3  -3  121.72    6.95
  -6   3  -3  122.82    6.91
  -3  -3   3  115.46    6.85
  -3   6   3  117.69    6.88
  -3  -3   3  112.48    6.97
   6  -3   3  112.81    6.90
  -3  -3   3  123.62    6.89
  -3  -3   3  120.37    7.08
   6  -3   3  122.64    6.97
   0  -6  -3  130.38    7.56
   0  -6  -3  133.94    7.48
  -6   6  -3  128.47    7.67
   0  -6  -3  121.75    7.51
  -6   6  -3  130.11    7.92
   0   6   3  143.49    7.58
   6  -6   3  137.22    7.69
  -6   0   3  139.32    7.94
  -6   0   3  141.21    7.76
  -3  -6  -3   23.54    2.00
  -3  -6  -3   25.82    2.24
  -6   9  -3   25.14    2.87
  -6   9  -3   26.43    2.13
  -9   3   3   24.22    2.46
  -9   3   3   26.97    2.90
  -7  -1  -3   31.53    2.70
  -1   8  -3   28.74    2.48
  -7  -1  -3   31.37    2.43
  -1   8  -3   26.16    3.34
  -8   7   3   33.56    2.14
  -8   7   3   31.40    2.78
   2   5  -3   76.99    4.55
  -7   2  -3   75.54    4.55
  -7   2  -3   76.87    4.51
  -5   7   3   68.10    4.52
  -2  -5   3   68.55    4.72
  -2  -5   3   67.58    4.40
  -7   5  -3   67.42    4.32
  -7   5  -3   67.61    4.49
   2  -7  -3   67.19    4.20
   7  -5   3   69.09    4.38
  -5  -2   3   73.80    4.53
  -2   7   3   73.01    4.23
  -1  -7  -3   34.56    2.48
  -1  -7  -3   34.22    2.47
  -7   8  -3   33.40    2.63
  -7   8  -3   35.24    3.11
  -1  -7  -3   34.94    2.47
  -8   1   3   33.82    2.74
  -8   1   3   29.54    2.92
  -2  10  -3   17.11    2.61
  -8  -2  -3   22.50    2.72
  -8  -2  -3   24.71    2.47
 -10   8   3   26.96    3.15
  -8   1  -3   30.87    2.80
  -8   1  -3   31.95    2.64
  -1  -7   3   32.47    2.61
  -1  -7   3   36.59    3.25
  -8   4  -3   55.68    3.91
  -8   4  -3   48.86    4.34
  -4  -4   3   63.55    4.27
  -4  -4   3   65.46    3.91
  -4   8   3   62.44    3.98
  -8   7  -3   33.82    2.64
   1  -8  -3   32.86    2.93
   1  -8  -3   33.05    2.18
  -8   7  -3   36.50    3.04
  -7  -1   3   30.46    2.61
  -7  -1   3   30.51    2.86
  -1   8   3   32.69    2.45
  -8  10  -3   20.60    2.73
  -2  -8  -3   18.45    2.38
 -10   2   3   21.94    3.15
 -10   2   3   22.46    2.72
  -9   0  -3   14.56    2.31
  -9   0  -3   16.18    2.52
  -9   9   3   20.77    2.87
   0  -9   3   16.98    2.12
  -9   3  -3   23.02    2.41
  -9   3  -3   23.79    2.42
  -3  -6   3   20.60    2.15
  -3  -6   3   19.91    2.69
  -9   6  -3   22.31    2.70
  -6  -3   3   24.29    2.71
  -6  -3   3   26.45    2.40
  -3   9   3   29.35    2.38
  -9   9  -3   10.57    1.91
  -9   0   3    7.32    1.50
  -9   0   3   11.32    1.93
 -10   2  -3   19.91    2.86
 -10   2  -3   22.78    2.78
  -2  -8   3   23.60    2.59
  -2  -8   3   23.42    3.43
  -8  10   3   25.37    3.18
 -10   5  -3   20.18    2.69
 -10   5  -3   15.74    2.40
  -5  -5   3   19.93    2.20
  -5  -5   3   12.89    1.97
  -5  10   3   14.52    2.40
 -10   8  -3   18.92    2.64
  -8  -2   3   23.12    2.92
   1  -1  -4  250.06   14.72
  -1   0  -4  256.57   14.81
   1  -1  -4  254.42   14.74
   0   1  -4  252.91   14.83
  -1   0  -4  270.31   14.71
   0   1  -4  259.72   14.78
   0  -1   4  291.15   14.86
  -1   1   4  275.15   14.73
   1   0   4  273.66   14.80
  -1   1   4  289.07   14.74
   1   0   4  281.16   14.71
   0  -1   4  288.69   14.79
  -1   3  -4   84.29    4.72
   3  -2  -4   83.11    4.61
  -1   3  -4   83.03    4.86
   3  -2  -4   82.85    4.71
  -2  -1  -4   82.32    4.73
  -2  -1  -4   83.62    4.52
  -3   2   4   78.41    4.70
   1  -3   4   84.49    4.71
   1  -3   4   83.64    4.87
   2   1   4   80.19    4.51
   2   1   4   81.40    4.69
  -3   2   4   75.13    4.66
   0  -2  -4  144.19    8.27
  -2   2  -4  153.22    8.28
   2   0  -4  151.27    8.19
  -2   2  -4  148.80    8.27
   2   0  -4  146.86    8.30
   2  -2   4  153.39    8.27
  -2   0   4  143.81    8.18
   0   2   4  146.91    8.14
   2  -2   4  146.31    8.26
  -2   0   4  143.06    8.28
  -3  -2  -4  121.38    6.68
  -3  -2  -4  122.62    6.41
  -2   5  -4  116.49    6.84
   5  -3  -4  117.29    6.68
  -2   5  -4  119.57    6.61
   3   2   4  102.04    6.44
  -5   3   4  112.54    6.68
  -5   3   4  115.28    6.52
   3   2   4  117.69    6.63
  -5   3   4  115.20    6.54
   2  -5   4  111.73    6.89
   2  -5   4  116.54    6.62
   2  -3  -4   84.72    4.55
  -3   1  -4   80.99    4.78
  -3   1  -4   83.32    4.71
   1   2  -4   83.92    4.73
   2  -3  -4   83.56    4.63
   3  -1   4   82.67    4.79
  -1  -2   4   84.46    4.73
   3  -1   4   81.68    4.70
  -2   3   4   80.08    4.56
  -1  -2   4   83.77    4.84
  -1  -2   4   76.94    4.85
  -3   4  -4  180.65   10.01
   4  -1  -4  179.45    9.97
   4  -1  -4  189.18   10.11
  -1  -3  -4  171.66    9.92
  -3   4  -4  181.00   10.14
   3  -4   4  176.14   10.14
  -4   1   4  171.22    9.93
   1   3   4  188.68    9.91
   3  -4   4  178.20   10.01
  -4   1   4  173.26   10.07
  -4  -3  -4   39.94    2.35
  -3   7  -4   36.47    2.97
  -3   7  -4   41.12    2.60
  -4  -3  -4   36.16    2.45
  -4  -3  -4   39.72    2.73
   3  -7   4   34.71    2.64
  -7   4   4   36.65    2.82
  -7   4   4   36.31    2.54
  -7   4   4   34.88    2.50
   0   4  -4   65.40    4.28
   4  -4  -4   66.49    4.05
  -4   0  -4   65.43    3.95
   0   4  -4   64.97    4.04
  -4   0  -4   65.77    4.12
   4   0   4   71.37    3.97
   4   0   4   71.14    4.14
   0  -4   4   66.12    4.26
   0  -4   4   71.09    4.07
  -4   4   4   71.46    4.08
  -4   4   4   71.92    3.85
  -4   4   4   69.00    3.84
  -4   3  -4  176.28    9.99
   3   1  -4  185.90    9.97
  -4   3  -4  178.12   10.02
   1  -4  -4  178.18    9.75
   1  -4  -4  179.76    9.78
   3   1  -4  184.97   10.13
  -1   4   4  176.28    9.77
   4  -3   4  181.10   10.01
  -3  -1   4  169.25   10.06
  -1   4   4  178.33    9.73
   4  -3   4  176.99    9.98
  -3  -1   4  172.26    9.92
  -4   6  -4   49.34    3.73
  -4   6  -4   52.24    3.50
  -2  -4  -4   49.74    3.23
  -2  -4  -4   53.36    3.22
  -2  -4  -4   50.90    3.47
  -6   2   4   63.84    3.56
  -6   2   4   61.07    3.51
  -6   2   4   59.76    3.70
   4  -6   4   60.61    3.55
   2   4   4   61.95    3.50
  -4   9  -4   27.70    2.98
  -4   9  -4   25.51    2.27
  -5  -4  -4   27.23    2.52
  -5  -4  -4   27.16    2.00
  -9   5   4   27.88    2.34
  -9   5   4   22.72    2.79
  -1   6  -4   48.87    3.27
  -5  -1  -4   56.29    3.19
  -5  -1  -4   51.72    3.42
  -1   6  -4   46.68    3.59
  -6   5   4   54.19    3.07
   5   1   4   53.02    3.30
   1  -6   4   50.45    3.33
  -6   5   4   50.10    3.38
  -6   5   4   52.33    3.05
  -5   2  -4  118.61    6.73
   2   3  -4  120.66    6.70
  -5   2  -4  120.81    6.70
   3  -5  -4  112.99    6.56
   5  -2   4  116.84    6.75
  -2  -3   4  116.69    6.80
  -2  -3   4  110.07    6.85
   5  -2   4  112.76    6.64
  -3   5   4  117.31    6.62
  -2  -3   4  116.16    6.67
  -5   5  -4   39.72    2.86
   0  -5  -4   37.89    2.44
   0  -5  -4   37.82    2.35
  -5   5  -4   36.80    2.67
   0  -5  -4   39.34    2.37
   5  -5   4   42.98    2.67
  -5   0   4   38.66    2.63
  -5   0   4   40.94    2.67
  -5   0   4   42.67    2.88
  -5   8  -4   30.09    2.89
  -3  -5  -4   31.33    2.00
  -3  -5  -4   29.02    2.07
  -5   8  -4   29.95    2.31
  -3  -5  -4   32.46    2.40
   5  -8   4   23.08    2.35
  -8   3   4   28.24    2.41
  -6  -2  -4   43.48    3.26
  -2   8  -4   40.26    3.02
  -2   8  -4   40.51    3.53
  -6  -2  -4   41.36    2.88
  -8   6   4   47.86    2.87
  -8   6   4   42.56    3.33
   6   2   4   50.25    3.42
   5  -6  -4   42.06    3.17
  -6   1  -4   48.16    3.15
  -6   1  -4   50.21    3.32
   1   5  -4   51.32    3.25
  -5   6   4   52.21    3.26
   6  -1   4   50.79    3.20
  -1  -5   4   51.56    3.58
  -6   4  -4   49.94    3.51
   2  -6  -4   52.03    3.31
  -6   4  -4   49.11    3.58
   4   2  -4   49.23    3.52
  -4  -2   4   62.20    3.55
  -4  -2   4   61.27    3.77
   6  -4   4   57.46    3.59
  -2   6   4   61.72    3.38
  -1  -6  -4   40.86    2.66
  -6   7  -4   38.50    2.84
  -1  -6  -4   41.44    2.50
  -1  -6  -4   38.86    2.48
  -1  -6  -4   37.49    2.53
   6  -7   4   36.04    2.80
  -7   1   4   39.70    3.12
  -7   1   4   39.32    2.86
  -6  10  -4    9.23    2.04
  -4  -6  -4    6.39    1.49
 -10   4   4   11.05    1.70
 -10   4   4    9.05    1.96
  -3  10  -4    9.05    2.07
  -7  -3  -4   12.73    1.84
 -10   7   4   13.17    2.15
   0   7  -4   31.18    2.60
  -7   0  -4   32.97    2.48
   0  -7   4   36.76    3.19
  -7   3  -4   36.91    2.74
  -7   3  -4   38.46    2.76
   4  -7  -4   34.57    2.56
   3   4  -4   40.31    2.77
  -3  -4   4   36.71    3.01
  -3  -4   4   36.21    2.65
  -4   7   4   38.31    2.69
   1  -7  -4   39.08    2.41
   1  -7  -4   38.03    2.37
  -7   6  -4   38.91    2.85
  -7   6  -4   38.49    3.06
   1  -7  -4   38.94    2.50
  -6  -1   4   38.65    3.07
  -1   7   4   38.70    2.52
  -7   9  -4   14.81    2.23
  -2  -7  -4   13.81    1.84
  -7   9  -4   14.51    2.04
  -9   2   4   10.97    1.65
  -9   2   4   10.37    1.91
  -8  -1  -4   11.61    1.80
  -1   9  -4    9.99    2.05
  -9   8   4    6.78    1.70
  -8   2  -4   40.73    3.10
  -8   2  -4   40.46    3.23
  -2  -6   4   41.85    3.59
  -2  -6   4   44.22    3.09
  -6   8   4   44.98    3.24
  -8   5  -4   26.82    2.55
  -8   5  -4   28.18    2.42
   3  -8  -4   26.71    2.18
  -3   8   4   25.09    2.12
  -5  -3   4   26.73    2.25
  -5  -3   4   23.25    2.55
   0  -8  -4   21.05    1.87
   0  -8  -4   20.79    1.96
  -8   8  -4   21.83    2.73
  -8   8  -4   19.20    2.41
  -8   0   4   25.83    2.41
  -8   0   4   25.25    2.76
  -9   1  -4   13.26    2.06
  -9   1  -4    9.10    1.70
  -8   9   4    5.74    1.61
  -1  -8   4    8.57    2.04
  -1  -8   4    6.77    1.46
  -9   4  -4   27.15    2.66
  -9   4  -4   27.19    2.60
  -5   9   4   22.55    2.51
  -4  -5   4   23.53    2.86
  -4  -5   4   25.37    2.40
  -9   7  -4   11.14    1.89
  -7  -2   4   13.50    1.96
  -7  -2   4   11.60    1.88
  -2   9   4   12.56    1.66
 -10   3  -4   10.50    1.82
 -10   3  -4   14.59    2.47
  -3  -7   4   10.50    1.66
  -3  -7   4   14.00    2.29
  -7  10   4   11.01    1.99
 -10   6  -4    7.68    1.65
 -10   6  -4    5.23    1.68
  -6  -4   4   12.73    2.00
  -6  -4   4    8.27    1.77
   0  -1  -5  151.76    7.47
   1   0  -5  148.89    7.43
  -1   1  -5  147.65    7.51
   0   1   5  139.12    7.29
   0   1   5  124.88    7.39
   0   1   5  116.27    7.28
  -1   0   5  122.27    7.43
  -1   0   5  125.67    7.39
   1  -1   5  126.05    7.44
  -1   0   5  126.40    7.41
   2  -2  -5  290.64   17.42
  -2   0  -5  306.91   17.42
   0   2  -5  326.17   17.53
   2  -2  -5  335.32   17.28
  -2   0  -5  331.01   17.25
   0   2  -5  310.68   17.36
  -2   2   5  320.49   17.31
   2   0   5  304.62   17.38
  -2   2   5  320.17   17.36
   2   0   5  312.54   17.23
   0  -2   5  326.46   17.37
   0  -2   5  316.06   17.45
  -1  -2  -5  228.05   12.83
  -2   3  -5  227.48   12.89
   3  -1  -5  224.40   12.78
  -2   3  -5  226.04   12.94
   3  -1  -5  231.98   12.93
   1   2   5  243.41   12.81
  -3   1   5  229.41   12.78
  -3   1   5  226.76   12.89
   2  -3   5  245.55   12.90
   2  -3   5  240.87   12.99
  -1   4  -5  158.07    9.10
  -3  -1  -5  167.38    8.70
  -1   4  -5  161.84    8.90
  -3  -1  -5  159.24    8.94
   4  -3  -5  154.56    8.88
   4  -3  -5  160.71    8.76
   1  -4   5  158.27    8.89
   1  -4   5  159.53    9.12
  -4   3   5  157.44    8.75
  -4   3   5  143.84    8.86
   3   1   5  155.53    8.68
   3   1   5  159.47    8.92
  -3   2  -5  236.24   13.21
  -3   2  -5  226.04   13.14
   1  -3  -5  229.48   12.92
   2   1  -5  224.31   13.09
  -2  -1   5  252.09   13.22
  -2  -1   5  248.18   13.28
  -2  -1   5  233.69   13.10
  -1   3   5  228.96   12.92
   3  -2   5  248.77   13.15
  -1   3   5  237.71   12.98
   3  -2   5  248.61   13.19
  -3   5  -5   98.79    5.66
  -2  -3  -5  101.45    5.44
   5  -2  -5   97.36    5.54
  -3   5  -5  104.54    5.50
   3  -5   5   80.97    5.60
   2   3   5   88.36    5.34
   3  -5   5   90.47    5.45
  -5   2   5   89.74    5.51
  -5   2   5   84.46    5.32
  -5   2   5   87.24    5.35
  -4  -2  -5   59.11    3.50
  -2   6  -5   58.91    4.12
  -4  -2  -5   61.26    3.86
  -2   6  -5   59.94    3.77
   4   2   5   55.51    3.65
   2  -6   5   61.14    3.86
  -6   4   5   62.71    3.91
  -6   4   5   62.04    3.65
  -6   4   5   62.98    3.63
  -4   1  -5  162.64    8.77
  -4   1  -5  164.75    8.90
   1   3  -5  165.43    8.82
   3  -4  -5  159.35    8.55
   3  -4  -5  161.90    8.72
  -1  -3   5  141.48    8.96
  -1  -3   5  153.30    8.80
   4  -1   5  156.97    8.88
  -1  -3   5  155.71    8.96
  -3   4   5  151.09    8.56
  -3   4   5  153.93    8.71
   4  -1   5  149.47    8.70
  -4   4  -5  104.59    6.28
   4   0  -5  108.32    6.34
   4   0  -5  102.47    6.14
  -4   4  -5  105.73    6.22
   0  -4  -5  105.67    6.03
   4  -4   5  104.91    6.26
  -4   0   5   97.63    6.08
   0   4   5  112.77    5.98
   4  -4   5  116.29    6.23
  -4   0   5  104.36    6.27
  -3  -4  -5   75.03    4.43
  -4   7  -5   72.77    4.41
  -7   3   5   70.06    4.36
   4  -7   5   64.37    4.46
  -3   8  -5   38.45    2.82
  -3   8  -5   37.93    3.39
  -5  -3  -5   39.31    2.47
  -5  -3  -5   38.75    2.96
  -8   5   5   37.51    2.69
  -8   5   5   35.32    2.72
  -8   5   5   36.38    3.12
   0   5  -5   99.53    5.51
   0   5  -5   94.96    5.85
  -5   0  -5   98.88    5.61
  -5   0  -5   99.11    5.37
   5  -5  -5   86.44    5.46
  -5   5   5   91.35    5.47
   5   0   5   89.16    5.35
  -5   5   5   91.30    5.15
  -5   5   5   89.27    5.17
   0  -5   5   86.64    5.49
   2  -5  -5   97.13    5.30
  -5   3  -5  100.62    5.61
  -5   3  -5  103.05    5.62
   3   2  -5  104.85    5.58
  -2   5   5   88.94    5.32
  -2   5   5   91.56    5.15
   5  -3   5   88.95    5.58
  -3  -2   5   86.55    5.48
   5  -3   5   92.62    5.54
  -3  -2   5   87.75    5.58
  -3  -2   5   90.36    5.70
  -5   6  -5   78.78    4.60
  -5   6  -5   77.89    4.80
  -1  -5  -5   74.62    4.38
   5  -6   5   67.23    4.51
  -6   1   5   69.83    4.91
  -6   1   5   70.38    4.48
   1   5   5   71.89    4.35
  -4  -5  -5   34.33    2.81
  -5   9  -5   33.47    2.74
  -5   9  -5   34.65    3.37
  -9   4   5   29.27    3.18
  -6  -4  -5    8.59    1.66
  -4  10  -5   10.19    2.22
 -10   6   5   12.43    2.12
  -6  -1  -5   44.36    2.70
  -1   7  -5   44.22    2.96
  -6  -1  -5   45.27    3.11
  -7   6   5   36.96    2.53
   6   1   5   34.59    2.94
  -7   6   5   39.09    2.51
   4  -6  -5   53.62    3.58
   2   4  -5   59.04    3.76
  -6   2  -5   63.33    3.76
  -6   2  -5   58.81    3.81
   6  -2   5   59.27    3.68
  -2  -4   5   57.23    4.03
  -4   6   5   59.46    3.68
  -6   5  -5   75.07    4.64
  -6   5  -5   78.86    4.80
   1  -6  -5   78.28    4.29
  -5  -1   5   69.81    4.55
  -5  -1   5   72.48    4.76
  -1   6   5   70.29    4.22
  -6   8  -5   22.53    2.25
  -6   8  -5   20.81    2.79
  -2  -6  -5   20.53    1.97
  -8   2   5   19.54    2.47
  -7  -2  -5   23.41    2.04
  -2   9  -5   19.95    3.08
  -7  -2  -5   23.95    2.60
  -9   7   5   21.71    2.71
   1   6  -5   45.01    3.15
  -7   1  -5   47.75    3.03
  -6   7   5   37.62    3.07
  -1  -6   5   41.02    3.64
  -7   4  -5   75.77    4.57
   3  -7  -5   69.25    4.17
  -7   4  -5   76.35    4.54
  -3   7   5   68.36    4.24
  -4  -3   5   58.41    4.63
   0  -7  -5   34.65    2.38
   0  -7  -5   36.92    2.24
  -7   7  -5   37.09    3.18
  -7   7  -5   36.10    2.87
  -7   0   5   29.73    2.98
  -7   0   5   29.03    2.66
  -3  -7  -5   24.34    2.58
  -7  10  -5   19.70    3.43
 -10   3   5   22.37    2.73
 -10   3   5   17.32    2.72
  -8   0  -5   26.32    2.40
   0   8  -5   25.89    2.66
  -8   0  -5   28.13    2.81
  -8   8   5   26.83    2.83
  -8   3  -5   35.51    3.24
  -8   3  -5   36.11    2.93
   3   5  -5   37.49    2.91
  -3  -5   5   35.30    3.33
  -3  -5   5   34.31    2.79
  -5   8   5   34.49    2.84
  -8   6  -5   22.39    2.70
  -8   6  -5   21.07    2.53
  -2   8   5   21.91    1.74
  -6  -2   5   21.48    2.52
  -6  -2   5   19.10    2.13
  -8   9  -5   19.57    3.15
  -9   1   5   20.72    2.92
  -9   1   5   22.07    2.55
  -9   2  -5   23.79    2.80
  -9   2  -5   24.60    2.61
  -2  -7   5   23.06    2.53
  -7   9   5   24.70    2.72
  -2  -7   5   22.86    3.36
  -9   5  -5   31.12    2.98
  -9   5  -5   32.34    3.03
  -5  -4   5   28.46    3.11
  -5  -4   5   30.31    2.68
  -4   9   5   29.97    2.60
  -9   8  -5   21.44    2.77
  -9   8  -5   18.24    2.92
  -8  -1   5   20.22    2.43
  -8  -1   5   21.55    2.90
 -10   4  -5    6.86    1.77
 -10   4  -5    8.24    1.81
  -6  10   5   11.86    1.94
  -4  -6   5    9.85    2.01
  -4  -6   5    9.84    1.63
 -10   7  -5   18.08    3.15
 -10   7  -5   21.28    2.92
  -7  -3   5   18.80    2.48
  -7  -3   5   17.93    3.01
   0   0  -6  457.50   27.73
   0   0   6  533.04   27.70
   0   0   6  536.01   27.74
   2  -1  -6  172.50    9.94
  -1   2  -6  183.22   10.10
   2  -1  -6  175.09   10.02
  -1  -1  -6  181.09   10.06
  -1   2  -6  179.27   10.06
   1  -2   6  176.68   10.01
  -2   1   6  187.07    9.96
  -2   1   6  176.15    9.99
   1   1   6  167.17    9.77
   1   1   6  184.90    9.78
   1   1   6  181.48   10.00
   1  -2   6  188.09   10.09
  -2   1  -6  183.57   10.04
  -2   1  -6  181.32   10.18
   1  -2  -6  177.28   10.03
   1  -2  -6  183.81    9.95
   1   1  -6  179.14   10.09
   2  -1   6  182.19   10.13
  -1  -1   6  176.00   10.16
  -1   2   6  181.43   10.02
  -1  -1   6  178.26   10.07
   2  -1   6  183.41   10.03
  -1  -1   6  183.43   10.14
  -1   2   6  180.70    9.93
  -2  -2  -6  105.31    6.62
   4  -2  -6  105.76    6.66
   4  -2  -6  102.33    6.50
  -2   4  -6  102.64    6.75
  -2   4  -6  104.39    6.65
   2   2   6  125.81    6.60
  -4   2   6  124.19    6.55
   2  -4   6  125.52    6.88
   2  -4   6  125.29    6.67
  -4   2   6  128.83    6.73
   3  -3  -6  110.70    6.58
  -3   0  -6  102.63    6.68
  -3   0  -6  111.66    6.83
   0   3  -6  113.86    6.78
   3  -3  -6  108.29    6.68
   0   3  -6  112.17    6.99
  -3   3   6  131.50    6.64
   3   0   6  125.05    6.57
  -3   3   6  121.98    6.69
   0  -3   6  126.79    6.80
   3   0   6  127.99    6.85
   0  -3   6  124.98    6.94
   3   0  -6  135.45    7.43
  -3   3  -6  133.89    7.54
   3   0  -6  137.42    7.62
  -3   3  -6  135.20    7.57
   0  -3  -6  136.23    7.42
   3  -3   6  127.35    7.52
   3  -3   6  126.16    7.49
   0   3   6  134.33    7.34
  -3   0   6  124.74    7.54
  -3   0   6  118.69    7.39
  -3  -3  -6   70.00    4.36
  -3   6  -6   67.43    4.61
  -3   6  -6   71.33    4.38
  -6   3   6   67.67    4.24
  -6   3   6   68.88    4.25
  -6   3   6   72.57    4.46
  -4  -1  -6  125.05    6.54
  -4  -1  -6  121.53    6.88
  -1   5  -6  119.16    7.09
  -1   5  -6  119.44    6.80
   5  -4  -6  107.68    6.76
  -5   4   6  122.13    6.60
   1  -5   6  113.57    6.83
  -5   4   6  117.43    6.60
  -5   4   6  114.38    6.78
   4   1   6  104.90    6.63
  -4   2  -6  104.67    6.85
  -4   2  -6  102.47    6.73
   2  -4  -6  101.82    6.55
   2   2  -6  105.28    6.73
   4  -2   6  125.80    6.88
  -2   4   6  127.24    6.54
  -2  -2   6  126.32    6.92
  -2  -2   6  131.46    7.02
   4  -2   6  128.00    6.76
  -2   4   6  123.85    6.59
  -2  -2   6  120.77    6.79
  -4   5  -6   85.79    5.17
   5  -1  -6   82.98    5.07
  -1  -4  -6   82.10    4.99
  -4   5  -6   83.99    5.26
  -5   1   6   91.11    5.26
  -5   1   6   78.25    5.02
   4  -5   6   85.86    5.15
   1   4   6   86.23    4.92
  -4  -4  -6   16.67    2.09
  -4   8  -6   15.11    2.54
  -4   8  -6   16.82    2.07
  -8   4   6   19.30    1.92
  -8   4   6   20.46    2.36
  -5  -2  -6   49.94    2.98
  -2   7  -6   47.14    3.38
  -5  -2  -6   46.80    3.48
  -2   7  -6   41.25    4.64
  -7   5   6   47.32    3.12
   5   2   6   54.48    3.13
  -7   5   6   48.58    3.10
   4  -5  -6  108.40    6.63
  -5   1  -6  124.63    6.70
   1   4  -6  119.99    6.78
  -4   5   6  119.61    6.40
  -1  -4   6  111.92    7.03
   5  -1   6  116.62    6.62
  -4   5   6  113.33    6.65
  -4   5   6  113.67    6.39
   1  -5  -6   86.36    4.91
   4   1  -6   80.89    5.12
  -5   4  -6   81.36    5.21
  -5   4  -6   82.51    5.23
   5  -4   6   83.40    5.20
  -4  -1   6   90.92    5.34
  -1   5   6   89.40    4.81
  -2  -5  -6   69.30    4.38
  -5   7  -6   70.54    4.54
  -7   2   6   69.57    4.45
  -5  10  -6   14.13    2.52
  -5  -5  -6   15.93    2.58
 -10   5   6   14.79    2.45
 -10   5   6   18.42    2.56
  -3   9  -6   20.22    3.08
  -6  -3  -6   23.42    2.59
  -9   6   6   20.58    2.68
  -9   6   6   17.25    2.68
   0   6  -6   38.71    2.96
  -6   0  -6   40.16    2.79
  -6   0  -6   39.81    3.18
  -6   6   6   39.70    2.48
   6   0   6   45.94    2.92
  -6   6   6   45.60    3.03
  -6   6   6   42.27    2.43
   3   3  -6   67.98    4.33
   3  -6  -6   64.61    4.03
  -6   3  -6   73.57    4.38
  -6   3  -6   68.41    4.42
  -3   6   6   66.33    4.10
  -3  -3   6   72.19    4.64
   6  -3   6   67.31    4.28
  -6   6  -6   47.33    3.57
   0  -6  -6   43.52    2.99
  -6   6  -6   44.95    3.36
   0   6   6   47.11    2.94
  -6   0   6   52.85    4.10
  -3  -6  -6   25.22    2.58
  -6   9  -6   20.89    3.22
  -9   3   6   27.61    2.67
  -9   3   6   30.60    3.17
  -1   8  -6   31.04    3.62
  -1   8  -6   29.69    2.76
  -7  -1  -6   27.94    2.88
  -7  -1  -6   31.10    2.37
  -8   7   6   29.27    2.87
   5  -7  -6   41.99    3.37
  -7   2  -6   49.33    3.26
  -5   7   6   46.78    3.21
  -2  -5   6   44.67    3.73
  -7   5  -6   64.72    5.01
  -7   5  -6   65.62    4.75
   2  -7  -6   58.84    3.68
  -5  -2   6   62.10    5.60
  -2   7   6   64.61    3.72
  -7   8  -6   28.06    3.10
  -7   8  -6   27.90    3.11
  -1  -7  -6   24.86    2.27
  -8   1   6   25.31    2.91
  -8   1   6   26.60    2.53
  -8   1  -6   30.83    3.01
   1   7  -6   30.19    2.87
  -8   1  -6   33.64    2.71
  -1  -7   6   34.98    3.63
  -7   8   6   30.53    2.97
  -8   4  -6   13.78    2.25
   4   4  -6   13.07    2.05
  -8   4  -6   15.99    2.20
  -4  -4   6   18.84    2.05
  -4   8   6   20.56    1.91
  -4  -4   6   16.01    2.50
  -8   7  -6   28.64    3.08
  -8   7  -6   22.05    2.71
  -7  -1   6   26.26    2.91
  -7  -1   6   27.66    2.58
  -9   3  -6   25.25    2.67
   3   6  -6   20.74    2.66
  -9   3  -6   23.95    2.86
  -3  -6   6   22.46    3.39
  -3  -6   6   24.51    2.59
  -9   6  -6   20.60    2.77
  -9   6  -6   20.50    2.89
  -6  -3   6   25.65    2.53
  -6  -3   6   22.74    2.86
 -10   5  -6   15.66    2.28
 -10   5  -6   14.44    2.18
  -5  -5   6   13.84    2.24
  -5  -5   6   11.79    1.80
  -1   0  -7  112.49    6.52
  -1   0  -7  112.14    6.34
   0   1  -7  114.16    6.49
   1  -1  -7  109.77    6.42
   0  -1   7  115.12    6.43
   0  -1   7  102.45    6.43
  -1   1   7  111.75    6.39
  -1   1   7  116.59    6.33
   1   0   7  115.27    6.45
   0  -1   7  113.31    6.43
  -1   1   7  110.58    6.34
   3  -2  -7  136.37    7.53
   3  -2  -7  135.12    7.63
  -2  -1  -7  140.02    7.74
  -1   3  -7  139.14    7.81
  -1   3  -7  141.22    7.72
   2   1   7  127.58    7.61
   1  -3   7  122.24    7.61
  -3   2   7  128.80    7.52
   1  -3   7  135.17    7.76
  -3   2   7  128.60    7.58
   0   2   7   80.62    4.75
  -2   0   7   82.80    4.83
  -2   0   7   83.14    4.88
   2  -2   7   80.30    4.85
  -2   0   7   80.82    4.79
   2  -2   7   81.64    4.83
   5  -3  -7   42.84    2.79
  -2   5  -7   45.42    3.26
  -3  -2  -7   45.22    3.06
  -2   5  -7   43.01    3.00
  -5   3   7   39.59    2.80
  -5   3   7   43.14    2.96
   1   2  -7  136.43    7.56
   2  -3  -7  139.79    7.40
  -3   1  -7  133.37    7.67
  -3   1  -7  139.17    7.45
   2  -3  -7  135.73    7.42
  -1  -2   7  130.56    7.65
   3  -1   7  127.44    7.58
   3  -1   7  134.16    7.41
  -2   3   7  124.62    7.34
  -1  -2   7  124.22    7.53
  -1  -2   7  127.98    7.68
  -2   3   7  128.61    7.41
   4  -1  -7   88.60    4.94
  -3   4  -7   89.07    5.12
  -3   4  -7   83.27    5.10
  -1  -3  -7   89.20    5.02
   4  -1  -7   88.13    5.16
   3  -4   7   76.77    5.02
   3  -4   7   76.21    5.09
  -4   1   7   83.17    5.06
  -4   1   7   77.30    4.90
   1   3   7   76.78    4.82
  -3   7  -7   47.87    3.49
  -4  -3  -7   47.70    3.51
  -7   4   7   45.44    3.50
  -7   4   7   49.73    3.26
  -4   0  -7   16.92    1.77
  -4   0  -7   15.00    1.30
   4  -4  -7   12.47    1.44
   0   4  -7   14.97    2.05
   0   4  -7   16.14    1.63
  -4   4   7   19.41    1.50
  -4   4   7   19.37    1.37
  -4   3  -7   87.83    5.29
  -4   3  -7   84.78    5.18
   1  -4  -7   91.02    5.04
   3   1  -7   87.48    5.12
   4  -3   7   84.12    5.14
  -1   4   7   83.22    4.91
  -3  -1   7   83.52    5.30
  -2  -4  -7   21.29    2.03
  -4   6  -7   20.88    2.17
  -6   2   7   26.21    2.30
  -6   2   7   21.61    1.96
  -4   9  -7   15.67    2.55
  -4   9  -7   16.06    2.47
  -5  -4  -7   14.11    2.01
  -9   5   7   16.86    2.41
  -9   5   7   13.28    2.12
  -5  -1  -7   51.30    3.70
  -1   6  -7   54.86    3.64
  -5  -1  -7   53.90    3.20
   5   1   7   48.96    3.26
  -6   5   7   54.07    3.62
  -6   5   7   53.62    3.26
  -6   5   7   52.47    3.28
  -5   2  -7   43.75    2.90
   3  -5  -7   42.32    2.53
   2   3  -7   44.77    2.94
   3  -5  -7   42.00    2.66
  -5   2  -7   44.97    3.16
  -3   5   7   41.27    2.69
  -3   5   7   41.13    2.50
   5  -2   7   43.31    2.83
   5   0  -7   72.96    4.65
  -5   5  -7   71.28    4.83
   0  -5  -7   77.22    4.56
  -5   5  -7   75.65    4.80
   0   5   7   75.39    4.37
  -5   0   7   75.44    4.84
  -5   8  -7   14.27    2.16
  -3  -5  -7   16.50    2.07
  -8   3   7   16.72    2.39
  -6  -2  -7    9.31    1.63
  -2   8  -7   11.35    1.63
  -8   6   7    8.68    1.63
  -8   6   7    6.27    1.12
   1   5  -7   55.76    4.36
  -6   1  -7   51.24    3.40
  -5   6   7   52.54    3.45
   6  -1   7   51.63    3.40
  -6   4  -7   19.53    2.12
   2  -6  -7   20.18    1.50
  -6   4  -7   19.77    2.15
   2  -6  -7   17.98    1.38
   4   2  -7   17.96    2.57
  -2   6   7   22.39    1.51
  -2   6   7   21.98    1.37
  -1  -6  -7   17.27    1.89
  -6   7  -7   15.42    2.46
  -6   7  -7   16.70    2.79
  -7   1   7   15.81    1.98
  -7   1   7   18.69    2.35
  -7   0  -7   20.73    2.54
  -7   0  -7   23.45    2.07
   0   7  -7   16.71    2.33
   0  -7   7   29.49    3.33
  -7   3  -7   53.19    3.49
  -7   3  -7   47.54    3.59
   3   4  -7   47.12    3.39
   4  -7  -7   41.89    3.04
  -4   7   7   43.67    3.12
  -3  -4   7   48.84    3.89
  -7   6  -7   16.95    2.51
   1  -7  -7   15.01    1.68
  -6  -1   7   21.26    2.08
  -6  -1   7   18.34    2.47
  -2  -7  -7   10.02    1.60
  -7   9  -7   11.89    1.97
  -7   9  -7    8.50    2.11
  -9   2   7    9.69    2.02
  -9   2   7    9.03    1.63
  -8   2  -7   10.19    1.55
   2   6  -7    9.58    1.58
  -8   2  -7    9.12    1.77
  -2  -6   7    9.08    1.99
  -6   8   7    9.33    1.51
  -8   5  -7   20.02    2.56
  -8   5  -7   17.61    2.47
   5   3  -7   13.97    2.16
  -5  -3   7   14.41    2.50
  -5  -3   7   15.83    2.13
  -8   8  -7   12.21    1.92
  -8   8  -7   13.89    2.22
  -8   0   7   10.69    2.02
  -8   0   7   10.25    1.68
   4   5  -7   14.05    2.06
  -9   4  -7   17.53    2.66
  -9   4  -7   19.00    2.80
  -4  -5   7   15.46    2.41
  -5   9   7   12.64    1.94
  -4  -5   7   13.20    2.22
  -9   7  -7    8.30    1.80
  -7  -2   7    7.19    1.50
  -7  -2   7    7.47    1.87
   1   0  -8  156.48    8.85
   0  -1  -8  157.98    8.90
  -1   1  -8  165.04    8.87
  -1   1  -8  159.74    8.95
   0   1   8  151.10    8.64
   1  -1   8  155.28    8.77
  -1   0   8  160.98    8.80
  -1   0   8  156.44    8.83
   1  -1   8  147.47    8.84
   0   1   8  154.60    8.82
  -1   0   8  148.68    8.80
   2  -2  -8   26.45    1.89
  -2   0  -8   24.53    1.73
  -2   0  -8   25.18    2.15
   0   2  -8   26.43    2.02
   2  -2  -8   26.08    1.82
   0  -2   8   25.40    1.97
   0  -2   8   23.88    1.97
  -2   2   8   25.68    1.77
  -2   2   8   24.79    1.81
  -2   2   8   25.13    1.85
   2   0   8   25.74    1.69
   0  -2   8   23.72    2.05
   3  -1  -8  145.46    8.18
  -2   3  -8  149.49    8.35
  -1  -2  -8  147.99    8.30
   3  -1  -8  143.82    8.29
  -2   3  -8  143.67    8.35
  -3   1   8  143.40    8.24
  -3   1   8  139.42    8.17
   2  -3   8  138.61    8.30
   1   2   8  139.42    8.16
  -3  -1  -8  136.66    7.84
  -1   4  -8  131.94    7.75
  -1   4  -8  134.74    7.96
   4  -3  -8  130.63    7.53
   4  -3  -8  126.21    7.65
  -4   3   8  134.58    7.65
  -4   3   8  132.65    7.55
   2   1  -8  141.42    8.20
  -3   2  -8  143.89    8.36
   1  -3  -8  146.37    8.16
  -3   2  -8  145.61    8.17
  -1   3   8  141.60    7.88
   3  -2   8  141.41    8.14
  -2  -1   8  150.43    8.37
  -1   3   8  142.88    8.07
  -2  -1   8  135.68    8.23
  -1   3   8  142.18    7.87
  -3   5  -8   84.40    5.65
  -3   5  -8   91.81    5.57
  -2  -3  -8   86.39    5.45
   5  -2  -8   85.96    5.34
  -5   2   8   95.71    5.55
  -2   6  -8   23.25    2.64
  -4  -2  -8   26.03    2.81
  -6   4   8   19.63    2.01
  -6   4   8   22.91    1.92
  -6   4   8   22.39    2.19
   1   3  -8  132.70    7.82
  -4   1  -8  140.76    8.01
   3  -4  -8  137.67    7.58
   3  -4  -8  133.60    7.62
  -4   1  -8  134.30    7.62
   4  -1   8  135.74    7.60
  -3   4   8  132.63    7.60
  -1  -3   8  128.95    8.00
  -3   4   8  133.03    7.58
   0  -4  -8   32.03    2.37
  -4   4  -8   30.31    2.60
  -4   4  -8   29.23    2.52
   4   0  -8   32.37    2.36
   0   4   8   29.74    2.11
  -4   0   8   33.13    2.55
  -4   7  -8   45.08    3.65
  -7   3   8   37.85    2.97
  -7   3   8   38.88    3.26
  -3   8  -8   28.05    3.52
  -5  -3  -8   26.39    2.92
  -3   8  -8   29.10    2.96
  -8   5   8   31.14    3.05
  -8   5   8   32.38    2.53
   5  -5  -8   48.55    3.05
  -5   0  -8   58.06    3.75
   5  -5  -8   56.41    4.19
  -5   0  -8   53.83    3.14
  -5   5   8   44.59    3.10
   5   0   8   47.36    3.12
  -5   5   8   47.77    3.33
   2  -5  -8   85.74    5.07
   2  -5  -8   87.27    4.91
  -5   3  -8   84.55    5.33
  -5   3  -8   83.68    5.50
   3   2  -8   83.00    5.30
   5  -3   8   86.77    5.29
  -2   5   8   89.82    4.97
  -3  -2   8   96.76    5.66
   6  -1  -8   40.27    3.08
  -1  -5  -8   47.24    3.11
  -5   6  -8   44.24    3.45
   1   5   8   35.47    2.80
  -6   1   8   41.60    3.28
  -4  -5  -8   22.67    2.86
  -5   9  -8   25.42    2.96
  -5   9  -8   21.73    3.45
  -9   4   8   17.73    3.01
  -9   4   8   22.24    2.60
  -1   7  -8   24.85    3.36
  -6  -1  -8   30.03    2.94
  -1   7  -8   26.23    2.71
  -7   6   8   29.78    2.75
  -6   2  -8   26.08    2.16
   4  -6  -8   24.13    1.92
   6  -2   8   20.84    2.05
  -4   6   8   22.92    1.93
   1  -6  -8   41.53    2.88
  -6   5  -8   41.48    3.46
   5   1  -8   44.79    3.18
  -5  -1   8   41.58    3.38
  -6   8  -8   21.99    2.70
  -6   8  -8   19.04    2.74
  -2  -6  -8   20.75    3.28
  -8   2   8   19.55    2.40
  -8   2   8   15.01    2.65
  -7   1  -8   33.38    3.20
  -7   1  -8   31.57    2.59
   1   6  -8   29.86    2.85
  -1  -6   8   37.63    3.55
  -6   7   8   29.64    2.70
  -7   4  -8   40.39    3.31
   4   3  -8   36.47    3.18
  -3   7   8   36.84    2.47
  -4  -3   8   35.74    3.46
  -7   7  -8   25.46    3.06
  -7   7  -8   21.84    2.84
  -7   0   8   19.97    2.39
  -7   0   8   23.58    2.90
   0   8  -8   17.11    2.31
  -8   0  -8   18.74    3.05
  -8   8   8   15.18    2.20
   0  -8   8   15.49    2.73
  -8   3  -8   29.64    3.23
   3   5  -8   25.14    2.82
  -8   3  -8   31.39    2.91
  -5   8   8   29.60    2.63
  -3  -5   8   32.06    3.67
  -8   6  -8   18.80    2.77
  -8   6  -8   18.10    2.83
  -6  -2   8   16.53    2.74
  -6  -2   8   15.99    2.27
  -9   5  -8   23.70    3.19
  -9   5  -8   20.45    3.01
  -5  -4   8   16.16    2.66
  -5  -4   8   13.66    2.32
   0   0   9   50.74    3.17
   0   0   9   52.99    3.13
   0   0   9   47.26    3.29
  -1  -1  -9  115.34    7.17
  -1   2  -9  116.63    7.20
  -1   2  -9  122.61    7.21
   2  -1  -9  117.05    7.08
   1   1   9  106.06    6.94
  -2   1   9  127.38    7.00
  -2   1   9  118.90    7.05
  -2   1   9  129.33    7.05
   1  -2   9  127.91    7.12
   1   1   9  124.65    7.10
   1   1   9  131.73    6.78
  -2   1  -9  118.47    7.10
  -2   1  -9  115.87    7.33
   1  -2  -9  119.55    7.21
   1   1  -9  110.91    7.21
   2  -1   9  128.51    7.06
  -1   2   9  130.74    7.18
  -1   2   9  130.38    6.96
  -1  -1   9  124.29    7.25
  -1   2   9  129.74    6.98
  -1  -1   9  128.62    7.24
  -2  -2  -9   20.21    2.09
  -2   4  -9   22.54    2.17
  -2   4  -9   18.01    2.15
   4  -2  -9   19.97    1.78
  -4   2   9   19.40    1.88
  -4   2   9   17.93    1.98
  -3   0  -9   86.92    5.66
  -3   0  -9   87.01    5.19
   3  -3  -9   88.69    5.37
   3  -3  -9   87.57    5.36
   0   3  -9   85.56    5.86
   3   0   9   98.48    5.19
  -3   3   9   94.02    5.35
  -3   3   9   89.77    5.36
   0  -3   9   97.53    5.71
  -3   3  -9   44.71    3.33
  -3   3  -9   44.28    3.20
   3   0  -9   41.33    3.06
   0  -3  -9   43.53    3.15
   3  -3   9   46.22    3.14
   0   3   9   47.93    3.00
  -3   0   9   52.25    3.29
   6  -3  -9   40.17    3.05
  -3   6  -9   47.19    3.61
  -3   6  -9   40.01    3.58
  -1   5  -9   44.75    3.93
  -4  -1  -9   51.16    3.79
   5  -4  -9   43.58    3.20
  -5   4   9   54.12    3.36
  -5   4   9   55.95    3.45
   2   2  -9   20.14    1.89
  -4   2  -9   19.19    1.71
   2  -4  -9   20.67    1.72
  -2   4   9   16.05    1.35
  -2   4   9   19.74    1.38
   4  -2   9   17.55    1.60
  -2   4   9   16.37    1.52
  -2  -2   9   19.81    2.16
  -1  -4  -9   56.14    3.85
   5  -1  -9   57.02    3.81
  -4   8  -9    8.29    1.80
  -4  -4  -9    9.66    1.79
  -4   8  -9    8.23    2.01
  -8   4   9   10.76    1.83
  -5  -2  -9   27.57    3.09
  -2   7  -9   25.79    3.35
  -2   7  -9   26.84    2.86
  -7   5   9   28.06    2.37
  -7   5   9   28.67    2.75
  -5   1  -9   48.93    3.19
   4  -5  -9   42.54    3.23
   4  -5  -9   44.53    3.05
  -5   1  -9   51.77    4.24
   5  -1   9   52.75    3.19
  -4   5   9   52.05    3.11
  -4   5   9   56.08    3.29
   4   1  -9   53.20    3.74
  -5   4  -9   55.78    3.85
   1  -5  -9   57.63    3.62
  -1   5   9   54.36    3.39
  -2  -5  -9   29.83    3.05
  -5   7  -9   23.34    3.07
  -5   7  -9   25.22    2.94
  -7   2   9   28.38    2.63
  -7   2   9   29.31    2.92
  -6   0  -9   27.03    2.09
  -6   0  -9   28.37    3.06
   0   6  -9   27.07    2.74
   0  -6   9   31.13    3.38
  -6   6   9   25.48    2.51
   3  -6  -9   38.95    2.64
  -6   3  -9   43.10    3.19
  -6   3  -9   43.61    3.55
  -3  -3   9   46.74    3.71
  -3   6   9   43.39    2.74
  -6   6  -9   18.35    2.68
   6   0  -9   19.51    2.36
  -6   6  -9   20.88    2.72
   0  -6  -9   20.30    2.21
  -6   0   9   24.08    2.69
  -1   8  -9   11.54    2.00
  -7  -1  -9   12.83    2.17
  -8   7   9   16.17    2.70
   1  -8   9   19.00    2.85
  -7   2  -9   28.10    3.15
  -7   2  -9   28.78    2.54
   2   5  -9   24.73    2.67
  -2  -5   9   35.16    3.47
  -5   7   9   24.13    2.41
   5   2  -9   19.62    2.41
  -7   5  -9   23.14    2.78
  -7   5  -9   21.49    2.83
  -5  -2   9   25.89    2.91
  -7   8  -9   15.74    2.55
  -7   8  -9   15.49    2.26
  -8   1   9   14.97    2.40
  -8   1   9   14.01    2.03
   1   7  -9   13.85    2.20
  -8   1  -9   16.64    2.47
  -7   8   9   13.52    2.01
  -8   4  -9   10.58    1.84
  -8   4  -9   10.99    2.07
   4   4  -9    8.71    1.66
  -4  -4   9   10.18    2.10
  -8   7  -9   11.72    2.11
  -8   7  -9   14.33    2.30
  -7  -1   9   10.78    1.82
  -7  -1   9   15.96    2.42
   1  -1 -10   63.46    4.42
   0   1 -10   61.87    4.47
  -1   0 -10   62.94    4.51
   1   0  10   69.45    4.17
  -1   1  10   72.68    4.22
  -1   1  10   75.40    4.19
   1   0  10   73.35    4.14
   0  -1  10   72.70    4.37
   0  -1  10   71.72    4.32
  -2  -1 -10   27.20    2.60
  -1   3 -10   31.41    2.72
   3  -2 -10   29.97    2.28
  -3   2  10   25.38    2.19
  -3   2  10   27.51    2.21
  -2   2 -10   69.11    4.06
   2   0 -10   68.20    4.06
   0  -2 -10   73.22    4.18
  -2   2 -10   70.65    4.29
   0   2  10   56.06    3.52
   0   2  10   53.32    3.58
   2  -2  10   52.58    3.86
  -2   0  10   57.57    3.97
  -3  -2 -10   35.42    3.09
   5  -3 -10   28.55    2.53
  -2   5 -10   34.41    3.17
  -2   5 -10   33.87    2.95
  -5   3  10   33.95    2.72
   2  -3 -10   29.37    2.25
  -3   1 -10   29.81    2.10
  -3   1 -10   25.66    3.39
  -2   3  10   26.17    1.89
   3  -1  10   26.78    1.99
  -2   3  10   27.58    1.94
  -2   3  10   23.63    2.17
  -1  -2  10   28.62    2.44
   4  -1 -10   44.24    3.29
  -3   4 -10   47.28    3.56
  -1  -3 -10   47.88    3.49
  -4   1  10   51.51    3.47
  -4  -3 -10   17.99    2.83
  -3   7 -10   19.01    3.08
  -3   7 -10   14.43    2.13
  -7   4  10   12.66    1.93
  -7   4  10   16.37    2.14
  -4   0 -10   30.99    2.03
   0   4 -10   30.51    2.64
   4  -4 -10   29.57    2.44
  -4   0 -10   31.72    2.89
   4  -4 -10   29.26    2.25
  -4   4  10   22.16    2.20
   1  -4 -10   50.17    3.35
   3   1 -10   46.60    3.38
  -4   3 -10   47.33    3.38
  -1   4  10   45.02    3.13
  -4   6 -10   19.35    2.68
  -4   6 -10   18.54    2.54
   6  -2 -10   15.23    2.12
  -6   2  10   12.97    2.16
  -1   6 -10   15.72    2.53
  -5  -1 -10   26.01    3.09
  -1   6 -10   19.26    2.66
   1  -6  10   24.72    2.97
  -6   5  10   24.86    2.08
  -5   2 -10   33.53    2.51
   3  -5 -10   30.54    2.36
  -3   5  10   32.05    2.21
   5  -2  10   30.68    2.45
  -2  -3  10   31.57    3.09
   5   0 -10   16.70    2.11
  -5   5 -10   14.98    2.34
  -5   5 -10   16.87    2.45
   0  -5 -10   16.88    2.12
  -5   0  10   18.00    2.32
  -3  -5 -10   12.79    2.09
  -5   8 -10    6.95    2.19
  -5   8 -10    7.65    1.94
  -8   3  10    9.51    1.86
  -8   3  10   11.03    1.80
   1   5 -10   16.59    2.47
  -6   1 -10   19.03    1.97
  -6   1 -10   22.90    3.05
  -5   6  10   21.59    2.12
  -1  -5  10   27.87    3.02
   2  -6 -10   13.50    1.73
  -6   4 -10   14.89    2.32
  -6   4 -10   16.41    2.16
   4   2 -10   14.87    2.11
  -4  -2  10   14.42    2.42
  -6   7 -10   12.81    2.27
  -6   7 -10   15.29    2.23
  -1  -6 -10   14.55    1.91
  -7   1  10   16.94    2.67
  -7   1  10   14.77    2.02
  -7   0 -10   10.97    2.34
   0   7 -10    9.90    1.81
   0  -7  10   12.13    2.45
  -7   7  10    9.40    1.79
   3   4 -10   13.38    1.95
  -7   3 -10   14.51    2.21
  -7   3 -10   15.85    2.52
  -3  -4  10   15.72    2.46
  -7   6 -10   13.54    2.25
  -7   6 -10   18.79    2.90
   6   1 -10   16.30    2.54
  -6  -1  10   17.68    2.83
  -8   5 -10    7.74    1.86
  -8   5 -10   10.79    2.12
   5   3 -10    9.25    1.85
  -5  -3  10    7.97    2.05
   1   0 -11   32.47    2.69
  -1   1 -11   25.89    3.51
   0  -1 -11   35.39    2.84
   1  -1  11   31.84    2.40
  -1   0  11   33.16    2.48
   1  -1  11   31.78    2.44
  -1   0  11   32.41    2.45
   0   1  11   32.40    2.24
   0   1  11   32.03    2.18
  -2   0 -11   88.48    5.57
   2  -2 -11   90.62    5.32
   0   2 -11   88.72    5.42
  -2   2  11   79.72    4.96
   2   0  11   74.59    4.88
  -2   2  11   86.63    5.04
   2   0  11   83.22    4.86
   0  -2  11   79.77    5.26
   3  -1 -11   50.01    3.72
  -1  -2 -11   55.58    3.91
  -2   3 -11   49.67    3.84
  -3   1  11   58.57    3.68
  -3  -1 -11   36.31    3.52
   4  -3 -11   41.26    3.10
  -1   4 -11   44.22    3.53
  -4   3  11   40.27    3.05
   1  -4  11   48.14    3.52
   2   1 -11   49.16    3.66
  -3   2 -11   47.20    4.82
   1  -3 -11   52.53    3.65
  -3   2 -11   48.70    3.48
  -1   3  11   51.96    3.05
   3  -2  11   49.23    3.39
  -2  -1  11   55.71    3.71
  -3   5 -11   33.51    3.27
  -2  -3 -11   38.05    3.17
   5  -2 -11   31.64    2.83
  -3   5 -11   32.48    3.27
  -5   2  11   34.03    3.34
  -4  -2 -11   24.74    3.19
  -2   6 -11   22.36    2.92
   6  -4 -11   20.54    2.36
  -2   6 -11   21.93    3.29
  -6   4  11   22.29    2.51
   1   3 -11   41.70    3.36
  -4   1 -11   43.73    2.90
  -4   1 -11   39.95    3.60
   3  -4 -11   42.09    3.10
  -3   4  11   44.03    2.87
  -3   4  11   40.62    3.16
  -1  -3  11   41.50    3.44
   4   0 -11   41.86    3.18
   0  -4 -11   39.61    3.21
  -4   4 -11   34.66    3.28
  -4   4 -11   40.60    3.44
  -4   0  11   41.32    3.27
  -3  -4 -11   22.73    3.03
  -4   7 -11   15.20    2.25
  -4   7 -11   13.63    2.41
  -7   3  11   19.14    2.67
  -7   3  11   19.08    2.51
   0   5 -11   20.34    2.62
  -5   0 -11   22.31    3.09
   5  -5 -11   17.34    1.97
   0  -5  11   23.97    2.94
  -5   5  11   20.45    2.19
   3   2 -11   34.29    2.95
  -5   3 -11   34.96    2.89
  -5   3 -11   30.33    3.26
   2  -5 -11   36.56    2.79
  -3  -2  11   35.14    3.20
  -5   6 -11   13.29    2.18
   6  -1 -11   16.61    2.45
  -5   6 -11   20.01    2.89
  -6   1  11   18.40    2.56
  -6   2 -11   25.63    2.33
  -6   2 -11   25.81    3.27
   2   4 -11   19.84    2.64
  -2  -4  11   21.82    3.19
   5   1 -11   17.04    2.51
  -6   5 -11   17.47    2.40
  -6   5 -11   14.87    2.14
  -5  -1  11   17.38    2.70
  -7   4 -11   22.56    3.29
   4   3 -11   18.62    2.77
  -7   4 -11   19.89    2.82
  -4  -3  11   19.41    3.08
   0   0 -12   71.69    4.70
   0   0  12   61.60    4.17
   0   0  12   68.69    4.23
   2  -1 -12   24.72    2.52
  -1   2 -12   23.84    2.76
  -1  -1 -12   21.84    2.77
   1  -2  12   25.98    2.38
  -2   1  12   25.88    2.22
   1   1  12   24.51    1.85
   1   1 -12   24.25    2.61
   1  -2 -12   23.33    2.47
  -2   1 -12   21.82    2.73
  -1  -1  12   25.23    2.36
   2  -1  12   23.51    2.09
  -1   2  12   24.04    1.92
   2  -1  12   20.36    2.19
  -2   4 -12   18.77    2.80
  -2  -2 -12   18.36    2.78
  -2   4 -12   22.79    2.81
   4  -2 -12   22.56    2.43
  -4   2  12   22.08    2.77
  -3   0 -12   15.47    2.28
   0   3 -12   18.37    2.52
   3  -3 -12   16.54    2.27
   0  -3  12   24.75    2.54
  -3   3  12   23.80    2.00
   3   0 -12   24.29    2.48
  -3   3 -12   21.17    2.48
   0  -3 -12   23.42    3.12
  -3   3 -12   20.75    2.84
   6  -3 -12    9.72    1.77
  -3   6 -12    7.62    2.06
  -3   6 -12   10.52    2.04
  -3  -3 -12    6.73    1.88
  -6   3  12   11.36    1.73
  -1   5 -12   20.49    2.84
  -4  -1 -12   20.78    3.11
   5  -4 -12   16.59    2.25
   2  -4 -12   22.07    2.47
   2   2 -12   19.78    2.55
  -4   2 -12   23.49    2.96
  -4   2 -12   21.54    2.25
  -2  -2  12   25.18    2.70
  -4   5 -12    7.42    1.81
  -4   5 -12    9.32    1.90
   5  -1 -12    9.74    1.66
  -1  -4 -12   10.24    1.79
  -5   1  12   11.93    1.76
   4  -5 -12   18.32    2.29
   1   4 -12   18.48    2.64
  -5   1 -12   21.23    3.22
  -1  -4  12   23.83    3.02
  -5   4 -12    7.62    1.64
  -5   4 -12    7.93    1.97
   4   1 -12    9.31    1.76
   1  -5 -12   11.72    1.74
  -4  -1  12   13.60    1.92
  -6   3 -12    7.51    2.06
   3   3 -12   11.54    1.88
  -6   3 -12   10.42    2.12
  -3  -3  12   10.15    1.99
  -1   0 -13   21.70    2.81
   0   1 -13   18.56    2.69
   1  -1 -13   24.04    2.73
   0  -1  13   20.43    2.24
   1   0  13   20.77    2.00
  -1   1  13   21.93    2.08
  -1   3 -13   15.82    2.67
  -2  -1 -13   18.37    2.95
   3  -2 -13   18.82    2.52
  -3   2  13   15.84    2.09
   1  -3  13   17.79    2.41
   2   0 -13   24.49    2.70
  -2   2 -13   20.93    2.91
   0  -2 -13   19.56    2.79
   2  -2  13   20.15    2.26
  -3  -2 -13   10.00    2.07
  -2   5 -13   10.67    2.15
   5  -3 -13    6.80    1.73
  -5   3  13    7.05    1.53
   2  -5  13    7.63    1.81
  -3   1 -13   15.05    2.23
   1   2 -13   18.49    2.60
   2  -3 -13   18.77    2.55
  -1  -2  13   14.57    2.41
   3  -1  13   16.14    2.02
  -3   4 -13   11.45    2.07
   4  -1 -13   13.64    2.01
  -1  -3 -13   18.46    2.30
  -3   4 -13   18.52    2.48
  -4   1  13   14.36    2.32
   0   4 -13   13.19    2.16
   4  -4 -13    8.55    2.06
  -4   0 -13   12.47    2.22
   0  -4  13   10.32    1.91
  -4   3 -13   15.71    2.44
  -4   3 -13   16.66    2.41
   1  -4 -13   15.84    2.58
   3   1 -13   13.20    2.00
  -3  -1  13   13.11    1.95
   2   3 -13    9.64    1.84
  -5   2 -13   10.17    2.21
  -2  -3  13    7.42    1.91
   1   0 -14   15.47    2.29
   0  -1 -14   14.83    2.20
  -1   1 -14   12.54    2.17
  -1   0  14   18.63    2.44
   1  -1  14   15.21    2.12
   0   2 -14   16.91    2.42
  -2   0 -14   19.58    3.18
   2  -2 -14   19.06    2.89
   0  -2  14   15.43    2.46
  -2   3 -14   21.88    3.32
  -1  -2 -14   23.75    3.37
   3  -1 -14   22.12    3.04
   2  -3  14   22.29    2.73
  -3   1  14   24.42    2.66
   1  -3 -14   18.56    2.96
  -3   2 -14   20.63    3.25
   2   1 -14   21.08    3.03
  -2  -1  14   20.71    2.66
   0   0 -15   22.57    3.42
   0   0   0    0.00    0.00
;
_shelx_hkl_checksum              66513
loop_
_space_group_symop_operation_xyz
'x, y, z'
'-y, x-y, z'
'-x+y, -x, z'
'-y, -x, z'
'-x+y, y, z'
'x, x-y, z'
'x+2/3, y+1/3, z+1/3'
'-y+2/3, x-y+1/3, z+1/3'
'-x+y+2/3, -x+1/3, z+1/3'
'-y+2/3, -x+1/3, z+1/3'
'-x+y+2/3, y+1/3, z+1/3'
'x+2/3, x-y+1/3, z+1/3'
'x+1/3, y+2/3, z+2/3'
'-y+1/3, x-y+2/3, z+2/3'
'-x+y+1/3, -x+2/3, z+2/3'
'-y+1/3, -x+2/3, z+2/3'
'-x+y+1/3, y+2/3, z+2/3'
'x+1/3, x-y+2/3, z+2/3'
loop_
_atom_site_label
_atom_site_type_symbol
_atom_site_fract_x
_atom_site_fract_y
_atom_site_fract_z
_atom_site_U_iso_or_equiv
_atom_site_adp_type
_atom_site_occupancy
_atom_site_site_symmetry_order
_atom_site_calc_flag
_atom_site_refinement_flags_posn
_atom_site_refinement_flags_adp
_atom_site_refinement_flags_occupancy
Br1 Br 0.3333 0.6667 0.29312(2) 0.0303(3) Uani 1 6 d S T P
C2 C -0.1673(3) 0.1673(3) 0.2275(4) 0.0362(10) Uani 1 2 d DS T P
N1 N 0.0000 0.0000 0.2659(5) 0.0218(11) Uani 1 6 d DS T P
C1 C -0.1493(9) 0.0374(10) 0.3051(6) 0.0287(12) Uani 0.5 1 d D . P
O1 O -0.1897(7) 0.1016(7) 0.1137(4) 0.0478(18) Uani 0.5 1 d D . P
H1 H 0.0000 0.0000 0.181(3) 0.04(3) Uiso 1 6 d DS . P
H2 H -0.281(6) -0.062(11) 0.318(10) 0.20(6) Uiso 1 1 d D . .
H5 H -0.236(2) 0.236(2) 0.223(5) 0.037(15) Uiso 1 2 d DS . P
H6 H -0.191(14) 0.191(14) 0.057(18) 0.29(12) Uiso 1 2 d DS . P
loop_
_atom_site_aniso_label
_atom_site_aniso_U_11
_atom_site_aniso_U_22
_atom_site_aniso_U_33
_atom_site_aniso_U_23
_atom_site_aniso_U_13
_atom_site_aniso_U_12
Br1 0.0302(3) 0.0302(3) 0.0307(4) 0.000 0.000 0.01508(14)
C2 0.044(2) 0.044(2) 0.034(2) 0.0003(9) -0.0003(9) 0.031(2)
N1 0.0212(16) 0.0212(16) 0.023(3) 0.000 0.000 0.0106(8)
C1 0.026(3) 0.035(3) 0.031(3) 0.001(2) 0.002(2) 0.020(2)
O1 0.074(5) 0.052(4) 0.033(2) -0.009(2) -0.016(2) 0.043(4)
loop_
_atom_type_symbol
_atom_type_description
_atom_type_scat_dispersion_real
_atom_type_scat_dispersion_imag
_atom_type_scat_source
C C 0.0033 0.0016 'International Tables Vol C Tables 4.2.6.8 and 6.1.1.4'
H H 0.0000 0.0000 'International Tables Vol C Tables 4.2.6.8 and 6.1.1.4'
N N 0.0061 0.0033 'International Tables Vol C Tables 4.2.6.8 and 6.1.1.4'
O O 0.0106 0.0060 'International Tables Vol C Tables 4.2.6.8 and 6.1.1.4'
Br Br -0.2901 2.4595 'International Tables Vol C Tables 4.2.6.8 and 6.1.1.4'
loop_
_geom_angle_atom_site_label_1
_geom_angle_atom_site_label_2
_geom_angle_atom_site_label_3
_geom_angle
_geom_angle_site_symmetry_1
_geom_angle_site_symmetry_3
O1 C2 O1 30.4(4) . 4
O1 C2 C1 109.0(4) . .
O1 C2 C1 119.5(4) 4 .
O1 C2 C1 119.5(4) . 4
O1 C2 C1 109.0(4) 4 4
C1 C2 C1 37.0(5) . 4
C1 N1 C1 111.3(3) . 3
C1 N1 C1 138.7(6) . 5
C1 N1 C1 36.3(5) 3 5
C1 N1 C1 77.3(5) . 6
C1 N1 C1 138.7(6) 3 6
C1 N1 C1 111.3(3) 5 6
C1 N1 C1 36.3(5) . 4
C1 N1 C1 77.3(5) 3 4
C1 N1 C1 111.3(3) 5 4
C1 N1 C1 111.3(3) 6 4
C1 N1 C1 111.3(3) . 2
C1 N1 C1 111.3(3) 3 2
C1 N1 C1 77.3(5) 5 2
C1 N1 C1 36.3(5) 6 2
C1 N1 C1 138.7(6) 4 2
C1 C1 C2 71.5(3) 4 .
C1 C1 N1 71.8(3) 4 .
C2 C1 N1 111.8(5) . .
C1 C1 C1 119.999(1) 4 6
C2 C1 C1 142.0(3) . 6
N1 C1 C1 51.4(3) . 6
O1 O1 C2 74.8(2) 4 .
loop_
_geom_bond_atom_site_label_1
_geom_bond_atom_site_label_2
_geom_bond_distance
_geom_bond_site_symmetry_2
C2 O1 1.411(6) .
C2 O1 1.411(6) 4
C2 C1 1.483(7) .
C2 C1 1.483(7) 4
N1 C1 1.511(6) .
N1 C1 1.511(6) 3
N1 C1 1.511(6) 5
N1 C1 1.511(6) 6
N1 C1 1.511(6) 4
N1 C1 1.511(6) 2
C1 C1 0.941(14) 4
C1 C1 1.886(13) 6
O1 O1 0.741(11) 4
