#------------------------------------------------------------------------------
#$Date: 2019-10-31 02:35:00 +0200 (Thu, 31 Oct 2019) $
#$Revision: 220571 $
#$URL: file:///home/coder/svn-repositories/cod/cif/8/00/03/8000312.cif $
#------------------------------------------------------------------------------
#
# This file is available in the Crystallography Open Database (COD),
# http://www.crystallography.net/
#
# All data on this site have been placed in the public domain by the
# contributors.
#
data_8000312
loop_
_publ_author_name
'Malaspina, Lorraine A.'
'Wieduwilt, Erna K.'
'Bergmann, Justin'
'Kleemiss, Florian'
'Meyer, Benjamin'
'Ruiz-L\'opez, Manuel F'
'Pal, Rumpa'
'Hupf, Emanuel'
'Beckmann, Jens'
'Piltz, Ross O.'
'Edwards, Alison J.'
'Grabowsky, Simon'
'Genoni, Alessandro'
_publ_section_title
;
 Fast and Accurate Quantum Crystallography: From Small to Large, from
 Light to Heavy.
;
_journal_name_full               'The journal of physical chemistry letters'
_journal_page_first              6973
_journal_page_last               6982
_journal_paper_doi               10.1021/acs.jpclett.9b02646
_journal_year                    2019
_chemical_absolute_configuration syn
_chemical_formula_moiety         'C3 H7 N O2'
_chemical_formula_sum            'C3 H7 N O2'
_chemical_formula_weight         89.0947
_space_group_IT_number           19
_space_group_name_Hall           'P 2ac 2ab'
_space_group_name_H-M_alt        'P 21 21 21'
_symmetry_cell_setting           orthorhombic
_symmetry_Int_Tables_number      19
_symmetry_space_group_name_Hall  'P 2ac 2ab'
_symmetry_space_group_name_H-M   'P 21 21 21'
_atom_sites_solution_hydrogens   difmap
_audit_creation_date             2018-12-20T16:47:26-00:00
_audit_creation_method           'WinGX routine CIF_UPDATE'
_cell_angle_alpha                90
_cell_angle_beta                 90
_cell_angle_gamma                90
_cell_formula_units_Z            4
_cell_length_a                   5.9279(10)
_cell_length_b                   12.2597(17)
_cell_length_c                   5.7939(9)
_cell_measurement_reflns_used    1524
_cell_measurement_temperature    23
_cell_measurement_theta_max      22.50
_cell_measurement_theta_min      15.00
_cell_measurement_wavelength     0.71073
_cell_volume                     421.07(11)
_computing_publication_material  'WinGX publication routines (Farrugia, 2012)'
_computing_structure_refinement
'Tonto 18.12.17 github v. 2b3dd9c (Capelli, 2014)'
_computing_structure_solution    'SHELXS-2013 (Sheldrick, 2008)'
_diffrn_ambient_temperature      23
_diffrn_measured_fraction_theta_full 0.994
_diffrn_measured_fraction_theta_max 0.993
_diffrn_measurement_device_type  'P-1 four circle diffractometer'
_diffrn_measurement_method       'area detector'
_diffrn_radiation_probe          x-ray
_diffrn_radiation_type           MoK\a
_diffrn_radiation_wavelength     0.71073
_diffrn_reflns_av_unetI/netI     0.0243
_diffrn_reflns_Laue_measured_fraction_full 0.994
_diffrn_reflns_Laue_measured_fraction_max 0.993
_diffrn_reflns_limit_h_max       12
_diffrn_reflns_limit_h_min       0
_diffrn_reflns_limit_k_max       26
_diffrn_reflns_limit_k_min       0
_diffrn_reflns_limit_l_max       12
_diffrn_reflns_limit_l_min       0
_diffrn_reflns_number            2519
_diffrn_reflns_point_group_measured_fraction_full 0.618
_diffrn_reflns_point_group_measured_fraction_max 0.567
_diffrn_reflns_theta_full        25.242
_diffrn_reflns_theta_max         50.138
_diffrn_reflns_theta_min         3.323
_diffrn_standards_number         0
_exptl_absorpt_coefficient_mu    0.117
_exptl_absorpt_correction_type   none
_exptl_crystal_colour            colorless
_exptl_crystal_density_diffrn    1.406
_exptl_crystal_density_method    'not measured'
_exptl_crystal_description       sphere
_exptl_crystal_F_000             192
_exptl_crystal_size_rad          0.18
_refine_diff_density_max         0.2846
_refine_diff_density_min         -0.2722
_refine_diff_density_rms         0.0343
_refine_ls_abs_structure_details
;
No quotients, so Flack parameter determined by classical intensity fit
;
_refine_ls_abs_structure_Flack   0.6(5)
_refine_ls_extinction_method     none
_refine_ls_goodness_of_fit_all   2.28
_refine_ls_goodness_of_fit_gt    2.28
_refine_ls_hydrogen_treatment    refall
_refine_ls_matrix_type           full
_refine_ls_number_constraints    35
_refine_ls_number_parameters     83
_refine_ls_number_reflns         2405
_refine_ls_number_restraints     0
_refine_ls_R_factor_all          0.0284
_refine_ls_R_factor_gt           0.0284
_refine_ls_shift/su_max          0
_refine_ls_shift/su_mean         0
_refine_ls_structure_factor_coef F
_refine_ls_weighting_details     w=1/\s(F)
_refine_ls_weighting_scheme      sigma
_refine_ls_wR_factor_all         0.0317
_refine_ls_wR_factor_gt          0.0317
_refine_ls_wR_factor_ref         0.0694
_reflns_Friedel_coverage         0
_reflns_Friedel_fraction_full    0
_reflns_Friedel_fraction_max     0
_reflns_number_gt                2405
_reflns_number_total             2405
_reflns_threshold_expression     'F>0 & F/u(F)>3.0 & |F_calc|>10^-3'
_iucr_refine_instructions_details
;
!!!!!!!!!!!!!!!!!!!!!!!!!!!!!!!!!!!!!!!!!!!!!!!!!!!!!!!!!!!!!!!!!!!!!!!!!!!!!!!
!!!                                                                         !!!
!!!                        This stdin was written with lamaGOET             !!!
!!!                                                                         !!!
!!!                    script written by Lorraine Andrade Malaspina         !!!
!!!                        contact: lorraine.malaspina@gmail.com            !!!
!!!                                                                         !!!
!!!!!!!!!!!!!!!!!!!!!!!!!!!!!!!!!!!!!!!!!!!!!!!!!!!!!!!!!!!!!!!!!!!!!!!!!!!!!!!
{ 

   keyword_echo_on

   name= L-Ala_23K_tonto_IAM

   ! Process the CIF
   CIF= {
       file_name= L-ala_experiment.cif
    }

   process_CIF

   name= L-Ala_23K_tonto_IAM

   crystal= {
      xray_data= {
         optimise_extinction= NO
         correct_dispersion=  FALSE
         wavelength= 0.71073 Angstrom
         REDIRECT L-ala_experiment.hkl
         f_sigma_cutoff= 3
         refine_H_U_iso= YES

         show_fit_output= TRUE
         show_fit_results= TRUE
      }

   }
   
   set_isotropic_h_adps 

   put

   ! Refine atoms with invarioms
   IAM_refinement

}
;
_cod_data_source_file            L-Ala_23K.cif
_cod_data_source_block           L-Ala_23K_tonto_IAM
_cod_depositor_comments
;
The following automatic conversions were performed:

'_symmetry_cell_setting' value 'Orthorhombic' changed to
'orthorhombic' according to
/home/data/users/saulius/crontab/automatic-downloads/rss-feeds/ACS/lib/dictionaries/cif_core.dic
dictionary named 'cif_core.dic' version 2.4.2 from 2011-04-26.

Automatic conversion script
Id: cif_fix_values 4973 2017-02-22 13:04:09Z antanas 
;
_cod_original_sg_symbol_Hall     'p 2ac 2ab'
_cod_original_sg_symbol_H-M      'p 21 21 21'
_cod_database_code               8000312
_refine_ls_coordinate_system     cartesian
_refine_ls_svd_threshold         0.1E-02
loop_
_symmetry_equiv_pos_as_xyz
'+x, +y, +z'
'-x+1/2, -y, +z+1/2'
'+x+1/2, -y+1/2, -z'
'-x, +y+1/2, -z+1/2'
loop_
_atom_site_label
_atom_site_fract_x
_atom_site_fract_y
_atom_site_fract_z
_atom_site_U_iso_or_equiv
_atom_site_adp_type
_atom_site_occupancy
_atom_site_disorder_group
N1 0.64730(8) 0.13743(4) 0.18282(9) 0.00561(15) Uani 1 0
H1 0.6980(19) 0.0653(9) 0.190(2) 0.029(3) Uiso 1 0
H2 0.7691(17) 0.1827(8) 0.201(2) 0.018(3) Uiso 1 0
H3 0.580(2) 0.1460(9) 0.018(2) 0.029(3) Uiso 1 0
C1 0.46619(9) 0.16105(4) 0.35488(10) 0.00498(16) Uani 1 0
H4 0.4230(15) 0.2396(7) 0.3431(19) 0.006(2) Uiso 1 0
C2 0.25988(10) 0.09073(5) 0.30329(11) 0.00745(18) Uani 1 0
H5 0.2009(18) 0.1091(8) 0.152(2) 0.016(3) Uiso 1 0
H6 0.1436(17) 0.1072(8) 0.423(2) 0.014(3) Uiso 1 0
H7 0.3016(16) 0.0100(8) 0.309(2) 0.019(3) Uiso 1 0
C3 0.55398(9) 0.14081(4) 0.59993(10) 0.00470(16) Uani 1 0
O1 0.72706(7) 0.08373(3) 0.62433(8) 0.00685(14) Uani 1 0
O2 0.44090(7) 0.18410(3) 0.76127(8) 0.00662(14) Uani 1 0
loop_
_atom_site_aniso_label
_atom_site_aniso_U_11
_atom_site_aniso_U_22
_atom_site_aniso_U_33
_atom_site_aniso_U_23
_atom_site_aniso_U_13
_atom_site_aniso_U_12
N1 0.00579(14) 0.00647(14) 0.00458(17) -0.00022(13) 0.00064(13) 0.00014(13)
C1 0.00555(16) 0.00544(14) 0.00395(18) -0.00001(13) 0.00000(14) 0.00050(13)
C2 0.00630(17) 0.00947(17) 0.0066(2) -0.00048(16) -0.00061(15) -0.00124(15)
C3 0.00559(15) 0.00429(14) 0.00420(18) 0.00006(13) -0.00042(14) -0.00043(14)
O1 0.00670(14) 0.00696(13) 0.00690(17) 0.00064(12) -0.00055(12) 0.00220(12)
O2 0.00790(14) 0.00785(13) 0.00411(15) -0.00072(11) 0.00098(13) 0.00160(12)
loop_
_atom_type_symbol
_atom_type_description
_atom_type_scat_dispersion_real
_atom_type_scat_dispersion_imag
_atom_type_scat_source
C C 0.0033 0.0016 'International Tables Vol C Tables 4.2.6.8 and 6.1.1.4'
H H 0 0 'International Tables Vol C Tables 4.2.6.8 and 6.1.1.4'
N N 0.0061 0.0033 'International Tables Vol C Tables 4.2.6.8 and 6.1.1.4'
O O 0.0106 0.006 'International Tables Vol C Tables 4.2.6.8 and 6.1.1.4'
loop_
_geom_angle_atom_site_label_1
_geom_angle_atom_site_label_2
_geom_angle_atom_site_label_3
_geom_angle
_geom_angle_publ_flag
O1 C3 O2 125.83(5) yes
O1 C3 C1 118.31(5) yes
O2 C3 C1 115.86(5) yes
N1 C1 C2 109.63(5) yes
N1 C1 C3 110.06(4) yes
N1 C1 H4 109.0(6) yes
C1 N1 H1 112.7(8) yes
C1 N1 H2 111.7(7) yes
C1 N1 H3 108.6(7) yes
C2 C1 C3 111.24(5) yes
C1 C2 H5 109.5(6) yes
C1 C2 H6 107.7(6) yes
C1 C2 H7 110.3(5) yes
C2 C1 H4 109.0(5) yes
C3 C1 H4 107.9(6) yes
H1 N1 H2 108.3(9) yes
H1 N1 H3 104.9(10) yes
H2 N1 H3 110.4(9) yes
H5 C2 H6 109.3(8) yes
H5 C2 H7 109.9(9) yes
H6 C2 H7 110.0(8) yes
loop_
_geom_bond_atom_site_label_1
_geom_bond_atom_site_label_2
_geom_bond_distance
_geom_bond_publ_flag
O1 C3 1.2499(7) yes
O2 C3 1.2668(7) yes
N1 C1 1.4934(7) yes
N1 H1 0.935(11) yes
N1 H2 0.917(10) yes
N1 H3 1.042(13) yes
C1 C2 1.5259(8) yes
C1 C3 1.5324(8) yes
C1 H4 0.999(9) yes
C2 H5 0.973(12) yes
C2 H6 0.997(11) yes
C2 H7 1.021(11) yes
