#------------------------------------------------------------------------------
#$Date: 2019-10-31 02:31:06 +0200 (Thu, 31 Oct 2019) $
#$Revision: 220566 $
#$URL: file:///home/coder/svn-repositories/cod/cif/8/00/02/8000297.cif $
#------------------------------------------------------------------------------
#
# This file is available in the Crystallography Open Database (COD),
# http://www.crystallography.net/
#
# All data on this site have been placed in the public domain by the
# contributors.
#
data_8000297
loop_
_publ_author_name
'Malaspina, Lorraine A.'
'Wieduwilt, Erna K.'
'Bergmann, Justin'
'Kleemiss, Florian'
'Meyer, Benjamin'
'Ruiz-L\'opez, Manuel F'
'Pal, Rumpa'
'Hupf, Emanuel'
'Beckmann, Jens'
'Piltz, Ross O.'
'Edwards, Alison J.'
'Grabowsky, Simon'
'Genoni, Alessandro'
_publ_section_title
;
 Fast and Accurate Quantum Crystallography: From Small to Large, from
 Light to Heavy.
;
_journal_name_full               'The journal of physical chemistry letters'
_journal_page_first              6973
_journal_page_last               6982
_journal_paper_doi               10.1021/acs.jpclett.9b02646
_journal_year                    2019
_chemical_absolute_configuration syn
_chemical_formula_moiety         'C5 H10 N2 O3'
_chemical_formula_sum            'C5 H10 N2 O3'
_chemical_formula_weight         146.1471
_chemical_name_common            Glycil-L-Alanine
_chemical_name_systematic        Glycil-L-Alanine
_space_group_IT_number           19
_space_group_name_Hall           'P 2ac 2ab'
_space_group_name_H-M_alt        'P 21 21 21'
_symmetry_cell_setting           orthorhombic
_symmetry_Int_Tables_number      19
_symmetry_space_group_name_Hall  'P 2ac 2ab'
_symmetry_space_group_name_H-M   'P 21 21 21'
_atom_sites_solution_hydrogens   difmap
_atom_sites_solution_primary     direct
_atom_sites_solution_secondary   difmap
_audit_creation_date             2019-01-15T13:44:46-00:00
_audit_creation_method           'WinGX routine CIF_UPDATE'
_cell_angle_alpha                90.00
_cell_angle_beta                 90.00
_cell_angle_gamma                90.00
_cell_formula_units_Z            4
_cell_length_a                   7.529(2)
_cell_length_b                   9.5160(10)
_cell_length_c                   9.6880(10)
_cell_measurement_reflns_used    289
_cell_measurement_temperature    295(2)
_cell_measurement_theta_max      21.1
_cell_measurement_theta_min      6.04
_cell_volume                     694.1(2)
_computing_cell_refinement
'SMART-Bruker software V5.618 (BrukerAXS, 1997-2002)'
_computing_data_collection
'SMART-Bruker software V5.618 (BrukerAXS, 1997-2002)'
_computing_data_reduction        'SAINT V6.41A (BrukerAXS, 1997-2002)'
_computing_structure_refinement
'Tonto 18.12.17 github v. 2b3dd9c (Capelli, 2014)'
_computing_structure_solution    'SHELXS-97 (Sheldrick, 1990)'
_diffrn_ambient_temperature      295(2)
_diffrn_detector_area_resol_mean 0.657
_diffrn_measured_fraction_theta_full 0.982
_diffrn_measured_fraction_theta_max 0.968
_diffrn_measurement_device_type  'Bruker SMART-CCD'
_diffrn_measurement_method       'area detector'
_diffrn_radiation_monochromator  'Si(111) double crystal'
_diffrn_radiation_type           synchrotron
_diffrn_radiation_wavelength     0.52590
_diffrn_reflns_av_R_equivalents  0.028
_diffrn_reflns_av_unetI/netI     0.0239
_diffrn_reflns_Laue_measured_fraction_full 0.982
_diffrn_reflns_Laue_measured_fraction_max 0.968
_diffrn_reflns_limit_h_max       11
_diffrn_reflns_limit_h_min       -11
_diffrn_reflns_limit_k_max       14
_diffrn_reflns_limit_k_min       -13
_diffrn_reflns_limit_l_max       14
_diffrn_reflns_limit_l_min       -14
_diffrn_reflns_number            11998
_diffrn_reflns_point_group_measured_fraction_full 0.984
_diffrn_reflns_point_group_measured_fraction_max 0.959
_diffrn_reflns_theta_full        18.393
_diffrn_reflns_theta_max         23.793
_diffrn_reflns_theta_min         2.535
_exptl_absorpt_coefficient_mu    0.071
_exptl_absorpt_correction_type   none
_exptl_crystal_colour            Colourless
_exptl_crystal_density_diffrn    1.399
_exptl_crystal_density_method    'not measured'
_exptl_crystal_description       Prismatic
_exptl_crystal_F_000             312
_exptl_crystal_size_max          0.1
_exptl_crystal_size_mid          0.08
_exptl_crystal_size_min          0.05
_refine_diff_density_max         0.1264
_refine_diff_density_min         -0.1513
_refine_diff_density_rms         0.0298
_refine_ls_abs_structure_details
;
 Flack x determined using 921 quotients [(I+)-(I-)]/[(I+)+(I-)]
 (Parsons, Flack and Wagner, Acta Cryst. B69 (2013) 249-259).
;
_refine_ls_abs_structure_Flack   0.2(4)
_refine_ls_extinction_method     none
_refine_ls_goodness_of_fit_all   1.4226
_refine_ls_goodness_of_fit_gt    1.4226
_refine_ls_hydrogen_treatment    refall
_refine_ls_matrix_type           full
_refine_ls_number_constraints    0
_refine_ls_number_parameters     181
_refine_ls_number_reflns         2357
_refine_ls_number_restraints     0
_refine_ls_R_factor_all          0.0193
_refine_ls_R_factor_gt           0.0193
_refine_ls_shift/su_max          0.0054
_refine_ls_shift/su_mean         0
_refine_ls_structure_factor_coef F
_refine_ls_weighting_details     w=1/\s(F)
_refine_ls_weighting_scheme      sigma
_refine_ls_wR_factor_all         0.0153
_refine_ls_wR_factor_gt          0.0153
_refine_ls_wR_factor_ref         0.0746
_reflns_Friedel_coverage         0.712
_reflns_Friedel_fraction_full    0.988
_reflns_Friedel_fraction_max     0.948
_reflns_number_gt                2357
_reflns_number_total             2357
_reflns_threshold_expression     'F>0 & F/u(F)>3.0 & |F_calc|>10^-3'
_iucr_refine_instructions_details
;
!!!!!!!!!!!!!!!!!!!!!!!!!!!!!!!!!!!!!!!!!!!!!!!!!!!!!!!!!!!!!!!!!!!!!!!!!!!!!!!
!!!                                                                         !!!
!!!                        This stdin was written with lamaGOET             !!!
!!!                                                                         !!!
!!!                    script written by Lorraine Andrade Malaspina         !!!
!!!                        contact: lorraine.malaspina@gmail.com            !!!
!!!                                                                         !!!
!!!!!!!!!!!!!!!!!!!!!!!!!!!!!!!!!!!!!!!!!!!!!!!!!!!!!!!!!!!!!!!!!!!!!!!!!!!!!!!
{ 

   keyword_echo_on

   name= GlyAla_295K_HAR

   ! Process the CIF
   CIF= {
       file_name= xd_geo_295K_reordered.cif
    }

   process_CIF

   name= GlyAla_295K_HAR

   basis_directory= /usr/local/bin/basis_sets
   basis_name= 6-311G(d,p)

   charge= 0
   multiplicity= 1


   crystal= {    
      xray_data= {   
         thermal_smearing_model= hirshfeld
         partition_model= mulliken
         optimise_extinction= false
         correct_dispersion= no
         optimise_scale_factor= true
         wavelength= 0.5259 Angstrom
         REDIRECT tonto.data_295K.hkl
         f_sigma_cutoff= 3
         refine_H_U_iso= no

      }  
   }  

   ! Geometry    
   put

   write_xyz_file

   ! Normal SCF
   scfdata= {
      initial_density= promolecule 
      kind= rhf
      use_SC_cluster_charges= FALSE
      convergence= 0.001
      diis= { convergence_tolerance= 0.0002 }
   }

    scf

    refine_hirshfeld_atoms

}
;
_cod_data_source_file            GlyAla_295K.cif
_cod_data_source_block           GlyAla_295K_HAR
_cod_depositor_comments
;
The following automatic conversions were performed:

'_symmetry_cell_setting' value 'Orthorhombic' changed to
'orthorhombic' according to
/home/data/users/saulius/crontab/automatic-downloads/rss-feeds/ACS/lib/dictionaries/cif_core.dic
dictionary named 'cif_core.dic' version 2.4.2 from 2011-04-26.

Automatic conversion script
Id: cif_fix_values 4973 2017-02-22 13:04:09Z antanas 
;
_cod_original_sg_symbol_Hall     'p 2ac 2ab'
_cod_original_sg_symbol_H-M      'p 21 21 21'
_cod_database_code               8000297
_refine_ls_coordinate_system     cartesian
_refine_ls_svd_threshold         0.1E-02
loop_
_symmetry_equiv_pos_as_xyz
'+x, +y, +z'
'-x+1/2, -y, +z+1/2'
'+x+1/2, -y+1/2, -z'
'-x, +y+1/2, -z+1/2'
loop_
_atom_site_label
_atom_site_fract_x
_atom_site_fract_y
_atom_site_fract_z
_atom_site_U_iso_or_equiv
_atom_site_adp_type
_atom_site_occupancy
_atom_site_disorder_group
N(2) 0.73520(6) 0.75605(5) 0.40080(4) 0.0228(2) Uani 1 0
H(12) 0.8595(10) 0.8017(11) 0.4083(8) 0.046(5) Uani 1 0
H(22) 0.7337(13) 0.6816(11) 0.3237(8) 0.056(6) Uani 1 0
H(32) 0.7079(12) 0.7044(10) 0.4917(9) 0.045(5) Uani 1 0
C(5) 0.60127(6) 0.86693(6) 0.38130(4) 0.0235(2) Uani 1 0
H(5A) 0.4718(9) 0.8183(11) 0.3598(7) 0.051(5) Uani 1 0
H(5B) 0.6371(12) 0.9337(9) 0.2936(7) 0.057(5) Uani 1 0
C(4) 0.59077(6) 0.95460(6) 0.51314(3) 0.01923(19) Uani 1 0
O(3) 0.70942(4) 0.94974(4) 0.59923(3) 0.02985(17) Uani 1 0
N(1) 0.44587(5) 1.03489(5) 0.52473(3) 0.02133(18) Uani 1 0
H(11) 0.3548(10) 1.0394(10) 0.4484(7) 0.041(5) Uani 1 0
C(2) 0.42803(7) 1.13324(6) 0.63816(4) 0.0217(2) Uani 1 0
H(2) 0.5573(10) 1.1837(10) 0.6577(5) 0.044(5) Uani 1 0
C(3) 0.28947(13) 1.24373(9) 0.60179(6) 0.0464(4) Uani 1 0
H(3A) 0.1650(14) 1.1924(13) 0.5826(10) 0.076(7) Uani 1 0
H(3B) 0.3241(19) 1.2968(14) 0.5114(11) 0.105(9) Uani 1 0
H(3C) 0.2671(17) 1.3151(12) 0.6879(9) 0.087(7) Uani 1 0
C(1) 0.37402(5) 1.06554(5) 0.77588(4) 0.01923(19) Uani 1 0
O(1) 0.26981(5) 0.96363(5) 0.77711(3) 0.03273(18) Uani 1 0
O(2) 0.42969(5) 1.12531(4) 0.88277(3) 0.02934(18) Uani 1 0
loop_
_atom_site_aniso_label
_atom_site_aniso_U_11
_atom_site_aniso_U_22
_atom_site_aniso_U_33
_atom_site_aniso_U_23
_atom_site_aniso_U_13
_atom_site_aniso_U_12
N(2) 0.0270(2) 0.0200(2) 0.02134(15) -0.00100(16) 0.00427(15) 0.00316(17)
H(12) 0.033(5) 0.056(7) 0.049(5) -0.006(5) -0.006(4) 0.001(5)
H(22) 0.060(6) 0.072(8) 0.037(4) -0.002(5) 0.009(4) 0.022(6)
H(32) 0.050(5) 0.035(6) 0.049(5) 0.013(4) 0.004(4) 0.006(5)
C(5) 0.0299(2) 0.0243(3) 0.01626(15) -0.00262(17) -0.00018(14) 0.00408(19)
H(5A) 0.034(4) 0.074(7) 0.046(4) -0.026(4) -0.010(3) 0.000(5)
H(5B) 0.096(7) 0.045(6) 0.029(3) 0.004(4) -0.002(4) 0.022(5)
C(4) 0.02319(19) 0.0190(2) 0.01553(13) -0.00050(14) -0.00012(12) 0.00084(18)
O(3) 0.03301(16) 0.0312(2) 0.02531(13) -0.00545(15) -0.00886(12) 0.00657(17)
N(1) 0.02443(17) 0.0231(2) 0.01648(12) -0.00353(14) 0.00027(12) 0.00247(17)
H(11) 0.041(5) 0.040(6) 0.043(4) 0.003(4) -0.010(3) 0.004(4)
C(2) 0.0287(2) 0.0186(3) 0.01776(15) -0.00108(15) 0.00116(15) 0.0012(2)
H(2) 0.056(5) 0.044(6) 0.033(3) -0.008(3) 0.010(3) -0.006(4)
C(3) 0.0731(5) 0.0350(4) 0.0313(2) -0.0009(3) -0.0037(3) 0.0290(4)
H(3A) 0.074(6) 0.079(9) 0.074(6) -0.006(6) -0.014(5) 0.032(7)
H(3B) 0.168(12) 0.081(10) 0.067(6) 0.008(6) -0.013(6) 0.062(10)
H(3C) 0.138(9) 0.075(8) 0.049(5) -0.012(5) 0.014(5) 0.055(8)
C(1) 0.02110(17) 0.0198(3) 0.01677(15) -0.00487(15) 0.00169(12) 0.00016(16)
O(1) 0.04164(18) 0.0324(2) 0.02417(13) -0.00754(15) 0.00860(12) -0.01454(18)
O(2) 0.03292(17) 0.0361(2) 0.01903(12) -0.00849(14) 0.00190(11) -0.00705(16)
loop_
_atom_type_symbol
_atom_type_description
_atom_type_scat_dispersion_real
_atom_type_scat_dispersion_imag
_atom_type_scat_source
C C 0 0 'Hirshfeld partitioning of a quantum chemical wavefunction.'
H H 0 0 'Hirshfeld partitioning of a quantum chemical wavefunction.'
N N 0 0 'Hirshfeld partitioning of a quantum chemical wavefunction.'
O O 0 0 'Hirshfeld partitioning of a quantum chemical wavefunction.'
loop_
_geom_angle_atom_site_label_1
_geom_angle_atom_site_label_2
_geom_angle_atom_site_label_3
_geom_angle
_geom_angle_publ_flag
O(1) C(1) O(2) 123.72(4) yes
O(3) C(4) N(1) 124.09(4) yes
O(3) C(4) C(5) 120.78(4) yes
O(1) C(1) C(2) 120.05(4) yes
O(2) C(1) C(2) 116.01(4) yes
N(2) C(5) C(4) 108.64(3) yes
N(1) C(4) C(5) 115.13(3) yes
N(1) C(2) C(3) 109.51(4) yes
N(1) C(2) C(1) 114.33(4) yes
N(2) C(5) H(5A) 109.3(5) yes
N(2) C(5) H(5B) 110.3(4) yes
N(1) C(2) H(2) 109.3(3) yes
C(4) N(1) C(2) 120.55(4) yes
C(5) N(2) H(12) 109.1(6) yes
C(5) N(2) H(22) 113.1(5) yes
C(5) N(2) H(32) 108.4(5) yes
C(4) N(1) H(11) 121.1(5) yes
C(2) N(1) H(11) 117.7(5) yes
C(3) C(2) C(1) 108.01(4) yes
C(4) C(5) H(5A) 110.0(4) yes
C(4) C(5) H(5B) 110.2(4) yes
C(2) C(3) H(3A) 108.9(6) yes
C(2) C(3) H(3B) 110.9(7) yes
C(2) C(3) H(3C) 111.1(5) yes
C(3) C(2) H(2) 110.1(5) yes
C(1) C(2) H(2) 105.5(3) yes
H(12) N(2) H(22) 110.5(7) yes
H(12) N(2) H(32) 108.7(7) yes
H(22) N(2) H(32) 106.9(7) yes
H(5A) C(5) H(5B) 108.4(6) yes
H(3A) C(3) H(3B) 107.0(8) yes
H(3A) C(3) H(3C) 106.4(9) yes
H(3B) C(3) H(3C) 112.3(9) yes
loop_
_geom_bond_atom_site_label_1
_geom_bond_atom_site_label_2
_geom_bond_distance
_geom_bond_publ_flag
O(3) C(4) 1.2230(5) yes
O(1) C(1) 1.2475(6) yes
O(2) C(1) 1.2536(5) yes
N(2) C(5) 1.4717(6) yes
N(1) C(4) 1.3366(6) yes
N(1) C(2) 1.4497(6) yes
N(2) H(12) 1.035(8) yes
N(2) H(22) 1.029(10) yes
N(2) H(32) 1.029(9) yes
N(1) H(11) 1.010(7) yes
C(5) C(4) 1.5276(6) yes
C(2) C(3) 1.5225(8) yes
C(2) C(1) 1.5364(6) yes
C(5) H(5A) 1.099(7) yes
C(5) H(5B) 1.095(7) yes
C(2) H(2) 1.102(8) yes
C(3) H(3A) 1.073(11) yes
C(3) H(3B) 1.044(12) yes
C(3) H(3C) 1.089(9) yes
