#------------------------------------------------------------------------------
#$Date: 2020-01-04 05:59:21 +0200 (Sat, 04 Jan 2020) $
#$Revision: 246582 $
#$URL: file:///home/coder/svn-repositories/cod/cif/8/00/03/8000344.cif $
#------------------------------------------------------------------------------
#
# This file is available in the Crystallography Open Database (COD),
# http://www.crystallography.net/
#
# All data on this site have been placed in the public domain by the
# contributors.
#
data_8000344
loop_
_publ_author_name
'Sarkar, Sounak'
'Thomas, Sajesh P.'
'Potnuru, Lokeswara Rao'
'Edwards, Alison J.'
'Grosjean, Arnaud'
'Ramanathan, Krishna Venkatachala'
'Guru Row, T. N.'
_publ_section_title
;
 Experimental Insights into the Electronic Nature, Spectral Features, and
 Role of Entropy in Short
 CH<sub>3</sub>&#x00B7;&#x00B7;&#x00B7;CH<sub>3</sub> Hydrophobic
 Interactions.
;
_journal_issue                   22
_journal_name_full               'The journal of physical chemistry letters'
_journal_page_first              7224
_journal_page_last               7229
_journal_paper_doi               10.1021/acs.jpclett.9b02734
_journal_volume                  10
_journal_year                    2019
_chemical_formula_sum            'C10 H14 N2 O4'
_chemical_formula_weight         226.23
_space_group_crystal_system      triclinic
_space_group_IT_number           2
_space_group_name_Hall           '-P 1'
_space_group_name_H-M_alt        'P -1'
_atom_sites_solution_hydrogens   difmap
_audit_creation_method           SHELXL-2018/3
_cell_angle_alpha                82.173(3)
_cell_angle_beta                 80.895(3)
_cell_angle_gamma                86.179(3)
_cell_formula_units_Z            1
_cell_length_a                   3.87078(13)
_cell_length_b                   8.3374(3)
_cell_length_c                   8.6101(3)
_cell_measurement_reflns_used    4821
_cell_measurement_temperature    200.00(2)
_cell_measurement_theta_max      36.2930
_cell_measurement_theta_min      2.3940
_cell_volume                     271.521(17)
_computing_structure_refinement  'SHELXL-2018/3 (Sheldrick, 2018)'
_diffrn_ambient_environment      N~2~
_diffrn_ambient_temperature      200.00(2)
_diffrn_detector                 'CCD plate'
_diffrn_detector_area_resol_mean 8.0419
_diffrn_detector_type            Eos
_diffrn_measured_fraction_theta_full 0.998
_diffrn_measured_fraction_theta_max 0.997
_diffrn_measurement_device       'four-circle diffractometer'
_diffrn_measurement_device_type  'Xcalibur, Eos, Nova'
_diffrn_radiation_monochromator  mirror
_diffrn_radiation_probe          x-ray
_diffrn_radiation_type           'Mo K\a'
_diffrn_radiation_wavelength     0.71073
_diffrn_reflns_av_R_equivalents  0.0307
_diffrn_reflns_av_unetI/netI     0.0379
_diffrn_reflns_Laue_measured_fraction_full 0.998
_diffrn_reflns_Laue_measured_fraction_max 0.997
_diffrn_reflns_number            2635
_diffrn_reflns_point_group_measured_fraction_full 0.998
_diffrn_reflns_point_group_measured_fraction_max 0.997
_diffrn_reflns_theta_full        25.242
_diffrn_reflns_theta_max         36.313
_diffrn_reflns_theta_min         2.415
_diffrn_source                   'micro-focus sealed X-ray tube'
_diffrn_source_type              'Mova (Mo) X-ray Source'
_exptl_absorpt_coefficient_mu    0.108
_exptl_crystal_colour            block
_exptl_crystal_density_diffrn    1.384
_exptl_crystal_description       colourless
_exptl_crystal_F_000             120
_refine_diff_density_max         0.570
_refine_diff_density_min         -0.203
_refine_diff_density_rms         0.052
_refine_ls_extinction_method     none
_refine_ls_goodness_of_fit_ref   1.051
_refine_ls_hydrogen_treatment    refall
_refine_ls_matrix_type           full
_refine_ls_number_parameters     101
_refine_ls_number_reflns         2635
_refine_ls_number_restraints     0
_refine_ls_restrained_S_all      1.051
_refine_ls_R_factor_all          0.0542
_refine_ls_R_factor_gt           0.0456
_refine_ls_shift/su_max          0.000
_refine_ls_shift/su_mean         0.000
_refine_ls_structure_factor_coef Fsqd
_refine_ls_weighting_details
'w=1/[\s^2^(Fo^2^)+(0.0792P)^2^+0.0275P] where P=(Fo^2^+2Fc^2^)/3'
_refine_ls_weighting_scheme      calc
_refine_ls_wR_factor_gt          0.1383
_refine_ls_wR_factor_ref         0.1454
_reflns_Friedel_coverage         0.000
_reflns_number_gt                2203
_reflns_number_total             2635
_reflns_threshold_expression     'I > 2\s(I)'
_cod_data_source_file            jz9b02734_si_003.cif
_cod_data_source_block           TMP-OA-200K
_cod_depositor_comments
'Adding full bibliography for 8000326--8000347.cif.'
_cod_original_cell_volume        271.523(18)
_cod_database_code               8000344
_shelx_shelxl_version_number     2018/3
_shelx_space_group_comment
;
The symmetry employed for this shelxl refinement is uniquely defined
by the following loop, which should always be used as a source of
symmetry information in preference to the above space-group names.
They are only intended as comments.
;
_shelx_res_file
;
TITL face in P-1
    shelx.res
    created by SHELXL-2018/3 at 13:31:37 on 05-May-2018
REM P-1 (#2 in standard setting)
CELL 0.71073   3.870780   8.337425   8.610140  82.1725  80.8946  86.1793
ZERR    1.00   0.000133   0.000344   0.000318   0.0033   0.0030   0.0032
LATT  1
SFAC C H N O
UNIT 5.00 7.00 1.00 2.00
MERG   2
FMAP   2
PLAN   35
acta
BOND   $H
LIST   3
L.S.  15
WGHT    0.079200    0.027500
FVAR      24.39155
O2    4    0.425590    0.802260    0.089829    11.00000    0.06297    0.01948 =
         0.02256    0.00425   -0.01641   -0.00646
O1    4    0.637781    1.008103    0.181166    11.00000    0.09296    0.03174 =
         0.02831    0.00596   -0.03220   -0.01932
N1    3    0.472379    0.605484    0.365100    11.00000    0.02784    0.01498 =
         0.01557    0.00050   -0.00390   -0.00029
C4    1    0.647873    0.462214    0.355551    11.00000    0.02442    0.01609 =
         0.01537   -0.00149   -0.00221   -0.00106
C2    1    0.323707    0.645402    0.506937    11.00000    0.02367    0.01415 =
         0.01799   -0.00127   -0.00407    0.00043
C5    1    0.807773    0.422945    0.194205    11.00000    0.03683    0.03167 =
         0.01788   -0.00612    0.00144    0.00289

H5A   2    0.755398    0.509831    0.116518    11.00000    0.05509
H5B   2    0.724642    0.322550    0.169268    11.00000    0.05186
H5C   2    1.056054    0.402989    0.186448    11.00000    0.06347
C3    1    0.136009    0.807841    0.511387    11.00000    0.03437    0.01754 =
         0.03241   -0.00494   -0.00750    0.00688
H3A   2    0.254270    0.876212    0.541963    11.00000    0.06779
H3B   2   -0.072248    0.801121    0.590746    11.00000    0.05989
H3C   2    0.065648    0.847011    0.409591    11.00000    0.06513
C1    1    0.523447    0.950973    0.080430    11.00000    0.04709    0.02025 =
         0.01955    0.00251   -0.01199   -0.00358
H2O   2    0.451969    0.748008    0.179204    11.00000    0.07188
HKLF    4




REM  face in P-1
REM wR2 = 0.1454, GooF = S = 1.051, Restrained GooF = 1.051 for all data
REM R1 = 0.0456 for 2203 Fo > 4sig(Fo) and 0.0542 for all 2635 data
REM 101 parameters refined using 0 restraints

END

WGHT      0.0792      0.0275

REM Highest difference peak  0.570,  deepest hole -0.203,  1-sigma level  0.052
Q1    1   0.6703  0.4116  0.4207  11.00000  0.05    0.57
Q2    1   0.5000  1.0000  0.0000  10.50000  0.05    0.43
Q3    1   0.2338  0.7246  0.5074  11.00000  0.05    0.39
Q4    1   0.3983  0.6235  0.4392  11.00000  0.05    0.38
Q5    1   0.7225  0.4422  0.2748  11.00000  0.05    0.36
Q6    1   0.5725  0.5340  0.3593  11.00000  0.05    0.35
Q7    1   0.6379  0.9647  0.1393  11.00000  0.05    0.27
Q8    1   0.4804  1.0444  0.1851  11.00000  0.05    0.25
Q9    1   0.4436  0.8805  0.0978  11.00000  0.05    0.25
Q10   1   0.4220  0.6499  0.2965  11.00000  0.05    0.23
Q11   1   0.2154  0.8698  0.6174  11.00000  0.05    0.21
Q12   1   0.3066  0.9024  0.4647  11.00000  0.05    0.18
Q13   1   0.9650  0.4788  0.1612  11.00000  0.05    0.16
Q14   1   0.2074  0.8839  0.4339  11.00000  0.05    0.16
Q15   1   0.4007  0.7984  0.0211  11.00000  0.05    0.15
Q16   1   0.7742  1.0406  0.1477  11.00000  0.05    0.15
Q17   1   0.6474  0.4308  0.1206  11.00000  0.05    0.14
Q18   1   0.9167  0.5370  0.1129  11.00000  0.05    0.14
Q19   1   0.8986  0.8629  0.2394  11.00000  0.05    0.13
Q20   1   0.9866  0.3446  0.1967  11.00000  0.05    0.13
Q21   1  -0.1240  0.8117  0.4541  11.00000  0.05    0.12
Q22   1   0.9072  0.3230  0.1878  11.00000  0.05    0.11
Q23   1  -0.1038  0.7950  0.5363  11.00000  0.05    0.11
Q24   1   1.0752  0.5139  0.1119  11.00000  0.05    0.11
Q25   1   0.8140  0.9467  0.2248  11.00000  0.05    0.10
Q26   1   0.6536  0.7858  0.0831  11.00000  0.05    0.10
Q27   1   0.6090  1.0732  0.1267  11.00000  0.05    0.10
Q28   1   1.0003  0.2895  0.1803  11.00000  0.05    0.10
Q29   1   0.7651  1.0187  0.2523  11.00000  0.05    0.10
Q30   1   0.6444  1.0969  0.2036  11.00000  0.05    0.09
Q31   1  -0.1009  0.9349  0.3019  11.00000  0.05    0.08
Q32   1   0.6480  0.8667  0.2826  11.00000  0.05    0.08
Q33   1   0.8714  1.1043  0.2638  11.00000  0.05    0.08
Q34   1   0.5745  1.0331  0.2748  11.00000  0.05    0.08
Q35   1   0.1345  0.7054  0.0678  11.00000  0.05    0.08
;
_shelx_res_checksum              11775
_shelx_hkl_file
;
  -6  -4   1 75.2418 155.138   1
  -6  -3   1 329.377 239.845   1
  -6  -3   2 153.545 128.136   1
  -6  -2   1 556.659  214.92   1
  -6  -2   2 15.2429 140.957   1
  -6  -1   1 6438.58 479.034   1
  -6  -1   2 884.519 217.341   1
  -6  -1   3-30.3303 180.321   1
  -6   0   1 3769.67 299.639   1
  -6   0   2 1225.30 176.116   1
  -6   0   3 35.2291 65.0386   1
  -6   1   0 333.049 87.0875   1
  -6   1   1 664.358 122.046   1
  -6   1   2-42.9339  109.23   1
  -6   2   0 184.501 79.4889   1
  -6   2   2-112.407 182.114   1
  -6   3   0 188.814 128.166   1
  -6   3   1 254.217 203.428   1
  -6   4   0 560.068 183.712   1
  -5  -8   1 138.345 114.291   1
  -5  -8   2 189.429 108.041   1
  -5  -7   1 571.433 140.214   1
  -5  -7   2 541.326 237.185   1
  -5  -7   3 3194.89 324.732   1
  -5  -6   1 170.398 120.261   1
  -5  -6   2 1100.68 181.441   1
  -5  -6   3 7966.55 532.226   1
  -5  -6   4 3024.36 656.728   1
  -5  -5   1 2811.94 246.897   1
  -5  -5   2 491.065 131.023   1
  -5  -5   3 1125.17 184.964   1
  -5  -5   4 1276.05 193.673   1
  -5  -5   5 73.4201 152.407   1
  -5  -4   1 4563.48 355.902   1
  -5  -4   2 708.472 176.195   1
  -5  -4   3 410.667 147.706   1
  -5  -4   4 274.102 125.585   1
  -5  -4   5 171.593 110.713   1
  -5  -4   6 77.8133 73.7392   1
  -5  -3   1 402.758 94.9477   1
  -5  -3   2-13.4689 136.253   1
  -5  -3   3 117.745 70.1051   1
  -5  -3   4 390.233  97.179   1
  -5  -3   5 69.2114 130.539   1
  -5  -3   6-13.2353 126.198   1
  -5  -2   1 785.339 117.968   1
  -5  -2   2 550.705 107.893   1
  -5  -2   3 1513.51 295.168   1
  -5  -2   4 2131.20  206.57   1
  -5  -2   5 336.899  220.12   1
  -5  -2   6 791.929 162.966   1
  -5  -1   1 868.613 144.632   1
  -5  -1   2 468.797 83.6788   1
  -5  -1   3 398.428  88.661   1
  -5  -1   4 2798.95 310.862   1
  -5  -1   5 718.879  122.28   1
  -5  -1   6 565.404 110.717   1
  -5  -1   7 88.6849  102.40   1
  -5   0   1 9903.98 549.474   1
  -5   0   2 8721.17 975.373   1
  -5   0   3  451.13 116.174   1
  -5   0   4-7.97038 95.1363   1
  -5   0   5-42.5334 109.383   1
  -5   0   6 268.334 77.3985   1
  -5   0   7 747.389 123.489   1
  -5   1   0 701.685 101.046   1
  -5   1   113719.30 637.623   1
  -5   1   2 7886.04 569.267   1
  -5   1   3 1547.82 249.205   1
  -5   1   4 332.293 90.4258   1
  -5   1   5 93.6538 74.7857   1
  -5   1   6 736.981 349.188   1
  -5   1   7 464.199 114.585   1
  -5   2   0 22.8669 67.2426   1
  -5   2   1 1188.52  143.38   1
  -5   2   2 1853.62 229.536   1
  -5   2   3 -11.798  138.76   1
  -5   2   4-85.9647 119.693   1
  -5   2   5 1558.85 246.493   1
  -5   2   6 3636.80  304.55   1
  -5   2   7 349.898 141.696   1
  -5   3   0 436.014 75.9171   1
  -5   3   1 949.631 134.518   1
  -5   3   2 259.943 107.118   1
  -5   3   3 141.746 77.0422   1
  -5   3   4-0.09655 185.477   1
  -5   3   5 545.253 271.638   1
  -5   3   6 1429.71 189.246   1
  -5   4   0 201.989 79.6239   1
  -5   4   1  86.256 116.237   1
  -5   4   2 222.889 133.949   1
  -5   4   3 238.783 133.324   1
  -5   4   4 53.8606 73.3888   1
  -5   4   5 939.199 153.142   1
  -5   4   6 312.192 106.756   1
  -5   5   0-18.0815 145.739   1
  -5   5   1 1669.06 213.218   1
  -5   5   2 3869.18 340.489   1
  -5   5   3 1594.55 301.676   1
  -5   5   4 1375.99 184.833   1
  -5   5   5 966.208  158.30   1
  -5   6   0 651.426 143.231   1
  -5   6   1-99.2712 242.465   1
  -5   6   2 1976.47 243.778   1
  -5   6   3 240.113  118.72   1
  -5   6   4 2.00168 201.514   1
  -5   7   0 8971.70 532.099   1
  -5   7   1 1846.66 324.986   1
  -5   7   2 264.373 218.542   1
  -5   7   3 65.8914 204.158   1
  -5   8   0 3321.98 637.586   1
  -4 -10   1 972.732 174.681   1
  -4 -10   2 2292.24 260.649   1
  -4  -9   1 953.297 167.094   1
  -4  -9   2-24.0758 119.041   1
  -4  -9   3 2839.98 341.968   1
  -4  -9   4 199.899 124.533   1
  -4  -8   1 -2.9425 108.824   1
  -4  -8   2 33.4064 74.8573   1
  -4  -8   3  184.42 179.762   1
  -4  -8   4-56.4843 129.499   1
  -4  -8   5 196.404  113.21   1
  -4  -7   1 2404.79 240.356   1
  -4  -7   2  325.95 97.9199   1
  -4  -7   3 226.986 93.9375   1
  -4  -7   4 1026.98  163.56   1
  -4  -7   5-15.4159 183.566   1
  -4  -7   6 1085.38 233.249   1
  -4  -6   1  -18.92 177.025   1
  -4  -6   2 1892.11 261.033   1
  -4  -6   3 2430.69 242.327   1
  -4  -6   4 6477.16  423.99   1
  -4  -6   5 2075.30  246.52   1
  -4  -6   6 115.599  279.90   1
  -4  -6   7 580.648 395.521   1
  -4  -5   1 660.621 105.084   1
  -4  -5   2 1266.04 145.687   1
  -4  -5   3 4770.38  338.93   1
  -4  -5   422902.00 953.666   1
  -4  -5   5 3337.37 287.027   1
  -4  -5   6 1686.67 270.267   1
  -4  -5   7 431.368 161.277   1
  -4  -5   8 1021.88 240.401   1
  -4  -4   1 2717.43 251.036   1
  -4  -4   2 2420.48 327.843   1
  -4  -4   3 5034.74  443.50   1
  -4  -4   4 3648.49 290.711   1
  -4  -4   5 5101.01  355.18   1
  -4  -4   6-18.7207 137.646   1
  -4  -4   7 42.6981 100.421   1
  -4  -4   8 1821.90 228.019   1
  -4  -3   1 5522.56 297.559   1
  -4  -3   214217.50 663.045   1
  -4  -3   3-51.4284 87.5273   1
  -4  -3   4 435.347 79.2533   1
  -4  -3   5 1768.09 176.388   1
  -4  -3   6 961.229 127.785   1
  -4  -3   7 1433.80 162.048   1
  -4  -3   8 2336.38 314.659   1
  -4  -3   9  738.13 124.213   1
  -4  -2   1 7141.23 307.028   1
  -4  -2   2 316.337 72.0079   1
  -4  -2   3  222.52 57.5307   1
  -4  -2   4  39.304  42.194   1
  -4  -2   5 314.304 75.2448   1
  -4  -2   6 128.719 65.2088   1
  -4  -2   7 245.283 77.1602   1
  -4  -2   8 2232.67  209.05   1
  -4  -2   9 101.615 88.8437   1
  -4  -1   1 2020.87 146.232   1
  -4  -1   2  206.85 53.4045   1
  -4  -1   3 1114.04 145.712   1
  -4  -1   4 4624.34 265.135   1
  -4  -1   5 3390.99 211.818   1
  -4  -1   6-33.2621 113.735   1
  -4  -1   7 968.642  131.38   1
  -4  -1   8 140.262 85.2373   1
  -4  -1   9 201.655 147.254   1
  -4   0   1 1218.20  107.38   1
  -4   0   2 1183.44 112.294   1
  -4   0   3 146.218 58.4338   1
  -4   0   4 7432.72 335.165   1
  -4   0   5 4230.46 240.076   1
  -4   0   6 1851.44 254.884   1
  -4   0   7 1409.55 221.063   1
  -4   0   8 50.5302 70.9284   1
  -4   0   9 2729.95 285.014   1
  -4   1   0 904.038 104.394   1
  -4   1   1 5638.16 319.857   1
  -4   1   216259.00  606.05   1
  -4   1   311960.50 447.196   1
  -4   1   4-11.1466 140.679   1
  -4   1   5 346.409 68.4507   1
  -4   1   6  26.845 51.2024   1
  -4   1   7 759.836 133.304   1
  -4   1   8 3788.25 263.943   1
  -4   1   9 8102.00 469.526   1
  -4   2   0 968.311 112.417   1
  -4   2   1 4266.13 219.588   1
  -4   2   254540.20 1518.65   1
  -4   2   3 9017.90 407.178   1
  -4   2   4 3105.64 273.402   1
  -4   2   5 1094.84 200.034   1
  -4   2   6  648.44 151.453   1
  -4   2   7 106.602 68.0985   1
  -4   2   8 2102.14  305.39   1
  -4   2   9 7969.26 472.845   1
  -4   3   0 5057.24 244.902   1
  -4   3   1 636.082 84.6973   1
  -4   3   2 3189.61 206.175   1
  -4   3   3 4857.58 423.908   1
  -4   3   4 958.054 142.726   1
  -4   3   5 7.81268 96.9761   1
  -4   3   6 4464.99 306.295   1
  -4   3   7 5081.06 345.694   1
  -4   3   8 673.814  130.33   1
  -4   3   9 360.605 116.017   1
  -4   4   017145.70  654.70   1
  -4   4   1 125.626  55.466   1
  -4   4   2 1505.59 139.702   1
  -4   4   3  701.64 117.135   1
  -4   4   4 1497.45 212.881   1
  -4   4   5  487.23 89.3832   1
  -4   4   6 3021.76 302.783   1
  -4   4   7 2488.55  235.92   1
  -4   4   8 62.7632 105.444   1
  -4   4   9-21.8864 199.878   1
  -4   5   0  123.21 60.7478   1
  -4   5   1 72.1358 55.7973   1
  -4   5   2 217.493 87.3061   1
  -4   5   3 316.963 99.3259   1
  -4   5   4 -0.0797 111.866   1
  -4   5   5 167.387  80.647   1
  -4   5   6 2114.90 233.871   1
  -4   5   7 40.5803 97.8726   1
  -4   5   8 192.969 162.447   1
  -4   6   0 2193.20 177.251   1
  -4   6   1 16.0389 80.8469   1
  -4   6   2 3745.85 388.927   1
  -4   6   3 7126.13 400.531   1
  -4   6   4 1011.09 170.698   1
  -4   6   5 1512.89 313.325   1
  -4   6   6 1693.84 194.066   1
  -4   6   7-176.367 142.416   1
  -4   6   8 39.7514 69.1525   1
  -4   7   0 264.448 83.2169   1
  -4   7   1 224.569 109.934   1
  -4   7   2 3064.52 282.837   1
  -4   7   3 3115.59 397.421   1
  -4   7   4 1214.56 181.973   1
  -4   7   5 570.277 105.116   1
  -4   7   6 51.4068 69.8236   1
  -4   7   7 2061.43 230.402   1
  -4   8   0 8747.14 500.875   1
  -4   8   112707.40 701.855   1
  -4   8   2 1002.86 291.526   1
  -4   8   3 70.0112 108.005   1
  -4   8   4 741.595 141.128   1
  -4   8   5-149.715 332.408   1
  -4   8   6 2834.56 295.242   1
  -4   9   014410.50 715.594   1
  -4   9   1 3860.33 438.392   1
  -4   9   2 1247.52  179.13   1
  -4   9   3-54.9709 152.199   1
  -4   9   4 593.129 146.071   1
  -4   9   5  294.67 182.528   1
  -4  10   0 593.193 142.638   1
  -4  10   1 1864.59 316.595   1
  -4  10   2 232.915 123.545   1
  -3 -12   1 883.747  209.53   1
  -3 -11   1 382.744 116.206   1
  -3 -11   2 69.9564  79.226   1
  -3 -11   3 348.585  112.15   1
  -3 -10   111689.90 596.701   1
  -3 -10   2 40.5005 61.1407   1
  -3 -10   3 416.481 100.105   1
  -3 -10   4 1683.02 189.762   1
  -3 -10   5 673.593 126.038   1
  -3  -9   1 77.3108 54.1563   1
  -3  -9   2-6.54788 92.9714   1
  -3  -9   3 1473.57 161.084   1
  -3  -9   4 1642.36 228.634   1
  -3  -9   5 3100.79 258.147   1
  -3  -9   6 1037.04 230.714   1
  -3  -8   1 1090.35 182.404   1
  -3  -8   2 106.782 49.9715   1
  -3  -8   3 4098.90 287.399   1
  -3  -8   4 5308.57 406.356   1
  -3  -8   5 144.341 111.354   1
  -3  -8   6  838.36 219.524   1
  -3  -8   7 1186.80 228.306   1
  -3  -7   1 4951.97 373.572   1
  -3  -7   2 113.182 51.9421   1
  -3  -7   3 9.14258 42.3794   1
  -3  -7   4  427.31 123.005   1
  -3  -7   5 336.932 99.5289   1
  -3  -7   6 344.367 94.4101   1
  -3  -7   7 1019.42 509.057   1
  -3  -7   8 1432.27 345.683   1
  -3  -6   1 313.412 70.6273   1
  -3  -6   2 3219.90 285.273   1
  -3  -6   3 85.2824 42.1081   1
  -3  -6   4 79.6791 70.4584   1
  -3  -6   5 4310.29 297.353   1
  -3  -6   6 97.9018 80.5535   1
  -3  -6   7 8435.28 595.614   1
  -3  -6   8 180.256 134.272   1
  -3  -6   9 2274.43 435.051   1
  -3  -5   113576.70 490.748   1
  -3  -5   2 816.245 93.5651   1
  -3  -5   3 5166.03 404.987   1
  -3  -5   418292.90 637.188   1
  -3  -5   5 1985.85 216.732   1
  -3  -5   6 971.325 119.537   1
  -3  -5   7 364.356 95.8268   1
  -3  -5   8 3625.55 384.837   1
  -3  -5   9-45.4779 90.1616   1
  -3  -4   1 2341.90 116.296   1
  -3  -4   2 886.138 108.322   1
  -3  -4   3 1960.41 145.936   1
  -3  -4   410262.80 399.757   1
  -3  -4   566124.00 2135.89   1
  -3  -4   6 723.624 99.7779   1
  -3  -4   7 2186.51 211.586   1
  -3  -4   8 177.671 70.3561   1
  -3  -4   9 2157.79 247.581   1
  -3  -4  10 689.617 214.391   1
  -3  -3   1 7255.49 253.115   1
  -3  -3   222464.60 631.487   1
  -3  -3   3 1218.91 104.302   1
  -3  -3   422049.30  695.25   1
  -3  -3   5 6295.52 285.201   1
  -3  -3   610001.00 413.256   1
  -3  -3   7 92.3086 82.1711   1
  -3  -3   8 13.0764 63.8209   1
  -3  -3   9 4448.06 320.062   1
  -3  -3  10 363.259 302.267   1
  -3  -2   111102.20 369.984   1
  -3  -2   211554.40 388.356   1
  -3  -2   329908.50 878.752   1
  -3  -2   4 931.853 86.4816   1
  -3  -2   5 572.605 96.4725   1
  -3  -2   6 1222.88 141.906   1
  -3  -2   7  436.22 92.6283   1
  -3  -2   8 3171.54 289.737   1
  -3  -2   9 5095.73 397.684   1
  -3  -2  10 1071.80 187.595   1
  -3  -2  11-5.94565 108.507   1
  -3  -1   1 1850.47 123.478   1
  -3  -1   223438.40 672.136   1
  -3  -1   3 2440.59 144.394   1
  -3  -1   4  671.77 85.4083   1
  -3  -1   5 2345.95 215.277   1
  -3  -1   6 93.7403 62.1383   1
  -3  -1   7 707.193 113.283   1
  -3  -1   8 1167.53  125.45   1
  -3  -1   9 2387.20 261.879   1
  -3  -1  10 204.516 110.412   1
  -3  -1  11-12.7848 105.194   1
  -3   0   1  132.06 34.8994   1
  -3   0   2 1065.24 87.0384   1
  -3   0   3 2116.50 175.799   1
  -3   0   4 679.923 89.9063   1
  -3   0   5 1497.54  133.87   1
  -3   0   6 4343.45 270.729   1
  -3   0   7 80.7881 45.9752   1
  -3   0   8 1207.45 142.705   1
  -3   0   9 398.473 207.932   1
  -3   0  10 1049.47 198.949   1
  -3   0  11  284.01 110.683   1
  -3   1   016370.10 483.639   1
  -3   1   1 1921.00 116.912   1
  -3   1   218766.70 593.635   1
  -3   1   3 6219.81 252.946   1
  -3   1   4 25.2001   32.39   1
  -3   1   534010.20 1019.41   1
  -3   1   6 1032.94 195.737   1
  -3   1   7 5126.85 296.665   1
  -3   1   8 1974.74 185.676   1
  -3   1   9 180.777 98.1136   1
  -3   1  10 2846.99 310.449   1
  -3   1  11 148.641 92.1272   1
  -3   2   0 40.1465 28.6819   1
  -3   2   112013.70 383.659   1
  -3   2   240904.20 1201.32   1
  -3   2   310521.50 338.298   1
  -3   2   4 7580.38 296.844   1
  -3   2   5  730.83 94.0906   1
  -3   2   6 1147.80 114.448   1
  -3   2   7-26.8848 82.7598   1
  -3   2   8 1618.35 168.352   1
  -3   2   912328.20 565.873   1
  -3   2  10 8612.92 590.181   1
  -3   2  11 861.778  329.74   1
  -3   3   0 9799.17 334.972   1
  -3   3   1 4151.64 186.332   1
  -3   3   213757.00 434.716   1
  -3   3   3126872.0 3341.70   1
  -3   3   4 6042.81 326.824   1
  -3   3   5 4826.68 426.481   1
  -3   3   6 1277.21 142.714   1
  -3   3   7 1402.19 150.931   1
  -3   3   8 349.257 84.8324   1
  -3   3   9 6355.93 428.485   1
  -3   3  1013152.20 779.635   1
  -3   3  11 911.504 148.532   1
  -3   4   020920.30 608.262   1
  -3   4   1 2600.50 142.149   1
  -3   4   2 9177.82 350.969   1
  -3   4   310395.40 390.598   1
  -3   4   4 3753.75 281.591   1
  -3   4   5 484.419 133.507   1
  -3   4   6  56.885 103.462   1
  -3   4   711749.80 525.184   1
  -3   4   8 2367.24 218.954   1
  -3   4   9 3150.44 336.127   1
  -3   4  10 328.143 86.3229   1
  -3   4  11 232.234 228.337   1
  -3   5   0 9853.75 341.488   1
  -3   5   114172.80  785.80   1
  -3   5   2 264.024 61.4288   1
  -3   5   3 1412.13 106.628   1
  -3   5   4 357.703 88.0241   1
  -3   5   5 176.155 56.4534   1
  -3   5   6 1449.62 140.892   1
  -3   5   7 7214.26 506.153   1
  -3   5   8 2292.21 275.006   1
  -3   5   9  271.73 83.3316   1
  -3   5  10 68.7673 152.922   1
  -3   6   0 2993.01 164.945   1
  -3   6   1 2255.53 162.772   1
  -3   6   2 4322.96 243.897   1
  -3   6   3 173.367  68.723   1
  -3   6   4 93.3753 47.7625   1
  -3   6   5 1888.68 164.933   1
  -3   6   6 291.262 81.5835   1
  -3   6   7 2334.68 211.664   1
  -3   6   8 127.432 77.4379   1
  -3   6   9 546.176 172.176   1
  -3   6  10 1111.81 251.031   1
  -3   7   0 2070.01 154.164   1
  -3   7   1 492.954 73.0033   1
  -3   7   2 2402.59  156.54   1
  -3   7   3 2654.50 333.301   1
  -3   7   410861.40 528.506   1
  -3   7   5  196.68 77.5276   1
  -3   7   6 2175.08 218.839   1
  -3   7   7 1920.16 232.005   1
  -3   7   8 95.8802 57.3187   1
  -3   7   9 537.138  117.79   1
  -3   8   0 8350.44 341.212   1
  -3   8   1 623.081 147.946   1
  -3   8   2 38.0287 65.4839   1
  -3   8   312826.20 1072.94   1
  -3   8   4 3077.42 269.835   1
  -3   8   5 3924.92 313.544   1
  -3   8   6 727.069 132.484   1
  -3   8   7-43.7601 252.286   1
  -3   8   8 2583.46 253.732   1
  -3   8   9 19.3349   78.79   1
  -3   9   014156.20 642.468   1
  -3   9   1 8600.37 744.834   1
  -3   9   2 9648.94 1526.94   1
  -3   9   3 36.1693 63.1791   1
  -3   9   4-108.563 141.236   1
  -3   9   5  841.55 253.093   1
  -3   9   6 75.9527 75.5467   1
  -3   9   7 8243.21 610.607   1
  -3   9   8 8374.28 636.946   1
  -3  10   0 4000.35 412.368   1
  -3  10   125702.90 928.347   1
  -3  10   2 2703.53 295.717   1
  -3  10   3 1250.85 179.133   1
  -3  10   4-22.7736 206.409   1
  -3  10   5 257.054 142.363   1
  -3  10   6-38.3163 185.292   1
  -3  11   0 6.76676 65.1179   1
  -3  11   1 2866.52 276.868   1
  -3  11   2 576.773 164.727   1
  -3  11   3 478.875 116.458   1
  -3  11   4 191.215 83.0061   1
  -2 -13   1 601.224 256.028   1
  -2 -12   1 2979.12 389.888   1
  -2 -12   2 184.094 183.249   1
  -2 -12   3 4045.04 389.412   1
  -2 -11   1 31.6733 66.6872   1
  -2 -11   2 87.4708 75.2807   1
  -2 -11   3 7268.76  435.54   1
  -2 -11   4 734.977 151.911   1
  -2 -11   5 380.329 222.745   1
  -2 -10   112090.90 603.756   1
  -2 -10   2 41.6636  60.982   1
  -2 -10   3 57.6511 53.0941   1
  -2 -10   4 6015.52 373.499   1
  -2 -10   5-11.1175 277.516   1
  -2 -10   6 1511.58 270.844   1
  -2 -10   7 2519.46 371.621   1
  -2  -9   139477.00 1186.56   1
  -2  -9   2 1406.75 147.539   1
  -2  -9   3 1008.09 121.805   1
  -2  -9   4 1192.18 145.909   1
  -2  -9   5 3285.73 408.404   1
  -2  -9   6 4034.51 341.327   1
  -2  -9   713052.90  835.08   1
  -2  -9   8 3345.11 808.364   1
  -2  -8   1 4483.90 228.318   1
  -2  -8   2 4601.60  302.56   1
  -2  -8   3 339.562 60.7044   1
  -2  -8   4 4134.77 266.052   1
  -2  -8   5 4406.07 324.071   1
  -2  -8   6 114.279 148.612   1
  -2  -8   7 240.618 93.7285   1
  -2  -8   8 740.983 150.587   1
  -2  -8   9 633.622 285.022   1
  -2  -7   1 7725.85 305.487   1
  -2  -7   2 1255.45  140.76   1
  -2  -7   3 1688.91 130.606   1
  -2  -7   4 4451.13 225.271   1
  -2  -7   5 9048.91 403.926   1
  -2  -7   6 4998.48 538.596   1
  -2  -7   7 978.309 162.103   1
  -2  -7   8 5416.69 342.137   1
  -2  -7   9-69.1335 129.408   1
  -2  -6   1  728.03 83.2745   1
  -2  -6   2 4919.42 229.977   1
  -2  -6   312854.40 406.128   1
  -2  -6   415887.30 514.584   1
  -2  -6   5 681.766 95.1036   1
  -2  -6   6 2258.93 198.458   1
  -2  -6   7 9560.16 444.089   1
  -2  -6   8 106.064 67.4231   1
  -2  -6   9 1591.70 174.696   1
  -2  -6  10 57.0576 78.1078   1
  -2  -5   110510.20 335.177   1
  -2  -5   2 3947.60 199.896   1
  -2  -5   313199.70 400.284   1
  -2  -5   415978.80 506.753   1
  -2  -5   5 5518.05 243.968   1
  -2  -5   6 5678.48 291.878   1
  -2  -5   7 621.956 106.411   1
  -2  -5   815742.70 773.998   1
  -2  -5   9-12.1169 138.661   1
  -2  -5  10 4034.45 353.388   1
  -2  -5  11 391.519 200.841   1
  -2  -4   1169585.0 4306.48   1
  -2  -4   2 50.0581 20.1838   1
  -2  -4   3 3112.02 150.019   1
  -2  -4   421105.60  756.98   1
  -2  -4   550198.60 1527.13   1
  -2  -4   6 543.242 70.7794   1
  -2  -4   7 222.039 67.4201   1
  -2  -4   8 2942.75 238.742   1
  -2  -4   9 2540.42 233.305   1
  -2  -4  10  776.34  153.46   1
  -2  -4  11 393.999 125.459   1
  -2  -3   118841.20 490.013   1
  -2  -3   241065.60 1057.46   1
  -2  -3   3 917.971 68.6461   1
  -2  -3   415125.50 588.561   1
  -2  -3   530772.60 845.426   1
  -2  -3   652986.90 1536.30   1
  -2  -3   7 1650.65 171.739   1
  -2  -3   8 2630.20 173.622   1
  -2  -3   9 808.517 106.039   1
  -2  -3  10 710.142 113.118   1
  -2  -3  11 3346.21 324.481   1
  -2  -3  12 4960.10  580.71   1
  -2  -2   1 118.695 26.3671   1
  -2  -2   211930.10 384.939   1
  -2  -2   3 8701.41 299.793   1
  -2  -2   4 855.947 65.0088   1
  -2  -2   563925.20 1800.49   1
  -2  -2   631480.10 877.392   1
  -2  -2   7 1789.78 115.135   1
  -2  -2   8 1514.43 125.432   1
  -2  -2   9 18.4211 41.2539   1
  -2  -2  10 6292.22 645.339   1
  -2  -2  11 446.664 129.453   1
  -2  -2  12 5431.22 443.857   1
  -2  -1   1 43.3379 17.3866   1
  -2  -1   229153.60 717.302   1
  -2  -1   3120927.0 2900.16   1
  -2  -1   4 299.684  55.777   1
  -2  -1   5 8.92453 22.1122   1
  -2  -1   6-12.5709 59.7871   1
  -2  -1   7 670.128 68.6893   1
  -2  -1   8 399.627 75.2599   1
  -2  -1   9 6640.77 337.914   1
  -2  -1  10 9064.32 485.927   1
  -2  -1  11 14.9451 49.2631   1
  -2  -1  12-2.02342 150.712   1
  -2   0   138936.30 905.085   1
  -2   0   2 2043.19 91.0237   1
  -2   0   327277.90 685.305   1
  -2   0   445469.00 1130.03   1
  -2   0   513941.60 421.034   1
  -2   0   6 9906.60 319.987   1
  -2   0   7 54.2972 31.7196   1
  -2   0   8 646.668 81.2133   1
  -2   0   9 4587.12 267.682   1
  -2   0  10 1690.24 255.859   1
  -2   0  11 185.918 75.0154   1
  -2   0  12-151.165 174.352   1
  -2   1   077265.80 1796.88   1
  -2   1   1220947.0 5233.36   1
  -2   1   266606.10 1561.02   1
  -2   1   3 464.473 51.0547   1
  -2   1   417990.90 519.241   1
  -2   1   513598.50 440.851   1
  -2   1   6 356.085 61.3777   1
  -2   1   7 2629.18 150.762   1
  -2   1   8 1975.86 136.099   1
  -2   1   9 5685.90 267.316   1
  -2   1  10 38.1275 51.4856   1
  -2   1  11 1575.87 212.846   1
  -2   1  12 4224.87 313.849   1
  -2   2   033885.50 895.068   1
  -2   2   184307.00 2045.27   1
  -2   2   222980.00 569.816   1
  -2   2   331013.20 749.322   1
  -2   2   4 8051.07 266.017   1
  -2   2   5 7915.62 344.048   1
  -2   2   630860.60 874.458   1
  -2   2   7 571.866 77.5864   1
  -2   2   813155.20 482.364   1
  -2   2   9 26.9609 45.4077   1
  -2   2  10 39.9891 42.0434   1
  -2   2  11 1957.14 237.866   1
  -2   2  12 543.408 115.928   1
  -2   3   0 4446.10 161.445   1
  -2   3   1  225.35 31.8259   1
  -2   3   220994.60 539.603   1
  -2   3   351678.90 1250.86   1
  -2   3   413418.10 366.134   1
  -2   3   5 880.616 94.1971   1
  -2   3   611089.70 388.638   1
  -2   3   7 162.883  50.717   1
  -2   3   8 245.074 56.2847   1
  -2   3   9 1763.64 183.366   1
  -2   3  1022924.80 861.473   1
  -2   3  11 4531.51 414.371   1
  -2   3  12  309.51  93.917   1
  -2   4   0 293.021 38.4223   1
  -2   4   1 2073.38 96.8817   1
  -2   4   213727.70 447.757   1
  -2   4   396277.40 2307.03   1
  -2   4   492221.20 2234.12   1
  -2   4   5 6038.45 325.292   1
  -2   4   610130.40 348.395   1
  -2   4   7-0.20999  86.015   1
  -2   4   8 645.071 93.6833   1
  -2   4   9 3392.73 205.848   1
  -2   4  1014110.40 563.354   1
  -2   4  1114081.60 594.855   1
  -2   4  12 978.615 188.007   1
  -2   5   0 6077.47  228.04   1
  -2   5   1 1713.49 105.543   1
  -2   5   2 3768.41 153.092   1
  -2   5   321610.00  582.36   1
  -2   5   438717.60 987.884   1
  -2   5   5 422.168 58.4812   1
  -2   5   6-44.0962 80.9972   1
  -2   5   7 540.091 81.1598   1
  -2   5   812080.40 482.104   1
  -2   5   9 335.107 91.7851   1
  -2   5  10 5856.77 512.688   1
  -2   5  11 913.541 122.789   1
  -2   5  12 408.169 89.7924   1
  -2   6   0 1672.56 103.657   1
  -2   6   166850.60 1917.31   1
  -2   6   2 230.874  55.668   1
  -2   6   3 305.284 48.6705   1
  -2   6   4 701.834 83.1919   1
  -2   6   5 101.246 35.5284   1
  -2   6   6-37.1975 80.8843   1
  -2   6   7 3535.14 211.536   1
  -2   6   815718.00 836.831   1
  -2   6   9 57.1738 96.7474   1
  -2   6  10 237.459 73.5143   1
  -2   6  11 96.2775 79.6132   1
  -2   7   0 926.312 82.0788   1
  -2   7   1 1349.93 104.751   1
  -2   7   2 5244.10 243.431   1
  -2   7   311492.40 382.899   1
  -2   7   4 1422.62 118.111   1
  -2   7   5 1609.14 133.469   1
  -2   7   6 558.094 77.6931   1
  -2   7   7 501.908 82.8893   1
  -2   7   8 1203.03 133.306   1
  -2   7   9 164.714 62.2986   1
  -2   7  10 484.557  98.186   1
  -2   7  11 1533.17 174.358   1
  -2   8   0 9540.38 347.746   1
  -2   8   1 1888.06 198.044   1
  -2   8   2 341.467 58.9202   1
  -2   8   3 1961.05 142.071   1
  -2   8   4 2749.86 272.444   1
  -2   8   510096.20 468.877   1
  -2   8   6 864.587 124.358   1
  -2   8   7 5436.20 648.011   1
  -2   8   8 1045.60 130.425   1
  -2   8   9  462.71  127.11   1
  -2   8  10 2818.02 235.901   1
  -2   9   0-27.5766 80.1113   1
  -2   9   1 8364.94 351.843   1
  -2   9   2 818.533 96.3676   1
  -2   9   3 6011.29 291.386   1
  -2   9   414505.80 614.571   1
  -2   9   5 2711.88 511.405   1
  -2   9   6 6610.36 497.369   1
  -2   9   7 384.323 88.3897   1
  -2   9   8 123.493 84.5121   1
  -2   9   9 1581.96 172.228   1
  -2  10   0 271.854 77.4243   1
  -2  10   1 8492.29 1408.89   1
  -2  10   2 8288.60 1272.93   1
  -2  10   3 5431.75 894.539   1
  -2  10   4 1377.55 306.288   1
  -2  10   5-68.5625 133.325   1
  -2  10   6 329.383 115.517   1
  -2  10   7 42.7252 66.6271   1
  -2  10   811934.60 1039.48   1
  -2  11   0 1762.76  191.13   1
  -2  11   116833.10 646.427   1
  -2  11   222017.70 1285.00   1
  -2  11   3 3977.85 369.737   1
  -2  11   4 1289.24 214.421   1
  -2  11   5 122.217 187.659   1
  -2  11   6 155.858 267.965   1
  -2  11   7 449.806 136.598   1
  -2  12   0 1489.11 234.271   1
  -2  12   1 1583.01 244.273   1
  -2  12   2 4136.20  322.54   1
  -2  12   3 357.533 120.314   1
  -2  12   4 296.592 128.085   1
  -2  12   5 1633.99 658.435   1
  -1 -13   1 2464.21 448.337   1
  -1 -13   2 2376.43 565.639   1
  -1 -12   1 670.707 139.469   1
  -1 -12   2 2116.75 260.023   1
  -1 -12   3 1365.11 181.139   1
  -1 -12   4 1327.23 184.553   1
  -1 -12   5 2706.90 312.616   1
  -1 -11   1-38.4199 185.436   1
  -1 -11   2 2516.96 351.753   1
  -1 -11   3 7788.94 498.612   1
  -1 -11   4-1.13258 202.294   1
  -1 -11   5 67.7591 92.2044   1
  -1 -11   6 2339.17 271.314   1
  -1 -10   1 873.006 106.392   1
  -1 -10   2 716.848  107.57   1
  -1 -10   3 384.481 124.735   1
  -1 -10   418790.30 821.176   1
  -1 -10   5 205.205  92.739   1
  -1 -10   6 179.615 177.769   1
  -1 -10   7 88.0292  97.381   1
  -1 -10   8 7576.43  689.92   1
  -1  -9   138741.30 1359.18   1
  -1  -9   2 784.138 95.2008   1
  -1  -9   3 2177.12 177.371   1
  -1  -9   4 487.118 80.6591   1
  -1  -9   5 3276.67 428.325   1
  -1  -9   6 1513.08 340.427   1
  -1  -9   7 5755.46 539.441   1
  -1  -9   810682.70 739.784   1
  -1  -9   9 1423.77 218.778   1
  -1  -8   163219.10 2410.36   1
  -1  -8   238562.60 1149.94   1
  -1  -8   3 4754.64 411.848   1
  -1  -8   4  805.72 83.1089   1
  -1  -8   5 2183.63  179.07   1
  -1  -8   6 4353.26 325.294   1
  -1  -8   7 1837.21 176.425   1
  -1  -8   817207.80 834.003   1
  -1  -8   912145.90 796.227   1
  -1  -7   121699.50 716.437   1
  -1  -7   231594.80 842.363   1
  -1  -7   3 4137.31 183.116   1
  -1  -7   4 5412.40  254.50   1
  -1  -7   5 1905.14 156.302   1
  -1  -7   628988.70 1122.17   1
  -1  -7   718999.40 821.286   1
  -1  -7   8 31.7379 78.5796   1
  -1  -7   9 858.296 162.511   1
  -1  -7  10 1406.27  291.18   1
  -1  -6   1 136.226 35.3686   1
  -1  -6   229314.10 765.321   1
  -1  -6   328330.60 933.203   1
  -1  -6   446886.50 1317.43   1
  -1  -6   5 7119.04 361.183   1
  -1  -6   6 2465.94 175.685   1
  -1  -6   714886.60  603.99   1
  -1  -6   8 1563.89 160.495   1
  -1  -6   9 5524.77 345.977   1
  -1  -6  10 638.917 249.176   1
  -1  -6  11 2114.05 276.616   1
  -1  -5   118910.80 613.846   1
  -1  -5   2 7591.28 242.448   1
  -1  -5   333138.50 1084.33   1
  -1  -5   460726.80 1521.61   1
  -1  -5   535168.40 950.957   1
  -1  -5   6 64.5017 65.5264   1
  -1  -5   7 1762.45 212.051   1
  -1  -5   8 6752.68 346.461   1
  -1  -5   9 290.984 121.779   1
  -1  -5  10 2004.55 239.629   1
  -1  -5  11 1655.20 232.512   1
  -1  -4   1242990.0 5882.13   1
  -1  -4   2 1174.44  68.371   1
  -1  -4   3 2578.50 116.057   1
  -1  -4   421255.40 837.793   1
  -1  -4   5 5346.17 212.182   1
  -1  -4   6 613.488 62.2893   1
  -1  -4   7 2635.10 157.019   1
  -1  -4   814418.50 559.172   1
  -1  -4   9 2820.66 259.011   1
  -1  -4  10-51.5787 246.226   1
  -1  -4  11 8265.65 613.426   1
  -1  -4  12 3236.30  338.79   1
  -1  -3   1 2713.91 120.677   1
  -1  -3   2235881.0 5730.15   1
  -1  -3   328997.10  744.57   1
  -1  -3   4 755.371 57.3803   1
  -1  -3   5 32.8727 26.3483   1
  -1  -3   6 6893.58 274.011   1
  -1  -3   7 2956.23 162.279   1
  -1  -3   8 1761.51 131.242   1
  -1  -3   915359.30 585.733   1
  -1  -3  10 1427.75 271.462   1
  -1  -3  11 703.979 146.912   1
  -1  -3  12-78.9526 189.081   1
  -1  -2   138057.40 885.192   1
  -1  -2   231953.60 756.797   1
  -1  -2   318047.30 456.953   1
  -1  -2   429260.60 727.337   1
  -1  -2   514733.00  404.97   1
  -1  -2   6154598.0 3793.89   1
  -1  -2   7 8670.74 345.581   1
  -1  -2   8 931.323 106.995   1
  -1  -2   9 2755.65 199.841   1
  -1  -2  10 1608.65 162.887   1
  -1  -2  11 1635.43 174.554   1
  -1  -2  12 8506.85 566.198   1
  -1  -2  1310606.60 1104.38   1
  -1  -1   1186913.0 4820.20   1
  -1  -1   296579.90 2192.94   1
  -1  -1   3123606.0 2848.07   1
  -1  -1   438747.10 952.588   1
  -1  -1   510977.00 316.608   1
  -1  -1   672706.30 1777.93   1
  -1  -1   746934.30 1222.69   1
  -1  -1   8 2920.79 218.864   1
  -1  -1   9 3195.16 211.865   1
  -1  -1  10 5801.02 319.269   1
  -1  -1  11 46.0608 78.4067   1
  -1  -1  12 1462.53 176.456   1
  -1  -1  13 5414.50 523.137   1
  -1   0   1531086.011326.70   1
  -1   0   2 9861.15  263.59   1
  -1   0   3 5641.68 176.796   1
  -1   0   4383943.0 9355.14   1
  -1   0   533471.70 829.923   1
  -1   0   6 1066.15 78.4797   1
  -1   0   7 1828.36  129.23   1
  -1   0   8 604.304 72.4093   1
  -1   0   9-19.5203 85.6519   1
  -1   0  10 6989.37 362.889   1
  -1   0  1119422.90 941.034   1
  -1   0  12 3606.89 317.169   1
  -1   0  13 412.116 108.759   1
  -1   1   0508831.011073.90   1
  -1   1   1415158.0 9264.81   1
  -1   1   2131492.0 2989.37   1
  -1   1   3108438.0 2497.93   1
  -1   1   436881.80 1015.97   1
  -1   1   5 9600.83 284.712   1
  -1   1   6 981.492 81.5229   1
  -1   1   719598.50 668.984   1
  -1   1   817636.60  757.26   1
  -1   1   9 5747.51 257.739   1
  -1   1  10 7518.98 603.892   1
  -1   1  11 24.0086 65.3667   1
  -1   1  12 2109.67 208.948   1
  -1   1  13 48.1367 71.7028   1
  -1   2   0 6058.19 163.494   1
  -1   2   161661.20 1397.14   1
  -1   2   2261184.0 6120.05   1
  -1   2   367917.00 1699.93   1
  -1   2   4 673.322 51.9083   1
  -1   2   5  521.25 61.7277   1
  -1   2   6 913.932  67.364   1
  -1   2   7 350.091 59.7624   1
  -1   2   8 4683.42 221.497   1
  -1   2   9 8639.92 350.419   1
  -1   2  10 9491.13  461.92   1
  -1   2  11 224.126 133.253   1
  -1   2  12 1351.94 189.462   1
  -1   2  13 5695.17  532.17   1
  -1   3   0215659.0 5306.39   1
  -1   3   114115.70 350.948   1
  -1   3   2 9257.91 241.889   1
  -1   3   328806.60 736.719   1
  -1   3   4 1185.48 65.5057   1
  -1   3   521999.30 602.252   1
  -1   3   670676.00 2355.79   1
  -1   3   7 9527.79  481.27   1
  -1   3   8-21.3673 80.3755   1
  -1   3   919017.30 744.428   1
  -1   3  10 62.1193 62.7969   1
  -1   3  11  864.26 129.385   1
  -1   3  12 212.976 89.1121   1
  -1   3  13 2631.07  269.73   1
  -1   4   051662.00 1233.37   1
  -1   4   159759.10 1434.57   1
  -1   4   221532.90 568.879   1
  -1   4   313175.10 365.216   1
  -1   4   410864.50 313.549   1
  -1   4   5 3651.23 141.783   1
  -1   4   6 31.3651 37.8019   1
  -1   4   713143.50 451.285   1
  -1   4   8 1685.74 154.519   1
  -1   4   9 952.294 104.896   1
  -1   4  10 194.738 65.5918   1
  -1   4  1115619.40 613.437   1
  -1   4  12 2974.06 263.745   1
  -1   4  13 24.9388 146.967   1
  -1   5   045577.60 1187.26   1
  -1   5   158783.60 1447.92   1
  -1   5   2 202.965  30.092   1
  -1   5   3 9528.73 281.501   1
  -1   5   4179193.0 4493.90   1
  -1   5   556411.40 1406.32   1
  -1   5   6 2934.36 183.742   1
  -1   5   7 1777.54 120.884   1
  -1   5   8 1459.76 115.919   1
  -1   5   9 2052.15 149.253   1
  -1   5  10 7185.27 424.047   1
  -1   5  1125885.70  984.81   1
  -1   5  12 5392.74 355.794   1
  -1   5  13 1564.77 180.771   1
  -1   6   0 8944.52 255.347   1
  -1   6   150660.80 1240.29   1
  -1   6   2 1372.07 81.0965   1
  -1   6   3 40.5052 25.7351   1
  -1   6   467746.10 1687.65   1
  -1   6   517173.50 494.455   1
  -1   6   6 1962.71 136.224   1
  -1   6   7 2544.16 180.477   1
  -1   6   812183.30 468.691   1
  -1   6   9 1296.81 191.091   1
  -1   6  10 133.306 52.2084   1
  -1   6  11 6682.21 391.131   1
  -1   6  12 2020.23 183.788   1
  -1   7   0 1208.83  113.94   1
  -1   7   1 4991.91 186.325   1
  -1   7   254600.00 1399.04   1
  -1   7   3 157.717 30.6523   1
  -1   7   4 91.1308 33.4822   1
  -1   7   511131.60 365.533   1
  -1   7   6 5252.70 270.794   1
  -1   7   7  5.9955 39.1974   1
  -1   7   8 3557.64 224.788   1
  -1   7   923115.20 866.266   1
  -1   7  10 1358.00 193.482   1
  -1   7  11 76.3883 90.4728   1
  -1   8   0  833.88  85.283   1
  -1   8   1 146.486 48.5165   1
  -1   8   216345.40 519.032   1
  -1   8   3 353.232 55.7231   1
  -1   8   4 8116.19 612.215   1
  -1   8   5 8153.04 337.245   1
  -1   8   612021.90 456.216   1
  -1   8   7 220.852 89.6687   1
  -1   8   8 2255.16 200.952   1
  -1   8   9 413.639 101.997   1
  -1   8  10 137.617 112.973   1
  -1   8  11 125.795 161.656   1
  -1   9   0 2036.79 152.342   1
  -1   9   1 5991.67 365.629   1
  -1   9   2 81.7466 85.0483   1
  -1   9   3 3090.80 290.408   1
  -1   9   4 261.133  71.279   1
  -1   9   5 1142.02 325.969   1
  -1   9   6 5747.47 431.204   1
  -1   9   7 1200.90 147.424   1
  -1   9   8 6337.15 462.725   1
  -1   9   9 35.9102  59.278   1
  -1   9  10 107.143 94.3431   1
  -1   9  11 3061.07  292.20   1
  -1  10   0 715.991 147.509   1
  -1  10   1 5250.22 484.009   1
  -1  10   2 5838.48  571.86   1
  -1  10   3  609.11 104.008   1
  -1  10   413357.20 571.476   1
  -1  10   514957.80 769.721   1
  -1  10   6 2508.99 282.108   1
  -1  10   7 5289.74 349.713   1
  -1  10   8 853.708 140.764   1
  -1  10   9 183.473 155.158   1
  -1  10  10 425.161 107.584   1
  -1  11   0  96.456 87.4286   1
  -1  11   1 1197.49 153.177   1
  -1  11   2 6891.36 470.339   1
  -1  11   3 6554.08 459.472   1
  -1  11   4 148.977 108.859   1
  -1  11   5 848.067 191.689   1
  -1  11   6 114.086 206.657   1
  -1  11   7 178.595 139.803   1
  -1  11   8 774.938 331.439   1
  -1  11   9 7819.48 611.102   1
  -1  12   0 282.826  321.79   1
  -1  12   1 6725.77 422.169   1
  -1  12   216601.90 1005.85   1
  -1  12   318616.10 826.372   1
  -1  12   4 3713.50 389.578   1
  -1  12   5 28.2355 70.7066   1
  -1  12   6 544.172 157.362   1
  -1  12   7 191.186  122.14   1
  -1  13   0 276.974 105.345   1
  -1  13   1 681.604 268.357   1
  -1  13   2 9696.65 569.863   1
  -1  13   3 1487.22 202.414   1
  -1  13   4  57.685 96.5447   1
  -1  13   5 87.4726 170.867   1
   0 -13   1  67.462 78.0489   1
   0 -13   2 364.442 126.438   1
   0 -13   310321.30 654.707   1
   0 -12   1 1973.08  235.24   1
   0 -12   2 7190.69 602.005   1
   0 -12   3 1357.59  184.00   1
   0 -12   4 205.087 118.054   1
   0 -12   5 2999.05 477.245   1
   0 -11   112915.00 649.448   1
   0 -11   2 820.003 153.712   1
   0 -11   310893.10 605.218   1
   0 -11   4  241.02 92.3422   1
   0 -11   5 929.036 184.727   1
   0 -11   6 4399.42 378.602   1
   0 -11   7  150.53 154.324   1
   0 -10   1 2615.10 336.021   1
   0 -10   2 402.552 94.6315   1
   0 -10   3 1815.06 228.276   1
   0 -10   4 8094.12 424.685   1
   0 -10   5 1150.23 130.783   1
   0 -10   6  608.90 107.901   1
   0 -10   7 128.844 70.5311   1
   0 -10   8 83.8872 77.3269   1
   0  -9   1 3731.85 239.116   1
   0  -9   2 3887.92 324.027   1
   0  -9   3 223.442 73.7968   1
   0  -9   412291.00 470.065   1
   0  -9   5 347.247 70.1487   1
   0  -9   6 6196.92 1062.67   1
   0  -9   7-34.9138 116.363   1
   0  -9   8 5411.89 354.146   1
   0  -9   9 362.685 140.228   1
   0  -8   112180.60 387.402   1
   0  -8   2 4885.45 310.592   1
   0  -8   3 4972.33 249.011   1
   0  -8   4 4160.37 218.023   1
   0  -8   529159.00 899.872   1
   0  -8   6 3305.28 224.879   1
   0  -8   7 4402.75 528.957   1
   0  -8   8 6753.00 430.284   1
   0  -8   918234.80 1111.52   1
   0  -8  10-99.5788 275.237   1
   0  -7   117216.10 480.074   1
   0  -7   2233820.0 6043.72   1
   0  -7   3 1051.67 80.6428   1
   0  -7   412422.10 467.634   1
   0  -7   5 8864.45  318.95   1
   0  -7   622717.90 762.544   1
   0  -7   719306.40  708.23   1
   0  -7   8 7071.71 680.112   1
   0  -7   924030.60 2530.78   1
   0  -7  10 3600.73 430.202   1
   0  -7  11 1538.29 240.428   1
   0  -6   148430.50 1178.78   1
   0  -6   2 6901.57 225.469   1
   0  -6   3148110.0 3679.44   1
   0  -6   416506.50 476.875   1
   0  -6   5 1260.15 100.064   1
   0  -6   6 1915.87 140.066   1
   0  -6   7 8818.92 346.043   1
   0  -6   815857.30 792.511   1
   0  -6   9 336.499 271.284   1
   0  -6  1011280.70 902.961   1
   0  -6  11 605.283  149.66   1
   0  -5   129536.20  723.01   1
   0  -5   2 7764.86 234.312   1
   0  -5   377113.20 1860.16   1
   0  -5   419624.30 532.812   1
   0  -5   519693.30 562.271   1
   0  -5   623414.80 801.086   1
   0  -5   714380.80 536.335   1
   0  -5   8 160.699 55.7935   1
   0  -5   9 125.033 182.569   1
   0  -5  10 9370.91 551.222   1
   0  -5  11 7877.76 573.162   1
   0  -5  12 8294.62 583.646   1
   0  -4   190011.00 2072.54   1
   0  -4   2 2941.33 109.817   1
   0  -4   3-3.27151 37.6203   1
   0  -4   4 539.231 61.8045   1
   0  -4   5 685.837 56.9031   1
   0  -4   6 5321.12 195.814   1
   0  -4   7 2010.92 128.999   1
   0  -4   8 8206.21 426.428   1
   0  -4   9 685.265 291.475   1
   0  -4  10 19.2577 100.257   1
   0  -4  11 3897.14 549.386   1
   0  -4  12 1445.65 225.294   1
   0  -3   149147.50 1124.29   1
   0  -3   2 3882.33 123.719   1
   0  -3   3105653.0 2429.56   1
   0  -3   4 1246.97 59.5611   1
   0  -3   521196.40  545.73   1
   0  -3   621709.90 575.065   1
   0  -3   7 6845.19  256.20   1
   0  -3   8 3662.44 241.217   1
   0  -3   925411.40 1594.03   1
   0  -3  10 2707.12 257.822   1
   0  -3  11 164.926 75.1067   1
   0  -3  12 2916.17 303.471   1
   0  -3  13 353.402  133.04   1
   0  -2   1  364.34 23.3705   1
   0  -2   2981154.030837.20   1
   0  -2   3 2113.22 77.4127   1
   0  -2   467008.10 1550.13   1
   0  -2   540005.70 945.352   1
   0  -2   625443.90  794.46   1
   0  -2   7 3920.50 188.585   1
   0  -2   8 365.858  84.528   1
   0  -2   914399.90 579.285   1
   0  -2  10 1088.76 135.603   1
   0  -2  1110375.10 584.922   1
   0  -2  12 737.921 166.372   1
   0  -2  13 5925.29 651.579   1
   0  -1   1274574.0 5596.39   1
   0  -1   2 162.333 19.8732   1
   0  -1   3472649.011867.50   1
   0  -1   475582.70 1801.03   1
   0  -1   510588.90 326.759   1
   0  -1   639990.20 1191.79   1
   0  -1   775067.00 1854.93   1
   0  -1   812206.90 446.013   1
   0  -1   9 1295.43 128.787   1
   0  -1  10 6862.49 347.733   1
   0  -1  11 1619.42 166.807   1
   0  -1  12 1966.55 204.072   1
   0  -1  13 8040.63 863.909   1
   0   0   124651.70 551.109   1
   0   0   253731.30 1316.57   1
   0   0   3298479.0 7926.46   1
   0   0   487557.00 2221.92   1
   0   0   5 7788.44 239.762   1
   0   0   637023.10 917.836   1
   0   0   7214520.0 5587.82   1
   0   0   8 394.477 82.3634   1
   0   0   910188.70 655.636   1
   0   0  1011789.50 490.787   1
   0   0  1129252.70 1562.22   1
   0   0  12 4290.34 437.493   1
   0   0  13 4111.32 319.661   1
   0   0  14 6119.77 731.176   1
   0   1   011315.90 322.428   1
   0   1   2129140.0 2890.46   1
   0   1   3 233.595 62.0654   1
   0   1   4204353.0 4724.16   1
   0   1   521751.40 566.144   1
   0   1   624009.30 604.593   1
   0   1   7 4772.05 197.488   1
   0   1   843229.20 1578.71   1
   0   1   9 5937.67  294.48   1
   0   1  10 1630.46 157.859   1
   0   1  11 3658.12 257.612   1
   0   1  1211743.00 652.079   1
   0   1  13 4196.37 347.217   1
   0   1  14 218.285 127.571   1
   0   2   0152657.0 3493.58   1
   0   2   1196471.0 4568.32   1
   0   2   2 72.5579 14.6079   1
   0   2   322230.50 630.306   1
   0   2   444031.00 1046.52   1
   0   2   5210037.0 5155.21   1
   0   2   612493.80 376.556   1
   0   2   7 1788.31 115.048   1
   0   2   833490.90 960.711   1
   0   2   919642.50 675.058   1
   0   2  10 5766.35  330.66   1
   0   2  1111998.80 653.367   1
   0   2  12 218.882 77.9605   1
   0   2  13 180.537 95.8189   1
   0   2  14 131.395 84.1088   1
   0   3   0 883.751 39.8437   1
   0   3   113288.90 325.225   1
   0   3   2233975.0 5558.25   1
   0   3   3 5905.75 196.056   1
   0   3   464632.80 1533.98   1
   0   3   533488.90 847.949   1
   0   3   614158.50  540.68   1
   0   3   7 4040.46  185.60   1
   0   3   8 1291.71 120.934   1
   0   3   9 90.7275 65.7142   1
   0   3  10  0.1116   39.27   1
   0   3  11 1797.36 190.575   1
   0   3  12 1539.21 202.876   1
   0   3  13 327.421 165.032   1
   0   3  14 2641.87 348.778   1
   0   4   0 3934.43 150.611   1
   0   4   1187103.0 4289.56   1
   0   4   263055.80 1459.88   1
   0   4   333745.70 811.176   1
   0   4   432090.80 952.529   1
   0   4   5 1262.41 84.6761   1
   0   4   6 1306.32 96.8335   1
   0   4   719239.10 575.885   1
   0   4   819560.90 687.949   1
   0   4   9 381.927 63.4736   1
   0   4  10 1850.83 201.308   1
   0   4  11 1592.96 210.205   1
   0   4  12 1684.84 198.305   1
   0   4  13 14.1936 80.8976   1
   0   5   0392253.010690.70   1
   0   5   1 9669.64 258.335   1
   0   5   228630.30 726.914   1
   0   5   318717.20 488.285   1
   0   5   4 58.3012 23.5001   1
   0   5   524863.10  679.38   1
   0   5   6 2273.66 127.333   1
   0   5   741784.30 1466.40   1
   0   5   8 177.846 43.8676   1
   0   5   9 6588.36 289.073   1
   0   5  10 5189.78 297.948   1
   0   5  11 6097.67 397.471   1
   0   5  12 5952.11 592.835   1
   0   5  13 658.895  125.71   1
   0   6   017019.80 491.102   1
   0   6   136769.00 917.557   1
   0   6   217367.00 465.398   1
   0   6   3 2497.35 143.295   1
   0   6   497496.20 2413.45   1
   0   6   542590.60 1352.50   1
   0   6   633524.00 1184.01   1
   0   6   711940.90 467.663   1
   0   6   8 5407.77 304.427   1
   0   6   9 4373.52 340.301   1
   0   6  10 651.241 85.0819   1
   0   6  1111271.50 470.323   1
   0   6  1219875.30 1058.49   1
   0   6  13 3241.61 324.906   1
   0   7   0 5832.45 208.018   1
   0   7   1 764.216  61.473   1
   0   7   2 40.3071  24.133   1
   0   7   3 1460.04 111.754   1
   0   7   4 106.423 37.7683   1
   0   7   5185066.0 5414.92   1
   0   7   6  956.50 108.206   1
   0   7   7 820.241 95.6296   1
   0   7   8 6490.96 342.898   1
   0   7   915696.10 649.788   1
   0   7  10-28.4392 200.551   1
   0   7  11 1715.44 199.469   1
   0   7  1210619.20 729.439   1
   0   7  13 760.349 216.252   1
   0   8   0 8039.89 278.121   1
   0   8   1 1269.42 87.9225   1
   0   8   260156.50 1618.92   1
   0   8   311093.00 391.623   1
   0   8   4 6400.24 282.094   1
   0   8   5 2280.99 193.329   1
   0   8   612605.90 569.697   1
   0   8   7 2240.05 192.015   1
   0   8   8 833.845 126.331   1
   0   8   9 8599.86  713.38   1
   0   8  10 8031.07  592.25   1
   0   8  11 1981.77 221.614   1
   0   8  12 316.589 100.416   1
   0   9   0  135.50 50.8923   1
   0   9   1 2334.23 189.525   1
   0   9   2 267.415 53.5329   1
   0   9   323937.60 772.741   1
   0   9   4 836.412 95.4499   1
   0   9   5 7412.40 455.247   1
   0   9   6 2965.99 230.348   1
   0   9   7 3662.71  267.55   1
   0   9   8 186.708 73.5134   1
   0   9   9 1298.97 199.094   1
   0   9  10 1699.75 207.947   1
   0   9  11 -28.826 214.546   1
   0  10   0 3352.00  229.63   1
   0  10   1  355.28 76.0461   1
   0  10   2 5428.29 404.886   1
   0  10   3 38.7883 73.1665   1
   0  10   4 111.093  50.556   1
   0  10   5 1307.58 222.436   1
   0  10   6 1083.11 165.063   1
   0  10   7 73.2936 74.7431   1
   0  10   8 221.828 83.2458   1
   0  10   9 2872.87 361.051   1
   0  10  10 301.842 134.284   1
   0  10  11 276.043 120.796   1
   0  11   0 5027.60 309.478   1
   0  11   1 2156.10 404.738   1
   0  11   2 3665.02 277.927   1
   0  11   3 931.496 142.488   1
   0  11   4 4395.59 268.824   1
   0  11   5 3839.18 297.447   1
   0  11   611930.30  723.68   1
   0  11   7 3231.18 354.712   1
   0  11   8 1216.48 554.342   1
   0  11   9 1260.91 175.173   1
   0  12   0 5305.02 456.126   1
   0  12   1 856.341 160.449   1
   0  12   2 338.386 93.5247   1
   0  12   3 4340.81 330.633   1
   0  12   4 5529.35 380.826   1
   0  12   5 5896.52 936.485   1
   0  12   7 768.916 153.732   1
   0  12   8 348.882 135.268   1
   0  13   0 1810.27 283.834   1
   0  13   1  543.55 164.269   1
   0  13   220029.50 1397.09   1
   0  13   3 9103.70 549.262   1
   0  13   4 9333.92 890.672   1
   0  13   5 3586.63 514.578   1
   0  13   6 494.776 159.511   1
   1 -13   1 2973.34 365.317   1
   1 -13   2 365.662 125.882   1
   1 -12   1 2079.52 279.817   1
   1 -12   2 1624.24 218.151   1
   1 -12   3 6888.97 428.618   1
   1 -12   415033.30 722.532   1
   1 -12   5 3397.83 352.577   1
   1 -11   1 2056.09 224.401   1
   1 -11   2 1910.84 249.114   1
   1 -11   3 2438.36  221.33   1
   1 -11   4 2029.15 181.988   1
   1 -11   5 1330.39 148.597   1
   1 -11   6 280.233 95.6319   1
   1 -10   112549.80 582.327   1
   1 -10   217299.60  649.24   1
   1 -10   3 4713.78 523.878   1
   1 -10   4 561.147 90.4012   1
   1 -10   5 8583.50 454.343   1
   1 -10   6 437.983 121.561   1
   1 -10   7-38.3351 116.481   1
   1 -10   8 6553.40 413.171   1
   1  -9   1 1816.51 156.016   1
   1  -9   2 73.3656 56.6086   1
   1  -9   3 942.758 112.903   1
   1  -9   4 7676.92 367.644   1
   1  -9   5 828.495 102.087   1
   1  -9   6 4944.46 527.255   1
   1  -9   7 35.8146 48.4954   1
   1  -9   8 1213.04  156.00   1
   1  -9   9 293.894 108.789   1
   1  -8   114865.40 471.403   1
   1  -8   2 4599.73 236.558   1
   1  -8   314039.30 529.268   1
   1  -8   4 183.848 52.6471   1
   1  -8   546898.50 1366.44   1
   1  -8   6 3363.80 226.123   1
   1  -8   7 5226.49 576.057   1
   1  -8   8 81.0014 60.9461   1
   1  -8   9 3097.99 268.012   1
   1  -8  10 1305.96 211.056   1
   1  -7   124472.20 677.451   1
   1  -7   278038.00 1998.12   1
   1  -7   3 2985.95 226.412   1
   1  -7   4 151.375 46.6111   1
   1  -7   5 2358.52  155.04   1
   1  -7   628210.20 902.581   1
   1  -7   7 12.0858 79.8663   1
   1  -7   8 1991.96 286.856   1
   1  -7   922377.60 858.743   1
   1  -7  10 557.735 140.286   1
   1  -7  11 429.974 142.372   1
   1  -6   110191.60 297.898   1
   1  -6   2 7627.67 283.495   1
   1  -6   3207049.0 5695.50   1
   1  -6   4 45.6648 31.0285   1
   1  -6   5 1596.41 124.649   1
   1  -6   6 155.127 53.0028   1
   1  -6   7 680.344 94.3679   1
   1  -6   8 7826.91 373.517   1
   1  -6   9 6493.03 355.672   1
   1  -6  1048542.10 1882.36   1
   1  -6  11 261.971 151.839   1
   1  -5   124480.50 689.536   1
   1  -5   2159422.0 3849.81   1
   1  -5   339081.20 980.261   1
   1  -5   418665.80 608.575   1
   1  -5   5 3187.86 172.818   1
   1  -5   6 1420.48 133.273   1
   1  -5   723177.50 739.598   1
   1  -5   8 6036.82 301.561   1
   1  -5   919942.20 832.798   1
   1  -5  10 123.667 73.4081   1
   1  -5  1118657.30 1300.68   1
   1  -5  12 113.802 71.9332   1
   1  -4   143864.70 1043.19   1
   1  -4   2 824.357 52.2238   1
   1  -4   3 3351.98 124.707   1
   1  -4   4 781.343 66.9471   1
   1  -4   519464.80 572.508   1
   1  -4   6 7493.97 271.787   1
   1  -4   7 8028.94 492.716   1
   1  -4   821818.00  714.88   1
   1  -4   9  207.58 58.0982   1
   1  -4  10 299.296 99.3805   1
   1  -4  11 3540.72 774.067   1
   1  -4  12 218.723 110.533   1
   1  -4  13 1871.27  262.15   1
   1  -3   1224974.0 5232.43   1
   1  -3   273360.30 2211.46   1
   1  -3   361213.80 1431.91   1
   1  -3   422589.70 564.385   1
   1  -3   551526.30 1474.49   1
   1  -3   622176.00 618.347   1
   1  -3   710483.50 457.545   1
   1  -3   8 713.823  92.457   1
   1  -3   9 387.091 94.1364   1
   1  -3  1011968.30 594.214   1
   1  -3  11 403.947  202.15   1
   1  -3  12  294.84 108.996   1
   1  -3  13 4561.57  412.54   1
   1  -2   1159999.0 3606.86   1
   1  -2   2184339.0 4190.44   1
   1  -2   331362.10 803.069   1
   1  -2   422887.70 559.712   1
   1  -2   5 1.56269 16.9937   1
   1  -2   6 931.861 78.0721   1
   1  -2   7 21.0413 31.4607   1
   1  -2   8 7019.66 271.132   1
   1  -2   913905.80 546.692   1
   1  -2  10  192.03 222.037   1
   1  -2  11 7342.63 578.551   1
   1  -2  12 1040.61 170.834   1
   1  -2  13 893.638 181.991   1
   1  -1   155722.30 1314.97   1
   1  -1   225280.40 599.299   1
   1  -1   3714803.016247.30   1
   1  -1   4 5900.49 181.525   1
   1  -1   529013.90 700.766   1
   1  -1   6 926.128 56.1395   1
   1  -1   7 7730.83 391.534   1
   1  -1   814611.40 536.857   1
   1  -1   9 270.496 64.1214   1
   1  -1  1070346.40 2786.86   1
   1  -1  11 2643.61 215.427   1
   1  -1  12 8936.17 555.363   1
   1  -1  13 1111.20 244.881   1
   1  -1  14 6795.09 537.349   1
   1   0   0788387.015209.20   1
   1   0   135544.20 846.271   1
   1   0   2 3491.12 106.075   1
   1   0   379479.50 1837.18   1
   1   0   411425.80 292.946   1
   1   0   5 640.925 40.3871   1
   1   0   632229.90 769.325   1
   1   0   7211724.0 5402.67   1
   1   0   8 1569.53 102.793   1
   1   0   9 477.915 91.5806   1
   1   0  10 8103.13 431.991   1
   1   0  1116932.90 694.072   1
   1   0  12 225.116 88.2634   1
   1   0  13 152.485 94.6943   1
   1   0  1411469.30 1121.17   1
   1   1   0293130.0 6991.38   1
   1   1   2101404.0 2464.14   1
   1   1   384475.50 1922.53   1
   1   1   440151.10 1137.59   1
   1   1   515741.20 434.763   1
   1   1   626007.00 657.661   1
   1   1   7 5258.08 191.815   1
   1   1   8214284.0 7188.46   1
   1   1   9 993.243 108.867   1
   1   1  10 1815.42 191.153   1
   1   1  11 3003.24 324.783   1
   1   1  12 5988.71 568.439   1
   1   1  13 2928.97 259.679   1
   1   1  14 2426.99 345.051   1
   1   2   0284945.0 7334.59   1
   1   2   1685772.014911.20   1
   1   2   2 1024.05 56.0904   1
   1   2   3 3614.63 116.264   1
   1   2   453697.30 1274.15   1
   1   2   5254259.0 6352.92   1
   1   2   6 350.193 46.6876   1
   1   2   763303.50 2065.30   1
   1   2   8 380.763 61.2082   1
   1   2   9 5607.78 298.108   1
   1   2  10 589.655 104.864   1
   1   2  11 2572.10 214.963   1
   1   2  1212853.30 1870.44   1
   1   2  13 1.18212 75.4339   1
   1   2  14 3344.59 641.451   1
   1   3   0 2686.73 107.263   1
   1   3   110980.40  313.07   1
   1   3   252087.90 1224.70   1
   1   3   334293.60 828.125   1
   1   3   478660.20 1842.85   1
   1   3   519449.00 524.682   1
   1   3   629356.00 745.623   1
   1   3   7 1476.54  125.57   1
   1   3   8 501.083 67.1787   1
   1   3   9-51.3368 78.5992   1
   1   3  10 568.646 136.145   1
   1   3  11 3204.30 259.663   1
   1   3  12 3128.14 374.102   1
   1   3  13 2402.66 239.629   1
   1   3  14-49.4849 206.658   1
   1   4   0128451.0 3203.89   1
   1   4   1 252.808 26.6826   1
   1   4   238414.10 940.552   1
   1   4   337395.50  909.81   1
   1   4   4 153.257 26.9186   1
   1   4   525226.80  637.79   1
   1   4   6 7387.22 263.074   1
   1   4   718464.00 519.773   1
   1   4   812233.00 423.012   1
   1   4   9 1027.99  105.84   1
   1   4  10 8257.74 793.138   1
   1   4  11 5038.52  568.63   1
   1   4  12 909.993 145.692   1
   1   4  13 876.604 403.014   1
   1   4  14  334.82 108.956   1
   1   5   054743.40 1325.12   1
   1   5   1 237.536 29.2538   1
   1   5   242373.50 1147.89   1
   1   5   316995.20 488.937   1
   1   5   421443.00 583.522   1
   1   5   5 830.287 86.7713   1
   1   5   616349.50 473.129   1
   1   5   742815.00 1249.09   1
   1   5   8 141.291 56.2522   1
   1   5   9 6586.15 445.832   1
   1   5  10 3638.10  253.63   1
   1   5  11 650.817 150.489   1
   1   5  12  15.678 88.5438   1
   1   5  13 1371.83 265.621   1
   1   6   0 1525.37 108.687   1
   1   6   170739.80 1755.56   1
   1   6   224493.40 634.793   1
   1   6   365901.80 1653.49   1
   1   6   424391.00 673.605   1
   1   6   522619.30 641.835   1
   1   6   6 4288.15 196.498   1
   1   6   7 6065.56 495.807   1
   1   6   856915.90 2199.29   1
   1   6   9-14.2035 101.566   1
   1   6  10 5757.35 317.898   1
   1   6  11 492.154 96.0457   1
   1   6  12 1346.07 196.098   1
   1   6  13 3466.32 338.839   1
   1   7   030678.00 841.884   1
   1   7   141450.90 1053.61   1
   1   7   2 333.032 45.8499   1
   1   7   3 9357.65 428.664   1
   1   7   426475.70 1288.00   1
   1   7   5123544.0 3674.17   1
   1   7   623560.70 1509.37   1
   1   7   7 3817.50  380.22   1
   1   7   8 2551.40 256.931   1
   1   7   9 437.147 132.612   1
   1   7  10 251.418 126.453   1
   1   7  11 845.987 167.517   1
   1   7  1226816.90 1796.46   1
   1   7  13 5378.56 529.371   1
   1   8   0 9667.34  335.03   1
   1   8   123379.10 692.032   1
   1   8   210335.80 359.014   1
   1   8   3 604.272 101.515   1
   1   8   413123.90 573.495   1
   1   8   5 5294.85 339.861   1
   1   8   670296.00 2140.31   1
   1   8   7 4368.29 282.642   1
   1   8   8 2361.93 209.606   1
   1   8   9 202.699 75.6061   1
   1   8  10 2172.59 223.394   1
   1   8  11 1045.18 220.091   1
   1   8  12 659.268 180.606   1
   1   9   0 851.961 95.1813   1
   1   9   1 7676.87  343.94   1
   1   9   2 204.457 49.6506   1
   1   9   320725.80 859.057   1
   1   9   4 9889.11 456.972   1
   1   9   5 6982.95 330.013   1
   1   9   6 4162.25 282.373   1
   1   9   7-42.2299 111.901   1
   1   9   8 158.897  155.01   1
   1   9   9 8.49162 102.693   1
   1   9  1013674.10 695.231   1
   1   9  11 1395.97 193.794   1
   1   9  12 2653.04 333.001   1
   1  10   0 919.528 106.084   1
   1  10   1  19.262 71.9024   1
   1  10   2 1784.57 155.001   1
   1  10   312722.90  566.93   1
   1  10   4 52.3168 58.2379   1
   1  10   5 103.336 53.3252   1
   1  10   6-38.5497 105.914   1
   1  10   7 1577.51 289.782   1
   1  10   8 5.97391  61.157   1
   1  10   9 1306.54 284.504   1
   1  10  10 1200.54 180.643   1
   1  10  11 277.293 235.302   1
   1  11   0 1008.22 121.289   1
   1  11   1 389.346 141.836   1
   1  11   2 38.1783 58.4097   1
   1  11   3 59.4603 63.4511   1
   1  11   4 8214.19 560.139   1
   1  11   5 4095.97 316.488   1
   1  11   6 848.503 144.094   1
   1  11   7 1217.42 152.481   1
   1  11   8 694.157  136.21   1
   1  11   9 617.744 141.453   1
   1  11  10 863.153 269.632   1
   1  12   017738.50 1025.34   1
   1  12   1 1191.15 170.905   1
   1  12   2 7591.29 465.632   1
   1  12   3 3390.68 294.779   1
   1  12   4 582.912 127.381   1
   1  12   5 8963.30 665.581   1
   1  12   6 2221.45 254.444   1
   1  12   7 6077.81 712.352   1
   1  12   8 1085.05 185.341   1
   1  13   0 127.733 94.8855   1
   1  13   110164.00 742.749   1
   1  13   2 2782.58 354.798   1
   1  13   3 578.648 192.024   1
   1  13   4 1168.26 441.843   1
   1  13   5 637.001 145.552   1
   1  13   6 4045.07  358.28   1
   2 -12   1 1090.50 202.948   1
   2 -12   2 3469.63 422.382   1
   2 -12   3 91.1733 103.719   1
   2 -11   1 294.076 107.355   1
   2 -11   2  103.09  68.875   1
   2 -11   3 211.212 68.8107   1
   2 -11   4 4816.18 294.864   1
   2 -11   516711.50 726.374   1
   2 -11   6 9724.77 605.944   1
   2 -10   1 166.281 55.2702   1
   2 -10   2  568.21 142.784   1
   2 -10   3 5280.17 596.539   1
   2 -10   4 4959.89 282.452   1
   2 -10   5 331.169 83.9679   1
   2 -10   6 1028.60 144.917   1
   2 -10   7 1705.73 193.623   1
   2  -9   111901.30 475.597   1
   2  -9   2 8885.86 395.727   1
   2  -9   3 8656.53 451.955   1
   2  -9   416108.10 580.953   1
   2  -9   5 923.337 120.824   1
   2  -9   6 9664.12 429.548   1
   2  -9   7 624.382 142.688   1
   2  -9   8 421.143 132.955   1
   2  -8   111364.50 432.155   1
   2  -8   219278.80 808.545   1
   2  -8   3 39.4935 52.3809   1
   2  -8   4 2206.25 153.441   1
   2  -8   513288.10  586.61   1
   2  -8   6 117.232 73.1884   1
   2  -8   7 2303.93 278.638   1
   2  -8   8 1346.08 158.162   1
   2  -8   9 1289.01 162.499   1
   2  -8  10 331.604 93.4703   1
   2  -7   1 2998.88 195.237   1
   2  -7   218022.40 587.385   1
   2  -7   3  550.52  72.074   1
   2  -7   4 4711.78 226.865   1
   2  -7   5 1769.65 132.874   1
   2  -7   610330.30  520.27   1
   2  -7   7 69.3542 58.6281   1
   2  -7   8 5492.03 523.522   1
   2  -7   9 8117.83 603.424   1
   2  -7  10 184.551 89.6099   1
   2  -6   1 43.1307 30.8516   1
   2  -6   2 7221.82 326.502   1
   2  -6   321239.70 616.135   1
   2  -6   4 328.069 52.9013   1
   2  -6   5 3703.87 210.787   1
   2  -6   623856.10 732.871   1
   2  -6   7 1666.27  157.56   1
   2  -6   8 618.881 90.9003   1
   2  -6   9 2700.64 214.761   1
   2  -6  1030089.80 1749.05   1
   2  -6  11 78.2222 67.9161   1
   2  -5   1 1682.57 160.311   1
   2  -5   213647.20 483.764   1
   2  -5   372957.30 2360.73   1
   2  -5   420594.00 732.719   1
   2  -5   5 1136.27 103.836   1
   2  -5   6 3807.08 191.841   1
   2  -5   7 7385.44 432.938   1
   2  -5   8 199.831 91.4395   1
   2  -5   915803.20 709.897   1
   2  -5  10 6963.43 425.433   1
   2  -5  1116797.80 872.785   1
   2  -5  12 1811.56  505.27   1
   2  -4   112129.80 339.141   1
   2  -4   2 6401.76 249.286   1
   2  -4   391838.70 2234.59   1
   2  -4   4111432.0 2899.93   1
   2  -4   5 124.869 32.8579   1
   2  -4   6 3266.59 151.397   1
   2  -4   7 718.954  91.163   1
   2  -4   8 2911.03 189.455   1
   2  -4   9 2202.17 176.997   1
   2  -4  1023123.20 1551.02   1
   2  -4  11 4476.97 356.401   1
   2  -4  12 519.943 127.744   1
   2  -3   1211456.0 5053.77   1
   2  -3   225202.40 613.192   1
   2  -3   3 1747.07 92.0799   1
   2  -3   4 1035.31 61.6432   1
   2  -3   5 1075.50 80.2837   1
   2  -3   6 2004.40 109.687   1
   2  -3   713440.40 524.786   1
   2  -3   829986.90 1398.29   1
   2  -3   9 3973.41 234.198   1
   2  -3  10 3098.14 326.768   1
   2  -3  11  155.97 58.8487   1
   2  -3  12 3248.04 311.856   1
   2  -3  13 4125.75 383.552   1
   2  -2   120896.60 621.231   1
   2  -2   2120601.0 2784.59   1
   2  -2   317441.90 433.201   1
   2  -2   422177.70 561.473   1
   2  -2   5 981.179 70.5336   1
   2  -2   6 4576.72 167.302   1
   2  -2   7 4167.67 162.143   1
   2  -2   8 268.944 48.7238   1
   2  -2   921121.00 1149.17   1
   2  -2  10 6227.92 480.253   1
   2  -2  11 7722.41 556.365   1
   2  -2  12 390.371 260.252   1
   2  -2  13 1248.92 347.045   1
   2  -1   1 4643.68  204.77   1
   2  -1   219036.90 465.848   1
   2  -1   311320.50 298.332   1
   2  -1   4 3299.07 119.983   1
   2  -1   516514.90 425.016   1
   2  -1   659833.30 1540.92   1
   2  -1   730606.30 1040.88   1
   2  -1   8 1041.49 82.8961   1
   2  -1   921337.40 659.018   1
   2  -1  1035052.90 1333.48   1
   2  -1  11 516.455 110.424   1
   2  -1  12 892.729  174.40   1
   2  -1  13 147.305  86.109   1
   2   0   013124.60 365.555   1
   2   0   1 6782.05 232.527   1
   2   0   222152.70 567.479   1
   2   0   3106527.0 2466.73   1
   2   0   424336.90 604.679   1
   2   0   5 2990.82 115.441   1
   2   0   674663.80 1952.28   1
   2   0   729398.00 753.836   1
   2   0   8 2193.96 121.717   1
   2   0   9 40.0371  33.937   1
   2   0  10 61.1536 56.6283   1
   2   0  1119929.30 1275.80   1
   2   0  12  193.26 87.5252   1
   2   0  13 7722.48 638.219   1
   2   0  14 2437.24 411.664   1
   2   1   0 18.9659 18.3233   1
   2   1   126465.50 641.094   1
   2   1   216733.40 443.134   1
   2   1   3 9740.03 295.443   1
   2   1   4190296.0 4565.60   1
   2   1   5  717.88 60.6331   1
   2   1   6 1983.24  95.298   1
   2   1   717202.90  553.48   1
   2   1   863097.50 1821.38   1
   2   1   9 8042.32 422.843   1
   2   1  10 700.084 185.229   1
   2   1  11 912.912 118.755   1
   2   1  12 439.727 92.8014   1
   2   1  13 99.7753 92.9259   1
   2   1  14 654.356 173.644   1
   2   2   010419.90 287.929   1
   2   2   1480568.011976.60   1
   2   2   2109913.0 2735.13   1
   2   2   3 728.028 44.3878   1
   2   2   441603.70 1159.87   1
   2   2   5 6334.02 236.275   1
   2   2   6 1270.30 74.4051   1
   2   2   738389.60  996.89   1
   2   2   855924.80 1443.67   1
   2   2   921520.80 1027.33   1
   2   2  10 6814.55 376.689   1
   2   2  11 5458.56 364.268   1
   2   2  12 3686.98 294.092   1
   2   2  13  342.20 104.675   1
   2   2  14 7669.12 603.989   1
   2   3   0 3613.82 131.401   1
   2   3   168267.10 1718.96   1
   2   3   2229611.0 6202.01   1
   2   3   310678.10 292.872   1
   2   3   4 1393.07 93.0496   1
   2   3   5 4586.91 211.938   1
   2   3   6 354.056 55.6676   1
   2   3   7 1773.66  105.82   1
   2   3   816379.10 883.516   1
   2   3   925019.30 1240.26   1
   2   3  10 420.856 68.8322   1
   2   3  11 72.5614 86.1299   1
   2   3  12 301.551 209.383   1
   2   3  13 6216.02 601.542   1
   2   4   0 702.127 63.7178   1
   2   4   1 5393.14 189.641   1
   2   4   2 9143.54 293.131   1
   2   4   312846.90 456.917   1
   2   4   4 52.7928 29.7472   1
   2   4   5 5846.01 273.857   1
   2   4   6127450.0 3943.81   1
   2   4   7 7081.69 285.466   1
   2   4   8 118.304 42.6233   1
   2   4   9 4682.12 234.719   1
   2   4  10 2897.17 219.406   1
   2   4  11 565.703 132.802   1
   2   4  12 5571.22 463.529   1
   2   4  13 4801.05 423.179   1
   2   4  14 342.572 200.522   1
   2   5   015405.90 429.134   1
   2   5   110009.20  402.10   1
   2   5   222504.50  639.52   1
   2   5   331399.50 878.351   1
   2   5   414763.30 561.514   1
   2   5   5 4150.79 195.849   1
   2   5   6 1949.51 131.708   1
   2   5   722430.00 820.955   1
   2   5   8 7565.22 299.093   1
   2   5   9 2237.91 150.657   1
   2   5  10 54.0641 38.0373   1
   2   5  11 76.3867  76.212   1
   2   5  12 1290.97 354.606   1
   2   5  13 50.1463 81.9417   1
   2   6   0 7061.01 329.335   1
   2   6   1 2141.02 134.195   1
   2   6   2 616.028 73.3203   1
   2   6   355612.40 1432.48   1
   2   6   455490.10 1435.88   1
   2   6   517574.70 841.354   1
   2   6   6 4241.97 210.411   1
   2   6   710318.20 461.847   1
   2   6   812525.90 644.694   1
   2   6   9 2268.41 229.483   1
   2   6  10 4997.97 627.167   1
   2   6  11 1152.71 220.206   1
   2   6  12 4843.06 494.121   1
   2   6  13 -57.292 247.568   1
   2   7   011024.50 505.385   1
   2   7   143235.70 1237.56   1
   2   7   220628.90  730.10   1
   2   7   3  533.90 68.6306   1
   2   7   439579.20 1078.57   1
   2   7   5 1550.78 112.627   1
   2   7   6 200.715  51.957   1
   2   7   7 481.375 98.8809   1
   2   7   8 5070.22 317.699   1
   2   7   9 7844.74  688.61   1
   2   7  10 414.328  112.29   1
   2   7  1114186.90 1268.65   1
   2   7  12 2849.57 359.171   1
   2   7  13 412.993 159.557   1
   2   8   0 3624.51 197.436   1
   2   8   1 9360.54 571.471   1
   2   8   218850.20 621.683   1
   2   8   3 2632.58 158.178   1
   2   8   4 2513.52 178.071   1
   2   8   5-13.0031 86.1475   1
   2   8   619565.10 911.154   1
   2   8   713518.00 594.753   1
   2   8   8 4630.35 371.254   1
   2   8   9 2687.23 250.346   1
   2   8  10 36.4919 106.603   1
   2   8  11  831.82 146.778   1
   2   8  12 528.631 344.503   1
   2   9   039903.50 1246.08   1
   2   9   1 2525.68 219.955   1
   2   9   2 231.163 95.6978   1
   2   9   3 2272.17 199.861   1
   2   9   4 548.678 88.7732   1
   2   9   5 2539.08 193.116   1
   2   9   640871.20 1627.85   1
   2   9   714833.30 707.745   1
   2   9   8 1212.34 240.718   1
   2   9   9 4762.93 351.236   1
   2   9  10 822.638 150.975   1
   2   9  11 1427.03  498.66   1
   2  10   0 7086.27 444.348   1
   2  10   1 1394.79 168.309   1
   2  10   2 44.5322  64.823   1
   2  10   314394.10 649.983   1
   2  10   4  183.24 66.1171   1
   2  10   5 612.168 102.509   1
   2  10   6 1056.73 137.201   1
   2  10   7 7242.18  718.83   1
   2  10   8 84.6048  63.057   1
   2  10   9 256.819 73.1654   1
   2  10  10 2009.05 241.629   1
   2  10  11 1441.45 332.627   1
   2  11   010806.00 1520.98   1
   2  11   1 1532.35 273.643   1
   2  11   2 275.878  211.77   1
   2  11   3 3.54147 79.5791   1
   2  11   422576.10 955.309   1
   2  11   5 551.429 126.211   1
   2  11   6 356.885 83.8294   1
   2  11   7 165.714 91.5577   1
   2  11   8-43.5289 123.177   1
   2  11   9 86.4526 63.5256   1
   2  12   0 3355.21 562.837   1
   2  12   1 6685.05  459.62   1
   2  12   2 626.092  138.14   1
   2  12   3 1029.81 234.073   1
   2  12   4-95.9808 136.713   1
   2  12   5 1888.32 310.075   1
   2  12   6 685.493 139.441   1
   2  12   7 1509.25 208.818   1
   2  12   8 898.584 167.855   1
   2  13   0-12.3408 98.7006   1
   2  13   110023.10 620.049   1
   2  13   2 885.549 168.463   1
   2  13   3 2710.28 293.376   1
   2  13   4  911.85 167.174   1
   2  13   5 311.601 115.591   1
   3 -11   1 1943.49 248.697   1
   3 -11   2 4301.43 357.148   1
   3 -11   3 421.075 113.918   1
   3 -11   4 459.236 117.531   1
   3 -10   1 700.363 131.382   1
   3 -10   2 675.343 144.378   1
   3 -10   3 1276.27 178.595   1
   3 -10   4 3620.59 307.375   1
   3 -10   5 4651.92 454.658   1
   3 -10   612597.50 907.773   1
   3  -9   1 56.1222 55.2818   1
   3  -9   2 542.967 97.2358   1
   3  -9   3 208.666 71.1001   1
   3  -9   4 3124.46 317.429   1
   3  -9   5 9228.11 820.855   1
   3  -9   6 959.816 152.228   1
   3  -9   7 3633.79 343.457   1
   3  -8   1 116.772 60.5914   1
   3  -8   211198.60 485.106   1
   3  -8   3 9649.80 491.541   1
   3  -8   4 6712.60 392.589   1
   3  -8   5 3584.07 275.529   1
   3  -8   6  35.846 66.3071   1
   3  -8   7 6816.77 461.174   1
   3  -8   8 922.848 172.723   1
   3  -7   1 3289.19 229.899   1
   3  -7   2 587.861 112.821   1
   3  -7   3 9278.20 399.216   1
   3  -7   4 292.134 104.428   1
   3  -7   5 977.213 135.328   1
   3  -7   6 2176.05 300.482   1
   3  -7   7 130.118 108.118   1
   3  -7   8 3836.87 333.621   1
   3  -7   9 2837.47 297.757   1
   3  -6   1 1744.05  120.19   1
   3  -6   2 307.398 49.9835   1
   3  -6   3 363.189 88.6092   1
   3  -6   4 1446.07 140.693   1
   3  -6   5 2699.02 181.442   1
   3  -6   6 9144.21 533.673   1
   3  -6   7 1100.10 171.526   1
   3  -6   8 396.382 86.8816   1
   3  -6   9 3337.07 310.684   1
   3  -6  10 3635.01  668.52   1
   3  -5   1 5148.75 206.202   1
   3  -5   2 1318.80 90.9008   1
   3  -5   3 1221.71 117.337   1
   3  -5   4 2040.50 189.832   1
   3  -5   5 13.2872 35.7794   1
   3  -5   6 4616.14 234.065   1
   3  -5   7 9648.72 485.126   1
   3  -5   8 4542.59 476.449   1
   3  -5   9-7.31941 133.614   1
   3  -5  10 580.143 117.971   1
   3  -5  11 3217.70 488.279   1
   3  -4   1 2593.20  155.10   1
   3  -4   2 2413.13 121.685   1
   3  -4   3 8713.40 305.186   1
   3  -4   449555.60 1658.44   1
   3  -4   5 4882.79 251.024   1
   3  -4   6 106.384 41.1623   1
   3  -4   7 1005.48 90.3741   1
   3  -4   8 122.598 58.8733   1
   3  -4   9 1531.29 148.821   1
   3  -4  10 7716.19 800.448   1
   3  -4  1120479.30 1099.42   1
   3  -4  12 154.505  102.75   1
   3  -3   1 6292.87 274.859   1
   3  -3   211150.80 362.453   1
   3  -3   318539.80 540.339   1
   3  -3   481280.30 2203.90   1
   3  -3   514736.80 457.186   1
   3  -3   6 6278.49 278.814   1
   3  -3   7 5966.35 250.751   1
   3  -3   811469.50 499.257   1
   3  -3   9 8692.14 501.102   1
   3  -3  10 2381.79 226.533   1
   3  -3  11 6240.03 418.585   1
   3  -3  12 9870.63 589.607   1
   3  -2   1 5898.86 210.975   1
   3  -2   231836.80 869.381   1
   3  -2   311565.00 526.124   1
   3  -2   4 702.038 61.0782   1
   3  -2   515391.70 435.018   1
   3  -2   6 7520.72 280.324   1
   3  -2   7 346.985 51.2222   1
   3  -2   8 633.831 113.277   1
   3  -2   932398.70 1163.29   1
   3  -2  10 7637.64 387.835   1
   3  -2  11  105.68 66.8905   1
   3  -2  12 84.2539 112.715   1
   3  -1   120191.60 664.704   1
   3  -1   241900.30 1104.82   1
   3  -1   3  86.743 25.9811   1
   3  -1   4 607.533 61.4548   1
   3  -1   536667.40 1029.40   1
   3  -1   617517.30 549.554   1
   3  -1   714800.20 470.974   1
   3  -1   813294.00 493.091   1
   3  -1   9  266.11 47.0949   1
   3  -1  10 6430.39 461.629   1
   3  -1  11-31.7796 166.727   1
   3  -1  12 2587.82 381.944   1
   3  -1  13 1032.96 636.071   1
   3   0   0 4797.95  358.81   1
   3   0   116687.10 519.861   1
   3   0   2 2124.97 119.566   1
   3   0   3 8325.99 307.877   1
   3   0   4 60.2279 25.5448   1
   3   0   5 149.712 33.8251   1
   3   0   610459.20 360.209   1
   3   0   711539.30 373.556   1
   3   0   8 2538.41 152.111   1
   3   0   9 100.218 35.2672   1
   3   0  10 444.752 66.6651   1
   3   0  11 2453.87 315.283   1
   3   0  12 26.5912 114.867   1
   3   0  13 3056.10 722.958   1
   3   1   0 2924.21 160.461   1
   3   1   1 6073.82 348.336   1
   3   1   2 644.742 61.2751   1
   3   1   312739.50 391.403   1
   3   1   442850.70 1069.51   1
   3   1   520658.50 543.031   1
   3   1   6 459.676 44.3679   1
   3   1   7 7020.34 302.455   1
   3   1   8 203.289 43.8509   1
   3   1   9 2678.16 213.476   1
   3   1  10 266.867 49.7288   1
   3   1  1110558.00 721.003   1
   3   1  12 1637.53  283.77   1
   3   1  13-4.08743 106.768   1
   3   2   0 7599.55 310.413   1
   3   2   1 5134.98 236.726   1
   3   2   2 9651.31 322.167   1
   3   2   3-0.93806 53.3021   1
   3   2   410045.50 306.587   1
   3   2   5 8846.92 273.885   1
   3   2   615044.60 560.538   1
   3   2   7 1590.42 114.454   1
   3   2   8 6597.98 371.396   1
   3   2   9 3080.15  205.90   1
   3   2  10 1412.83  131.70   1
   3   2  11 156.617 53.1408   1
   3   2  12 3623.29 428.987   1
   3   2  13 2252.52 573.019   1
   3   3   0 808.535 133.127   1
   3   3   121064.80 646.826   1
   3   3   269312.10 1754.20   1
   3   3   348703.70 1211.84   1
   3   3   4 2809.89 151.908   1
   3   3   5 8287.95 419.961   1
   3   3   612431.40 398.491   1
   3   3   7 677.577 71.6738   1
   3   3   8 7430.13  412.94   1
   3   3   954798.30 2000.01   1
   3   3  10 5216.38 317.647   1
   3   3  11 622.111  103.37   1
   3   3  12 819.559 129.474   1
   3   3  13 -158.48 160.735   1
   3   4   0 2776.10 153.053   1
   3   4   1 4026.50 214.465   1
   3   4   2144053.0 4331.38   1
   3   4   3 6180.01 244.615   1
   3   4   4 3587.36 240.569   1
   3   4   512805.30  704.63   1
   3   4   628308.00 1060.39   1
   3   4   7 2434.63 233.575   1
   3   4   8 4292.37 211.765   1
   3   4   9 9496.20 579.339   1
   3   4  10 4698.28 297.909   1
   3   4  11 1413.28  169.57   1
   3   4  12 251.727  75.794   1
   3   4  13 8099.95 666.805   1
   3   5   012393.00 460.218   1
   3   5   1 2240.25 182.087   1
   3   5   2 1004.96  101.50   1
   3   5   332360.80 1006.40   1
   3   5   412400.90 740.576   1
   3   5   5 4282.73 206.173   1
   3   5   6 844.473 101.126   1
   3   5   731872.80 1625.65   1
   3   5   8 1307.68 123.688   1
   3   5   9  135.51 55.2169   1
   3   5  10 968.564 133.186   1
   3   5  11 847.189 160.028   1
   3   5  12 288.889 133.659   1
   3   5  13-37.2077 145.459   1
   3   6   033257.40 998.902   1
   3   6   1 191.778 55.2523   1
   3   6   2 8105.49 378.732   1
   3   6   320864.30 739.594   1
   3   6   4 9705.57 528.399   1
   3   6   5 1280.21 160.355   1
   3   6   6 7619.94 311.687   1
   3   6   7 1299.00 112.645   1
   3   6   8-17.1738 88.0413   1
   3   6   9 196.779 60.2151   1
   3   6  10 6758.35 511.971   1
   3   6  11 5683.73 934.664   1
   3   6  12 1811.46 282.665   1
   3   7   0 486.509 78.2792   1
   3   7   1 1936.37  217.67   1
   3   7   2 350.041 65.3891   1
   3   7   3 42.2731 49.9318   1
   3   7   4 2817.10 332.901   1
   3   7   5  478.37 74.6447   1
   3   7   6 1855.12 182.169   1
   3   7   7 244.502 106.071   1
   3   7   8 1172.39  122.17   1
   3   7   9 801.889 127.226   1
   3   7  10-13.5943 104.656   1
   3   7  11 6371.76 1856.78   1
   3   7  12 777.339 214.224   1
   3   8   0 3137.18  344.53   1
   3   8   1 151.167 59.3498   1
   3   8   2 4339.04 401.718   1
   3   8   317914.80 713.627   1
   3   8   4 2212.31 243.823   1
   3   8   5 465.455 115.417   1
   3   8   6 2898.75 214.576   1
   3   8   7 3.37089  55.384   1
   3   8   8 1881.49 180.795   1
   3   8   9 7363.21 721.924   1
   3   8  10 4595.42 425.308   1
   3   8  11 15.3926 67.6638   1
   3   9   0 4234.18 396.183   1
   3   9   1 2841.90 356.303   1
   3   9   2 5303.33  521.12   1
   3   9   3-11.0616 105.631   1
   3   9   4 1948.52 257.649   1
   3   9   5 1352.30 274.311   1
   3   9   6 4619.88  295.30   1
   3   9   7 5750.27 342.567   1
   3   9   8 1355.82 158.297   1
   3   9   9 178.378 77.1992   1
   3   9  10-51.5622 136.824   1
   3   9  11 1447.26 308.693   1
   3  10   0 7777.63 718.591   1
   3  10   113137.50 656.102   1
   3  10   2 6359.50 411.683   1
   3  10   3 4042.52 523.364   1
   3  10   4 1941.17  615.75   1
   3  10   5-60.3922  152.20   1
   3  10   6 2804.86 269.635   1
   3  10   715056.80 748.797   1
   3  10   8 8162.82 454.725   1
   3  10   9 1645.45 189.524   1
   3  10  10 404.778 103.194   1
   3  11   023047.70 1634.92   1
   3  11   1 1166.81  184.34   1
   3  11   2 105.598  77.754   1
   3  11   3 902.779 159.203   1
   3  11   4 5729.27 633.774   1
   3  11   5 127.359 144.274   1
   3  11   6-18.2961 108.596   1
   3  11   7 7495.69 499.047   1
   3  11   8 414.388 138.435   1
   3  12   0  501.45 229.398   1
   3  12   1 5936.83 553.357   1
   3  12   2 307.629 246.734   1
   3  12   3  549.86 134.162   1
   3  12   4 1545.66 213.826   1
   3  12   5 3504.68 473.464   1
   3  12   6 424.731 113.064   1
   4 -10   1 18.3224 88.5423   1
   4 -10   2 1851.91 233.766   1
   4  -9   1 541.196  115.27   1
   4  -9   2 50.9538 57.6034   1
   4  -9   3-41.7587 212.226   1
   4  -9   4 171.717 137.452   1
   4  -9   5 2798.42 384.478   1
   4  -8   1 5982.32 582.829   1
   4  -8   2 135.064 60.7899   1
   4  -8   3 509.146 243.513   1
   4  -8   4  535.45 125.666   1
   4  -8   5 346.119 115.411   1
   4  -8   6 7501.76 469.698   1
   4  -8   7  632.94 284.714   1
   4  -7   1 1450.73 225.866   1
   4  -7   2 259.352 79.2563   1
   4  -7   3 4200.39 345.157   1
   4  -7   4 5689.98 384.974   1
   4  -7   5 3880.85  303.96   1
   4  -7   6 99.1767 70.1843   1
   4  -7   7-63.2925 112.643   1
   4  -7   8 2807.44 301.193   1
   4  -6   1 1994.33 225.912   1
   4  -6   2 285.877 80.0636   1
   4  -6   3 1663.21 240.402   1
   4  -6   4 4769.73 495.085   1
   4  -6   5 58.8957 89.6594   1
   4  -6   6 1085.64 128.035   1
   4  -6   7 2684.81  209.44   1
   4  -6   8 177.971 118.814   1
   4  -6   9 478.754 129.473   1
   4  -5   1 2132.04 232.914   1
   4  -5   2  691.37 97.0284   1
   4  -5   3 275.122 66.2096   1
   4  -5   4 29.1173  54.815   1
   4  -5   5 1274.83 170.108   1
   4  -5   6 176.398 97.5779   1
   4  -5   7 841.183 114.732   1
   4  -5   8 1752.79  210.16   1
   4  -5   9 43.3699 67.9436   1
   4  -5  10 116.136 96.9142   1
   4  -4   1 1535.44 184.311   1
   4  -4   2 2704.63 165.604   1
   4  -4   3  29.588  55.782   1
   4  -4   4 64.9907 70.1634   1
   4  -4   5 2330.01  176.03   1
   4  -4   6 17.0105 59.6723   1
   4  -4   713263.00  806.56   1
   4  -4   8 89.6239 71.2074   1
   4  -4   9 3947.02 415.922   1
   4  -4  10 222.251 91.7694   1
   4  -3   1 6894.61 292.283   1
   4  -3   2 203.861 53.1132   1
   4  -3   3 1763.18 127.264   1
   4  -3   418136.80 627.534   1
   4  -3   5 6324.01 309.842   1
   4  -3   6 653.028 112.435   1
   4  -3   7 241.525 70.8163   1
   4  -3   8 8284.87 574.471   1
   4  -3   9 902.473 131.066   1
   4  -3  10 8.37847  126.33   1
   4  -3  11 5098.79 921.971   1
   4  -2   1 272.018  54.309   1
   4  -2   2 7.87491 42.2034   1
   4  -2   3 6400.02 276.251   1
   4  -2   4 9592.46 404.327   1
   4  -2   561470.80 1847.41   1
   4  -2   6 1664.79 170.612   1
   4  -2   7 1300.62 131.807   1
   4  -2   8 3749.65 257.139   1
   4  -2   9 4986.74 588.466   1
   4  -2  10 4461.62 480.052   1
   4  -2  11 3940.59 293.017   1
   4  -1   1 329.936 144.636   1
   4  -1   2 9568.30 491.078   1
   4  -1   3 637.562 93.7999   1
   4  -1   414520.40 519.027   1
   4  -1   5  195.97 65.1101   1
   4  -1   6 7495.71 336.548   1
   4  -1   7 297.391 66.7902   1
   4  -1   8 1800.67 153.048   1
   4  -1   9 2218.64 222.004   1
   4  -1  10 1115.93 174.046   1
   4  -1  11 2025.09 204.617   1
   4   0   0 2884.60 196.518   1
   4   0   1 7572.82 430.633   1
   4   0   2 7773.12  398.19   1
   4   0   314114.70  510.72   1
   4   0   4 115.861 49.4366   1
   4   0   5 406.779 81.9912   1
   4   0   6 5773.80 374.865   1
   4   0   7 26.9508 43.3127   1
   4   0   8 3007.60 200.405   1
   4   0   9 4726.92 358.513   1
   4   0  10 2451.83 874.575   1
   4   0  11-17.9561 162.757   1
   4   0  12  46.316 114.866   1
   4   1   0 337.478 71.3453   1
   4   1   1 176.287 76.9136   1
   4   1   2 7067.52  291.51   1
   4   1   3 83.4808 40.6766   1
   4   1   4 353.455 56.2538   1
   4   1   5 4135.29 229.401   1
   4   1   6 175.615 48.7621   1
   4   1   7 652.975  106.07   1
   4   1   8 1017.47 160.482   1
   4   1   9 360.185 246.741   1
   4   1  10  997.43 258.786   1
   4   1  11 1099.04 188.389   1
   4   1  12 1322.14 289.132   1
   4   2   0 112.199 74.4608   1
   4   2   1 69.7937 45.1301   1
   4   2   2 364.325 104.435   1
   4   2   3 728.855 84.8912   1
   4   2   4 2418.89 174.284   1
   4   2   5 1014.15 220.789   1
   4   2   6 7483.72  384.97   1
   4   2   7 887.738 119.156   1
   4   2   8 252.965  219.27   1
   4   2   9 412.163 154.368   1
   4   2  10 458.446 274.736   1
   4   2  11-23.6936 105.442   1
   4   2  12 2157.64 284.771   1
   4   3   0 5866.06 303.342   1
   4   3   1 330.281   81.24   1
   4   3   2 1507.78 144.605   1
   4   3   3 3632.62 271.764   1
   4   3   4 854.912 100.884   1
   4   3   530903.20 973.815   1
   4   3   6 198.323 88.9842   1
   4   3   7 3376.18 295.896   1
   4   3   8 1946.35 350.453   1
   4   3   9 2789.87 363.159   1
   4   3  10 2907.46 295.541   1
   4   3  11 71.1158 225.058   1
   4   3  12 3472.59 355.833   1
   4   4   0 1714.24 160.124   1
   4   4   1 1393.55 137.389   1
   4   4   232875.50 1268.54   1
   4   4   311282.70 582.861   1
   4   4   4 5986.54 625.497   1
   4   4   5 2647.06 190.043   1
   4   4   6 4733.24 346.932   1
   4   4   7 922.491 107.659   1
   4   4   8  86.909 44.2954   1
   4   4   913862.30 1757.73   1
   4   4  10 6754.46 486.495   1
   4   4  11 2466.20  601.86   1
   4   4  12 2762.78 319.307   1
   4   5   0 147.719 57.4527   1
   4   5   1 4690.78 278.141   1
   4   5   2 2714.80 270.409   1
   4   5   358555.70 1915.04   1
   4   5   4 3132.00 211.703   1
   4   5   5 326.284 84.5953   1
   4   5   6 1077.27 156.254   1
   4   5   7 1740.61  340.89   1
   4   5   8 581.961 126.913   1
   4   5   9 1049.85 208.252   1
   4   5  1018160.00 2076.64   1
   4   5  11 140.701 108.805   1
   4   5  12 154.933 346.736   1
   4   6   0 8109.38 458.289   1
   4   6   1 2286.91 267.617   1
   4   6   2 6084.07 375.543   1
   4   6   3 347.472 93.6541   1
   4   6   4 1974.96 193.904   1
   4   6   5 576.497 125.586   1
   4   6   6 776.636 197.149   1
   4   6   7 7624.85 2780.17   1
   4   6   8 1627.91 275.347   1
   4   6   9 2020.41 430.337   1
   4   6  10 1567.54 181.175   1
   4   6  11 2540.71  298.96   1
   4   7   0 2401.00 278.762   1
   4   7   1 3267.47  276.41   1
   4   7   2 18.0772 76.5244   1
   4   7   3 1111.95 155.571   1
   4   7   4-29.7966 208.843   1
   4   7   5 138.529 185.173   1
   4   7   6 1278.26 165.551   1
   4   7   7 628.592 188.712   1
   4   7   8 3073.94 260.997   1
   4   7   9 -91.288 125.319   1
   4   7  10 805.606 177.324   1
   4   7  11 1761.41  275.46   1
   4   8   0 1447.29 199.445   1
   4   8   1 1555.25 197.253   1
   4   8   2 790.294 157.254   1
   4   8   3 745.792  166.97   1
   4   8   4 1919.06 329.026   1
   4   8   5 606.521  117.66   1
   4   8   6 233.395 113.717   1
   4   8   7 1693.14 254.877   1
   4   8   8  334.73 131.435   1
   4   8   9-3.38675 86.9239   1
   4   8  10 2074.12 244.206   1
   4   9   0 362.544 97.4781   1
   4   9   1 179.848 81.3094   1
   4   9   2 3590.52 305.909   1
   4   9   3 309.048 179.515   1
   4   9   4 3591.34 494.365   1
   4   9   5 1916.74 744.077   1
   4   9   6 351.819  141.35   1
   4   9   7-38.3079  152.60   1
   4   9   8 254.105 121.581   1
   4   9   9 662.542 160.755   1
   4  10   0 230.125 140.612   1
   4  10   1 570.706 178.387   1
   4  10   2 1648.79 270.927   1
   4  10   3 5583.99 721.968   1
   4  10   4 386.742 196.669   1
   4  10   5 825.967 205.222   1
   4  10   6 19.9548 79.3489   1
   4  10   7 140.198 104.809   1
   4  10   8 2510.22 342.525   1
   4  11   0 8410.42 847.794   1
   4  11   1 3160.17 907.223   1
   4  11   2 2603.16 874.917   1
   4  11   3 382.049 224.436   1
   4  11   4 225.885 197.712   1
   4  11   5  267.28 452.087   1
   5  -8   1 4219.87 385.704   1
   5  -7   1 5976.37 424.775   1
   5  -7   2 1959.55 240.824   1
   5  -7   3 269.207 101.159   1
   5  -7   4 161.221 86.7558   1
   5  -6   1 205.208  66.145   1
   5  -6   2  272.51 123.084   1
   5  -6   3 389.579 123.414   1
   5  -6   4 1692.16 309.951   1
   5  -6   5 3074.78 310.431   1
   5  -6   6 177.484 70.2032   1
   5  -5   1 1991.51 333.492   1
   5  -5   2 670.699 109.637   1
   5  -5   3 424.822 148.652   1
   5  -5   4 2099.41 226.362   1
   5  -5   5 1498.42  195.41   1
   5  -5   6 1504.17 163.421   1
   5  -5   7 84.6394 59.8804   1
   5  -4   1  295.62 121.743   1
   5  -4   2 658.038 104.874   1
   5  -4   3 912.632 108.456   1
   5  -4   4 242.285 68.9765   1
   5  -4   5 111.448  50.816   1
   5  -4   6 1031.20 134.026   1
   5  -4   7 2040.22 212.593   1
   5  -4   8-41.4948 95.7837   1
   5  -3   1 4788.61  414.05   1
   5  -3   2 226.105 68.5899   1
   5  -3   3 1343.14 172.301   1
   5  -3   4 482.355 92.5312   1
   5  -3   5 80.8392 79.1018   1
   5  -3   6 270.359 108.905   1
   5  -3   7 60.3639   62.26   1
   5  -3   8 5898.23 539.581   1
   5  -3   9 65.7949 111.366   1
   5  -2   1 4545.06 318.333   1
   5  -2   2 1556.92 138.658   1
   5  -2   3  25.194 69.2005   1
   5  -2   4 473.074 83.8623   1
   5  -2   5 8716.55 440.037   1
   5  -2   6 1552.45  156.04   1
   5  -2   7 74.4428 66.1781   1
   5  -2   8 36.8274 114.877   1
   5  -2   9 1548.47 185.625   1
   5  -1   1 102.291 54.8138   1
   5  -1   2-64.5216 115.917   1
   5  -1   3-2.36174 120.459   1
   5  -1   4 5359.79 369.658   1
   5  -1   5 9225.30 434.804   1
   5  -1   614123.30 584.645   1
   5  -1   7 1526.43 169.605   1
   5  -1   8 479.129 132.787   1
   5  -1   9-163.252 143.654   1
   5  -1  10 228.688 131.244   1
   5   0   0 1250.64 146.863   1
   5   0   1 8.40548 52.1196   1
   5   0   2  76.829 104.019   1
   5   0   3 607.842 99.0131   1
   5   0   4 25.8163 58.2111   1
   5   0   5 7932.39 562.293   1
   5   0   6 3039.81 269.056   1
   5   0   7 449.341 100.854   1
   5   0   8-70.1144 150.375   1
   5   0   9  318.50  120.57   1
   5   0  10 2149.71 678.197   1
   5   1   0 578.183 94.4353   1
   5   1   1  750.62 112.947   1
   5   1   2 2716.45 213.482   1
   5   1   3 9559.03 521.651   1
   5   1   4 250.901 139.625   1
   5   1   5 0.24975 55.0831   1
   5   1   6 230.419 129.419   1
   5   1   7-95.1743 142.853   1
   5   1   8 830.121 272.013   1
   5   1   9 2341.52 279.486   1
   5   1  10 1689.15 254.912   1
   5   2   0 21.1252 64.0052   1
   5   2   1 472.688 98.2833   1
   5   2   2 824.054 122.049   1
   5   2   3 1109.89  167.49   1
   5   2   4 1789.38 209.109   1
   5   2   5  367.73 113.705   1
   5   2   6 1275.91 177.474   1
   5   2   7 222.811 93.5317   1
   5   2   8  87.378 344.111   1
   5   2   9 805.064 185.948   1
   5   2  10 55.9728 123.906   1
   5   3   0 2737.19 228.454   1
   5   3   1 1161.63 207.872   1
   5   3   2 1083.81 136.078   1
   5   3   3 168.208 70.1133   1
   5   3   4 1215.10 142.942   1
   5   3   5 2395.43 445.384   1
   5   3   6  411.94 98.7607   1
   5   3   7 1480.08 191.226   1
   5   3   8-15.9207 200.109   1
   5   3   9 163.042  92.768   1
   5   3  10 251.939 169.233   1
   5   4   0 1116.30 149.557   1
   5   4   1 2238.83 317.512   1
   5   4   2 428.453 152.564   1
   5   4   3 60.3082 92.1404   1
   5   4   4  185.99 79.9152   1
   5   4   5 177.303 65.5791   1
   5   4   6 7218.44 1029.87   1
   5   4   7 411.342  137.21   1
   5   4   8 3589.94 595.627   1
   5   4   9 571.064  196.68   1
   5   4  10 80.1025 113.727   1
   5   5   0  774.22 132.909   1
   5   5   1  93.656 81.4812   1
   5   5   2 114.951 91.3626   1
   5   5   3 8574.89 646.431   1
   5   5   4 4560.48 653.123   1
   5   5   5 590.296 130.679   1
   5   5   6 269.321 77.8668   1
   5   5   7 194.158 95.4152   1
   5   5   8 141.513 79.6685   1
   5   5   9 109.146 99.9552   1
   5   5  10 9514.45 803.759   1
   5   6   0-75.3669 153.646   1
   5   6   1 161.443 128.575   1
   5   6   2 2083.75  207.19   1
   5   6   3 7173.82 518.445   1
   5   6   4 9772.09 559.736   1
   5   6   5 1421.62 190.246   1
   5   6   6 628.601 287.052   1
   5   6   7 134.555 80.5241   1
   5   6   8 140.279 109.792   1
   5   6   9 2588.24 388.923   1
   5   7   0 568.589 147.123   1
   5   7   1 417.463 187.711   1
   5   7   2-194.515 175.363   1
   5   7   3 2163.98 246.871   1
   5   7   4 2881.17 286.762   1
   5   7   5-57.7842 182.555   1
   5   7   6 35.1039 69.1525   1
   5   7   7 328.217 94.3995   1
   5   7   8 1575.54 213.169   1
   5   8   0 443.529 141.077   1
   5   8   1 3854.98 375.222   1
   5   8   2-62.5334 143.023   1
   5   8   3 160.883 100.268   1
   5   8   4 107.513 166.631   1
   5   8   5-60.5413  246.74   1
   5   8   6 151.434 65.4387   1
   5   8   7 982.173 164.505   1
   5   9   0 64.8208 83.0064   1
   5   9   1 141.419  101.21   1
   5   9   2 1059.19 185.586   1
   5   9   3 83.8932 80.5353   1
   5   9   4 170.818  115.96   1
   5   9   5  26.893  127.04   1
   6  -4   1-150.856 156.484   1
   6  -4   2 1050.82  159.65   1
   6  -4   3-44.0152 143.819   1
   6  -3   1 66.0571 82.8159   1
   6  -3   2 140.403 74.0219   1
   6  -3   3 124.233 81.0743   1
   6  -3   4-59.0087 272.616   1
   6  -2   1 585.008 98.4355   1
   6  -2   2 1342.11 172.203   1
   6  -2   3 7.31332 52.0666   1
   6  -2   4  316.08 84.6394   1
   6  -2   5-72.8763 155.039   1
   6  -2   6 492.532 410.769   1
   6  -1   1 648.398 104.269   1
   6  -1   2 1633.75 161.995   1
   6  -1   3  748.74 157.007   1
   6  -1   4 -53.233 137.296   1
   6  -1   5-17.7946 130.049   1
   6  -1   6 1856.05 237.515   1
   6   0   0 2684.19 243.673   1
   6   0   1 57.9255 63.6105   1
   6   0   2 58.5755 64.1292   1
   6   0   3 203.756 84.1174   1
   6   0   4  58.713 121.577   1
   6   0   5 2194.87 330.128   1
   6   0   6 6163.11 450.821   1
   6   0   7 2699.62 286.813   1
   6   1   0 2675.50 370.647   1
   6   1   1 105.046 88.9366   1
   6   1   2  37.391 96.8271   1
   6   1   3 202.196 95.5004   1
   6   1   4-86.5436 193.294   1
   6   1   5 792.017 151.804   1
   6   1   6 3447.79 373.089   1
   6   1   7 1607.26 220.805   1
   6   2   0  613.17  214.10   1
   6   2   1 496.371 175.786   1
   6   2   2 211.844 124.395   1
   6   2   3 970.266 168.869   1
   6   2   4 2676.15 339.654   1
   6   2   5-86.8309 179.626   1
   6   2   6 117.074 111.614   1
   6   2   7 25.0039 82.7971   1
   6   3   0 503.431 148.168   1
   6   3   1 115.937 172.112   1
   6   3   2 418.058 120.158   1
   6   3   3 1137.95 193.936   1
   6   3   4 310.169  143.68   1
   6   3   5 237.874 83.3472   1
   6   3   6-77.5844 122.752   1
   6   3   7 835.196  180.30   1
   6   4   0  283.78 92.1504   1
   6   4   1 444.533 117.128   1
   6   4   2-31.2503 155.748   1
   6   4   3 355.704 216.377   1
   6   4   4 66.0696 163.808   1
   6   4   5-78.1665 132.731   1
   6   4   6 426.614 116.537   1
   6   5   0 1783.91 215.723   1
   6   5   1 272.866 105.394   1
   6   5   2 393.677 103.583   1
   6   5   3-14.1185 148.777   1
   6   5   4-57.9016 140.824   1
   6   5   5-62.6201 132.428   1
   0   0   0    0.00    0.00   1
;
_shelx_hkl_checksum              92010
loop_
_space_group_symop_operation_xyz
'x, y, z'
'-x, -y, -z'
loop_
_atom_site_label
_atom_site_type_symbol
_atom_site_fract_x
_atom_site_fract_y
_atom_site_fract_z
_atom_site_U_iso_or_equiv
_atom_site_adp_type
_atom_site_occupancy
_atom_site_site_symmetry_order
_atom_site_calc_flag
O2 O 0.4256(2) 0.80226(7) 0.08983(8) 0.03436(18) Uani 1 1 d
O1 O 0.6378(3) 1.00810(10) 0.18117(9) 0.0487(3) Uani 1 1 d
N1 N 0.47238(16) 0.60548(7) 0.36510(7) 0.01966(14) Uani 1 1 d
C4 C 0.64787(18) 0.46221(8) 0.35555(8) 0.01875(14) Uani 1 1 d
C2 C 0.32371(18) 0.64540(8) 0.50694(8) 0.01863(14) Uani 1 1 d
C5 C 0.8078(2) 0.42295(11) 0.19420(9) 0.02933(18) Uani 1 1 d
H5A H 0.755(5) 0.510(2) 0.117(2) 0.055(4) Uiso 1 1 d
H5B H 0.725(4) 0.323(2) 0.169(2) 0.052(4) Uiso 1 1 d
H5C H 1.056(5) 0.403(2) 0.186(2) 0.063(5) Uiso 1 1 d
C3 C 0.1360(2) 0.80784(10) 0.51139(11) 0.02804(17) Uani 1 1 d
H3A H 0.254(5) 0.876(2) 0.542(2) 0.068(5) Uiso 1 1 d
H3B H -0.072(5) 0.801(2) 0.591(2) 0.060(5) Uiso 1 1 d
H3C H 0.066(5) 0.847(2) 0.410(2) 0.065(5) Uiso 1 1 d
C1 C 0.5234(3) 0.95097(10) 0.08043(9) 0.02858(18) Uani 1 1 d
H2O H 0.452(5) 0.748(2) 0.179(2) 0.072(5) Uiso 1 1 d
loop_
_atom_site_aniso_label
_atom_site_aniso_U_11
_atom_site_aniso_U_22
_atom_site_aniso_U_33
_atom_site_aniso_U_23
_atom_site_aniso_U_13
_atom_site_aniso_U_12
O2 0.0630(5) 0.0195(3) 0.0226(3) 0.0043(2) -0.0164(3) -0.0065(3)
O1 0.0930(7) 0.0317(4) 0.0283(3) 0.0060(3) -0.0322(4) -0.0193(4)
N1 0.0278(3) 0.0150(2) 0.0156(2) 0.00050(18) -0.0039(2) -0.0003(2)
C4 0.0244(3) 0.0161(3) 0.0154(3) -0.00149(19) -0.0022(2) -0.0011(2)
C2 0.0237(3) 0.0141(2) 0.0180(3) -0.00127(19) -0.0041(2) 0.0004(2)
C5 0.0368(4) 0.0317(4) 0.0179(3) -0.0061(3) 0.0014(3) 0.0029(3)
C3 0.0344(4) 0.0175(3) 0.0324(4) -0.0049(3) -0.0075(3) 0.0069(3)
C1 0.0471(5) 0.0203(3) 0.0195(3) 0.0025(2) -0.0120(3) -0.0036(3)
loop_
_atom_type_symbol
_atom_type_description
_atom_type_scat_dispersion_real
_atom_type_scat_dispersion_imag
_atom_type_scat_source
C C 0.0033 0.0016 'International Tables Vol C Tables 4.2.6.8 and 6.1.1.4'
H H 0.0000 0.0000 'International Tables Vol C Tables 4.2.6.8 and 6.1.1.4'
N N 0.0061 0.0033 'International Tables Vol C Tables 4.2.6.8 and 6.1.1.4'
O O 0.0106 0.0060 'International Tables Vol C Tables 4.2.6.8 and 6.1.1.4'
loop_
_geom_angle_atom_site_label_1
_geom_angle_atom_site_label_2
_geom_angle_atom_site_label_3
_geom_angle
_geom_angle_site_symmetry_1
_geom_angle_site_symmetry_3
C1 O2 H2O 111.4(13) . .
C4 N1 C2 119.76(6) . .
N1 C4 C2 120.19(6) . 2_666
N1 C4 C5 117.72(6) . .
C2 C4 C5 122.09(7) 2_666 .
N1 C2 C4 120.04(6) . 2_666
N1 C2 C3 117.66(6) . .
C4 C2 C3 122.29(7) 2_666 .
C4 C5 H5A 109.4(10) . .
C4 C5 H5B 112.6(10) . .
H5A C5 H5B 109.2(15) . .
C4 C5 H5C 111.7(12) . .
H5A C5 H5C 110.1(15) . .
H5B C5 H5C 103.7(14) . .
C2 C3 H3A 112.6(14) . .
C2 C3 H3B 110.5(10) . .
H3A C3 H3B 103.1(16) . .
C2 C3 H3C 110.5(11) . .
H3A C3 H3C 111.5(16) . .
H3B C3 H3C 108.3(16) . .
O1 C1 O2 126.09(7) . .
O1 C1 C1 122.40(9) . 2_675
O2 C1 C1 111.51(9) . 2_675
loop_
_geom_bond_atom_site_label_1
_geom_bond_atom_site_label_2
_geom_bond_distance
_geom_bond_site_symmetry_2
O2 C1 1.3088(10) .
O2 H2O 0.86(2) .
O1 C1 1.1988(11) .
N1 C4 1.3401(9) .
N1 C2 1.3402(9) .
C4 C2 1.3992(9) 2_666
C4 C5 1.4983(10) .
C2 C3 1.4959(10) .
C5 H5A 0.951(17) .
C5 H5B 0.978(17) .
C5 H5C 0.96(2) .
C3 H3A 0.85(2) .
C3 H3B 0.970(18) .
C3 H3C 0.97(2) .
C1 C1 1.5398(15) 2_675
