#------------------------------------------------------------------------------
#$Date: 2019-10-31 02:35:00 +0200 (Thu, 31 Oct 2019) $
#$Revision: 220571 $
#$URL: file:///home/coder/svn-repositories/cod/cif/8/00/03/8000314.cif $
#------------------------------------------------------------------------------
#
# This file is available in the Crystallography Open Database (COD),
# http://www.crystallography.net/
#
# All data on this site have been placed in the public domain by the
# contributors.
#
data_8000314
loop_
_publ_author_name
'Malaspina, Lorraine A.'
'Wieduwilt, Erna K.'
'Bergmann, Justin'
'Kleemiss, Florian'
'Meyer, Benjamin'
'Ruiz-L\'opez, Manuel F'
'Pal, Rumpa'
'Hupf, Emanuel'
'Beckmann, Jens'
'Piltz, Ross O.'
'Edwards, Alison J.'
'Grabowsky, Simon'
'Genoni, Alessandro'
_publ_section_title
;
 Fast and Accurate Quantum Crystallography: From Small to Large, from
 Light to Heavy.
;
_journal_name_full               'The journal of physical chemistry letters'
_journal_page_first              6973
_journal_page_last               6982
_journal_paper_doi               10.1021/acs.jpclett.9b02646
_journal_year                    2019
_chemical_absolute_configuration syn
_chemical_formula_moiety         'C3 H7 N O2'
_chemical_formula_sum            'C3 H7 N O2'
_chemical_formula_weight         89.0947
_space_group_IT_number           19
_space_group_name_Hall           'P 2ac 2ab'
_space_group_name_H-M_alt        'P 21 21 21'
_symmetry_cell_setting           orthorhombic
_symmetry_Int_Tables_number      19
_symmetry_space_group_name_Hall  'P 2ac 2ab'
_symmetry_space_group_name_H-M   'P 21 21 21'
_atom_sites_solution_hydrogens   difmap
_audit_creation_date             2018-12-20T16:04:11-00:00
_audit_creation_method           'WinGX routine CIF_UPDATE'
_cell_angle_alpha                90
_cell_angle_beta                 90
_cell_angle_gamma                90
_cell_formula_units_Z            4
_cell_length_a                   5.9279(10)
_cell_length_b                   12.2597(17)
_cell_length_c                   5.7939(9)
_cell_measurement_reflns_used    1524
_cell_measurement_temperature    23
_cell_measurement_theta_max      22.50
_cell_measurement_theta_min      15.00
_cell_measurement_wavelength     0.71073
_cell_volume                     421.07(11)
_computing_structure_refinement
'Tonto (Hirshfeld Atom Fit) 18.12.17 v. 2b3dd9c (Capelli, 2014) and ELMODB'
_computing_structure_solution    'SHELXS-2013 (Sheldrick, 2008)'
_diffrn_ambient_temperature      23
_diffrn_measured_fraction_theta_full 0.994
_diffrn_measured_fraction_theta_max 0.993
_diffrn_measurement_device_type  'P-1 four circle diffractometer'
_diffrn_radiation_probe          x-ray
_diffrn_radiation_type           MoK\a
_diffrn_radiation_wavelength     0.71073
_diffrn_reflns_av_unetI/netI     0.0243
_diffrn_reflns_Laue_measured_fraction_full 0.994
_diffrn_reflns_Laue_measured_fraction_max 0.993
_diffrn_reflns_limit_h_max       12
_diffrn_reflns_limit_h_min       0
_diffrn_reflns_limit_k_max       26
_diffrn_reflns_limit_k_min       0
_diffrn_reflns_limit_l_max       12
_diffrn_reflns_limit_l_min       0
_diffrn_reflns_number            2519
_diffrn_reflns_point_group_measured_fraction_full 0.618
_diffrn_reflns_point_group_measured_fraction_max 0.567
_diffrn_reflns_theta_full        25.242
_diffrn_reflns_theta_max         50.138
_diffrn_reflns_theta_min         3.323
_diffrn_standards_number         0
_exptl_absorpt_coefficient_mu    0.117
_exptl_absorpt_correction_type   none
_exptl_crystal_colour            colorless
_exptl_crystal_density_diffrn    1.406
_exptl_crystal_density_method    'not measured'
_exptl_crystal_description       sphere
_exptl_crystal_F_000             192
_exptl_crystal_size_rad          0.18
_refine_diff_density_max         0.112128
_refine_diff_density_min         -0.111073
_refine_diff_density_rms         0.024651
_refine_ls_abs_structure_details
;
No quotients, so Flack parameter determined by classical intensity fit
;
_refine_ls_abs_structure_Flack   0.6(5)
_refine_ls_extinction_method     none
_refine_ls_goodness_of_fit_all   1.2913
_refine_ls_goodness_of_fit_gt    1.2913
_refine_ls_goodness_of_fit_ref   1.071
_refine_ls_hydrogen_treatment    refall
_refine_ls_matrix_type           full
_refine_ls_number_constraints    0
_refine_ls_number_parameters     118
_refine_ls_number_reflns         2405
_refine_ls_number_restraints     0
_refine_ls_restrained_S_all      1.071
_refine_ls_R_factor_all          0.0204
_refine_ls_R_factor_gt           0.0204
_refine_ls_shift/su_max          0
_refine_ls_shift/su_mean         0
_refine_ls_structure_factor_coef F
_refine_ls_weighting_details     w=1/\s(F)
_refine_ls_weighting_scheme      sigma
_refine_ls_wR_factor_all         0.0178
_refine_ls_wR_factor_gt          0.0178
_refine_ls_wR_factor_ref         0.0694
_reflns_Friedel_coverage         0
_reflns_Friedel_fraction_full    0
_reflns_Friedel_fraction_max     0
_reflns_number_gt                2405
_reflns_number_total             2405
_reflns_threshold_expression     'F>0 & F/u(F)>3.0 & |F_calc|>10^-3'
_iucr_refine_instructions_details
;
#==============================================================================
#ELMODB input file
 $INPUT_METHOD      job_title='my_job' basis_set='6-311G(d,p)' iprint_level=1 ncpus=1 alloc_mem=100 bset_path='/usr/local/bin/' lib_path='/usr/local/bin/' nci=.true. $END 
 $INPUT_STRUCTURE   pdb_file='L-Ala.pdb' cif_file='./L-ala_experiment.cif' ntail=1 max_atail=100 max_frtail=200 nssbond=0 $END  
 
ALE   0   17  .t.        !Input for the first tailor-made residue 
        
CA        1    1   .f.     N   CA  C     
N         1    1   .f.     CA  N   H1     
C         1    1   .f.     CA  C   O     
O         3    1   .f.     C   O   OXT     
OXT       3    1   .f.     C   OXT O
CB        1    1   .f.     CA  CB  HB1   
CA_HA     1    2   .f.     CA  HA  C    
CA_N      1    2   .f.     CA  N   HA     
N_H1      1    2   .f.     N   H1  CA
N_H2      1    2   .f.     N   H2  CA
N_H3      1    2   .f.     N   H3  CA  
CA_C      1    2   .f.     CA  C   O     
C_O_OXT   4    3   .f.     C   O   OXT      
CA_CB     1    2   .f.     CA  CB  C    
CB_HB1    1    2   .f.     CB  HB1 CA   
CB_HB2    1    2   .f.     CB  HB2 CA   
CB_HB3    1    2   .f.     CB  HB3 CA 
 
#==============================================================================
#PDB input file
ATOM      1  N   ALE     1       3.837   1.686   1.060 1.00  0.00
ATOM      2  H1  ALE     1       4.168   0.745   1.136 1.00  0.00
ATOM      3  H2  ALE     1       4.610   2.326   1.201 1.00  0.00
ATOM      4  H3  ALE     1       3.479   1.828   0.096 1.00  0.00
ATOM      5  CA  ALE     1       2.764   1.975   2.054 1.00  0.00
ATOM      6  HA  ALE     1       2.509   3.036   1.961 1.00  0.00
ATOM      7  CB  ALE     1       1.541   1.112   1.758 1.00  0.00
ATOM      8  HB1 ALE     1       1.143   1.356   0.763 1.00  0.00
ATOM      9  HB2 ALE     1       0.762   1.285   2.478 1.00  0.00
ATOM     10  HB3 ALE     1       1.807   0.059   1.777 1.00  0.00
ATOM     11  C   ALE     1       3.284   1.726   3.476 1.00  0.00
ATOM     12  O   ALE     1       4.308   1.027   3.617 1.00  0.00
ATOM     13  OXT ALE     1       2.614   2.256   4.410 1.00  0.00
END

#==============================================================================
#TONTO input file
!!!!!!!!!!!!!!!!!!!!!!!!!!!!!!!!!!!!!!!!!!!!!!!!!!!!!!!!!!!!!!!!!!!!!!!!!!!!!!!
!!!                                                                         !!!
!!!                        This stdin was written with lamaGOET             !!!
!!!                                                                         !!!
!!!                    script written by Lorraine Andrade Malaspina         !!!
!!!                        contact: lorraine.malaspina@gmail.com            !!!
!!!                                                                         !!!
!!!!!!!!!!!!!!!!!!!!!!!!!!!!!!!!!!!!!!!!!!!!!!!!!!!!!!!!!!!!!!!!!!!!!!!!!!!!!!!
{ 

   keyword_echo_on

   name= L-Ala_23K_HAR-ELMO

   read_g09_fchk_file my_job.fchk

   name= L-Ala_23K_HAR-ELMO

   ! Process the CIF
   CIF= {
       file_name= ./L-ala_experiment.cif
    }

   process_CIF

   name= L-Ala_23K_HAR-ELMO

   charge= 0
   multiplicity= 1

   crystal= {    
      xray_data= {   
         thermal_smearing_model= hirshfeld
         partition_model= mulliken
         optimise_extinction= false
         correct_dispersion= no
         optimise_scale_factor= true
         wavelength= 0.71073 Angstrom
         REDIRECT ./L-ala_experiment.hkl
         f_sigma_cutoff= 3
         tol_for_shift_on_esd= 0.010000
         refine_H_U_iso= no

     show_fit_output= TRUE
     show_fit_results= TRUE

      }  
   }  

   ! Geometry    
   put

   ! Make Hirshfeld structure factors
   fit_hirshfeld_atoms

   write_xyz_file

   put_minmax_residual_density

   plot_grid= {                           

      kind= residual_density_map
      use_unit_cell_as_bbox
      desired_separation= 0.1 angstrom
      plot_format= cell.cube
      plot_units= angstrom^-3

    }

   plot

}
;
_cod_data_source_file            L-Ala_23K.cif
_cod_data_source_block           L-Ala_23K_HAR-ELMO
_cod_depositor_comments
;
The following automatic conversions were performed:

'_symmetry_cell_setting' value 'Orthorhombic' changed to
'orthorhombic' according to
/home/data/users/saulius/crontab/automatic-downloads/rss-feeds/ACS/lib/dictionaries/cif_core.dic
dictionary named 'cif_core.dic' version 2.4.2 from 2011-04-26.

Automatic conversion script
Id: cif_fix_values 4973 2017-02-22 13:04:09Z antanas 
;
_cod_original_sg_symbol_Hall     'p 2ac 2ab'
_cod_original_sg_symbol_H-M      'p 21 21 21'
_cod_database_code               8000314
_refine_ls_coordinate_system     cartesian
_iucr_refine_reflections_details
;
reflection_data= {
keys= { h= k= l= i_exp= i_sigma= }
data= {
   0   2   0   179.815     1.717
   0   4   0  5073.713    43.487
   0   6   0    87.757     1.019
   0   8   0    44.374     0.704
   0  10   0     0.783     0.335
   0  12   0   227.748     2.603
   0  14   0    57.303     1.102
   0  16   0    24.698     0.837
   0  18   0   222.731     2.911
   0  20   0     0.213     0.335
   0  22   0   132.616     2.306
   0  24   0     0.224     0.372
   0  26   0     6.308     0.601
   0   1   1   708.790     7.171
   0   2   1   116.960     1.193
   0   3   1   693.295     6.260
   0   4   1    96.152     1.043
   0   5   1     0.227     0.161
   0   6   1   464.728     4.476
   0   7   1    36.130     0.598
   0   8   1    43.404     0.715
   0   9   1    31.392     0.650
   0  10   1   134.350     1.660
   0  11   1    65.279     1.083
   0  12   1    74.700     1.203
   0  13   1    18.429     0.676
   0  14   1    37.088     0.921
   0  15   1    89.006     1.525
   0  16   1     2.329     9.000
   0  17   1     1.108     0.337
   0  18   1    58.587     1.335
   0  19   1    15.806     0.873
   0  20   1    26.848     1.025
   0  21   1     2.631     0.414
   0  23   1     1.693     0.415
   0  24   1     0.162     0.378
   0  25   1     2.924     0.547
   0  26   1    19.355     1.206
   0   0   2  2781.115    32.588
   0   1   2   521.666     6.410
   0   2   2   177.653     2.028
   0   3   2    54.981     0.781
   0   4   2   167.518     1.748
   0   5   2   554.602     5.206
   0   6   2    94.627     1.142
   0   7   2     5.301     0.334
   0   8   2   109.313     1.369
   0   9   2    23.176     0.584
   0  10   2    45.257     0.844
   0  11   2    81.972     1.234
   0  12   2    27.642     0.735
   0  13   2    21.027     0.684
   0  14   2    20.834     0.737
   0  15   2   177.411     2.335
   0  16   2     4.350     0.398
   0  17   2    59.746     1.353
   0  18   2    19.964     0.892
   0  19   2   117.292     2.046
   0  20   2     0.957     0.400
   0  21   2    44.948     1.331
   0  22   2    36.020     1.262
   0  23   2    17.625     1.006
   0  24   2     2.440     0.445
   0  25   2    21.977     1.233
   0  26   2     2.504     0.487
   0   1   3    82.176     1.709
   0   2   3   154.361     2.860
   0   3   3   200.998     2.401
   0   4   3   723.072     7.606
   0   5   3    79.564     1.170
   0   6   3   266.474     2.780
   0   7   3    21.919     0.561
   0   8   3    60.318     0.970
   0   9   3   139.650     1.743
   0  10   3    38.763     0.814
   0  11   3    68.853     1.155
   0  12   3   116.350     1.660
   0  13   3   142.371     1.956
   0  14   3    27.217     0.838
   0  15   3    88.508     1.553
   0  16   3   151.450     2.214
   0  17   3    46.194     1.211
   0  18   3    26.419     0.974
   0  19   3     2.446     0.398
   0  20   3    43.477     1.308
   0  21   3     0.853     0.376
   0  22   3     1.131     0.398
   0  23   3    27.549     1.137
   0  24   3    12.439     0.893
   0  25   3     4.870     0.563
   0   0   4   205.146     3.816
   0   1   4    38.961     1.175
   0   2   4    91.047     2.008
   0   3   4     7.827     0.438
   0   4   4   224.514     2.776
   0   5   4     0.663     0.366
   0   6   4    69.404     1.201
   0   7   4    28.585     0.760
   0   8   4    63.095     1.054
   0   9   4     7.037     0.451
   0  10   4    88.388     1.354
   0  11   4    95.863     1.483
   0  12   4    38.161     0.942
   0  13   4    11.240     0.636
   0  14   4   139.346     2.043
   0  15   4    44.289     1.157
   0  16   4    92.633     1.701
   0  17   4     5.582     0.450
   0  18   4     9.425     0.727
   0  19   4     3.288     0.432
   0  20   4     1.794     0.401
   0  21   4     0.181     0.363
   0  22   4     4.257     0.484
   0  23   4     0.116     0.390
   0  24   4    26.001     1.111
   0  25   4     2.836     0.497
   0   1   5   231.009     4.420
   0   2   5   134.312     2.887
   0   3   5    48.149     1.504
   0   4   5   380.681     4.485
   0   5   5   173.886     2.377
   0   6   5     0.757     0.401
   0   7   5     6.479     0.516
   0   8   5   142.092     2.132
   0   9   5    67.864     1.394
   0  10   5     7.779     0.536
   0  11   5    20.299     0.764
   0  12   5     1.456     0.322
   0  13   5    77.474     1.471
   0  14   5     3.440     0.399
   0  15   5    13.794     0.771
   0  16   5    12.995     0.778
   0  17   5    75.355     1.619
   0  18   5     2.282     0.407
   0  19   5    13.328     0.876
   0  20   5     0.292     0.393
   0  21   5    19.213     1.017
   0  22   5     5.376     0.514
   0  23   5    12.252     0.941
   0  24   5     0.255     0.373
   0   0   6     0.769     0.614
   0   1   6    91.724     2.396
   0   2   6    15.852     1.005
   0   3   6     1.457     0.632
   0   4   6    15.644     1.064
   0   5   6    84.394     1.537
   0   6   6    10.935     0.640
   0   7   6   138.982     2.195
   0   8   6    29.354     0.965
   0   9   6    14.044     0.756
   0  10   6    15.269     0.804
   0  11   6   114.676     1.859
   0  12   6     6.175     0.545
   0  13   6     4.675     0.475
   0  14   6    11.437     0.720
   0  15   6     0.093     0.332
   0  16   6    40.637     1.249
   0  17   6    28.493     1.083
   0  18   6     7.632     0.669
   0  19   6    43.257     1.358
   0  20   6     1.799     0.420
   0  21   6    20.840     1.062
   0  22   6    10.350     0.757
   0  23   6    16.635     0.970
   0   1   7    57.509     2.010
   0   2   7   529.525     9.516
   0   3   7     0.456     0.750
   0   4   7    11.528     1.076
   0   5   7    23.561     1.400
   0   6   7    42.236     1.191
   0   7   7    45.641     1.251
   0   8   7     1.905     0.423
   0   9   7     4.832     0.506
   0  10   7     9.020     0.792
   0  11   7    30.722     1.159
   0  12   7     5.712     0.628
   0  13   7    11.390     0.780
   0  14   7     1.446     0.375
   0  16   7    79.930     1.775
   0  17   7     1.030     0.390
   0  18   7     2.257     0.431
   0  19   7     6.714     0.544
   0  20   7   132.311     2.395
   0  21   7     0.894     0.387
   0   0   8    23.950     1.479
   0   1   8     3.506     0.928
   0   2   8     8.519     1.121
   0   3   8    15.380     1.316
   0   4   8     1.690     0.931
   0   6   8    10.052     0.802
   0   7   8    58.346     1.530
   0   8   8    85.614     1.887
   0   9   8    12.000     0.847
   0  10   8     6.401     0.684
   0  11   8    39.229     1.372
   0  12   8    39.357     1.413
   0  13   8    31.457     1.316
   0  14   8    12.268     0.962
   0  15   8     0.542     0.376
   0  16   8     0.979     0.391
   0  17   8     6.429     0.538
   0  18   8     0.566     0.390
   0  19   8     9.029     0.750
   0  20   8     6.027     0.518
   0   1   9     8.341     1.139
   0   2   9    45.377     2.148
   0   3   9    61.983     2.475
   0   4   9    21.741     1.588
   0   5   9     1.616     0.942
   0   6   9     1.545     0.959
   0   7   9    45.524     1.491
   0   8   9    77.942     1.902
   0   9   9    16.121     1.046
   0  10   9    13.553     1.000
   0  11   9     2.195     0.514
   0  12   9    34.136     1.366
   0  13   9    28.519     1.311
   0  14   9     0.277     0.479
   0  15   9    46.285     1.606
   0  16   9    14.146     1.066
   0  17   9    15.189     0.965
   0  18   9     8.396     0.630
   0   0  10     4.706     1.203
   0   1  10     0.006     0.985
   0   2  10    20.256     1.699
   0   3  10    47.909     2.364
   0   4  10    27.730     1.900
   0   5  10    31.998     2.014
   0   6  10    40.716     2.278
   0   7  10    53.181     2.547
   0   8  10    58.903     1.760
   0   9  10     6.589     0.644
   0  10  10     1.820     0.509
   0  11  10    16.028     1.123
   0  12  10    13.132     0.906
   0  13  10    12.269     1.028
   0  14  10    42.635     1.592
   0  15  10     5.728     0.633
   0   1  11     0.471     1.192
   0   2  11     2.640     1.207
   0   3  11     6.648     1.450
   0   4  11     0.898     1.260
   0   5  11     0.874     1.261
   0   6  11     7.553     1.505
   0   7  11     3.027     1.320
   0   8  11     8.214     1.503
   0   9  11     7.831     0.751
   0  10  11     1.536     0.524
   0  11  11     8.169     0.820
   0  12  11    29.510     1.373
   0   0  12     2.425     9.000
   0   1  12    26.431     2.202
   0   2  12    19.771     1.921
   0   3  12   113.719     3.872
   0   4  12     0.412     1.386
   0   5  12     9.571     1.680
   0   6  12    54.581     2.697
   0   7  12    63.431     2.977
   1   1   0   246.117     2.315
   1   2   0  5369.625    56.860
   1   3   0    57.840     0.674
   1   4   0  1642.658    14.454
   1   5   0   331.158     3.216
   1   6   0    60.552     0.778
   1   7   0    18.840     0.427
   1   8   0   393.558     3.915
   1   9   0     3.189     0.335
   1  10   0    42.141     0.786
   1  11   0    94.818     1.326
   1  12   0    26.345     0.695
   1  13   0    56.101     1.059
   1  14   0     0.842     0.422
   1  15   0    84.470     1.446
   1  16   0    23.939     0.830
   1  17   0    28.912     0.941
   1  18   0     0.914     0.374
   1  19   0    33.007     1.076
   1  20   0    39.411     1.220
   1  21   0     1.404     0.417
   1  22   0     3.909     0.461
   1  23   0     6.858     0.589
   1  24   0     9.577     0.772
   1  26   0     7.165     0.624
   1   0   1    75.146     0.815
   1   1   1   130.716     1.328
   1   2   1   101.899     1.080
   1   3   1  1064.408     9.470
   1   4   1   153.686     1.603
   1   5   1   428.545     4.137
   1   6   1    21.422     0.428
   1   7   1   332.115     3.335
   1   8   1   229.590     2.426
   1   9   1   227.337     2.475
   1  10   1   128.423     1.637
   1  11   1    16.782     0.550
   1  12   1     0.350     0.357
   1  13   1   124.921     1.735
   1  14   1    28.945     0.813
   1  15   1    85.756     1.485
   1  16   1    60.465     1.263
   1  17   1    24.886     0.884
   1  18   1    23.280     0.910
   1  19   1    14.985     0.813
   1  20   1     5.702     0.475
   1  21   1     2.021     0.402
   1  22   1    34.030     1.181
   1  23   1    10.433     0.870
   1  24   1    20.491     1.052
   1  25   1     9.295     0.798
   1  26   1     1.959     0.471
   1   0   2  3039.317    35.366
   1   1   2    70.141     0.916
   1   2   2   560.269     5.985
   1   3   2   189.971     1.979
   1   4   2  1041.626     9.426
   1   5   2    18.209     0.402
   1   6   2   214.830     2.260
   1   7   2   158.601     1.782
   1   8   2    10.028     0.425
   1   9   2    60.492     0.963
   1  10   2    58.210     0.979
   1  11   2   115.446     1.555
   1  12   2   112.960     1.588
   1  13   2   107.876     1.600
   1  14   2    53.553     1.109
   1  15   2    30.967     0.904
   1  16   2    27.044     0.924
   1  17   2    74.117     1.494
   1  18   2   107.762     1.885
   1  19   2    40.336     1.175
   1  20   2     9.499     0.687
   1  21   2    22.387     0.997
   1  22   2    35.805     1.247
   1  23   2    42.486     1.392
   1  24   2    10.425     0.777
   1  25   2     0.152     0.421
   1  26   2     4.397     0.545
   1   0   3    31.363     0.901
   1   1   3   296.145     5.118
   1   2   3   220.002     2.584
   1   3   3    89.793     1.252
   1   4   3    93.639     1.312
   1   5   3    22.547     0.514
   1   6   3   135.190     1.599
   1   7   3     5.071     0.368
   1   8   3   252.186     2.750
   1   9   3    28.401     0.685
   1  10   3    78.001     1.213
   1  11   3    16.313     0.584
   1  12   3    31.609     0.817
   1  13   3    33.090     0.888
   1  14   3   112.418     1.744
   1  15   3    32.780     0.961
   1  16   3     9.097     0.602
   1  17   3    24.495     0.923
   1  18   3    25.962     0.984
   1  19   3    26.643     1.030
   1  20   3     7.600     0.646
   1  21   3    23.086     1.028
   1  22   3     7.043     0.596
   1  23   3     2.687     0.448
   1  24   3     7.965     0.628
   1  25   3    17.530     1.135
   1   0   4   321.450     5.708
   1   1   4   254.553     4.627
   1   2   4    28.140     1.023
   1   3   4    22.920     0.629
   1   4   4   107.358     1.534
   1   5   4    81.923     1.313
   1   6   4   127.610     1.831
   1   7   4    81.953     1.201
   1   8   4    44.223     0.866
   1   9   4     2.134     0.375
   1  10   4    22.231     0.685
   1  11   4    61.035     1.150
   1  12   4   137.904     1.949
   1  13   4    26.556     0.837
   1  14   4    38.583     1.040
   1  15   4     2.916     0.385
   1  16   4    23.084     0.889
   1  17   4    27.497     0.995
   1  18   4    57.350     1.432
   1  19   4    39.947     1.223
   1  20   4     9.048     0.778
   1  21   4    10.575     0.768
   1  22   4    21.311     1.023
   1  23   4    14.762     0.940
   1  24   4     2.092     0.423
   1   0   5   278.556     5.192
   1   1   5   119.843     2.652
   1   2   5   453.956     7.950
   1   3   5   172.585     3.561
   1   4   5   105.838     1.650
   1   5   5     8.380     0.523
   1   6   5   224.914     2.948
   1   7   5    71.423     1.359
   1   8   5    67.873     1.350
   1   9   5    88.153     1.427
   1  10   5     9.319     0.566
   1  11   5    35.103     0.934
   1  12   5    24.551     0.842
   1  13   5    43.791     1.128
   1  14   5    39.356     1.095
   1  15   5    29.215     1.004
   1  16   5    76.963     1.601
   1  17   5    11.219     0.782
   1  18   5     6.814     0.631
   1  19   5    18.291     0.955
   1  20   5    63.309     1.606
   1  21   5    24.583     1.088
   1  22   5     1.694     0.421
   1  23   5     4.483     0.490
   1  24   5    17.070     0.977
   1   0   6     0.068     0.618
   1   1   6     0.877     0.605
   1   2   6     7.386     0.814
   1   3   6    12.163     0.969
   1   4   6    15.665     1.064
   1   5   6    13.011     0.654
   1   6   6    21.427     0.801
   1   7   6     7.615     0.607
   1   8   6     8.904     0.668
   1   9   6    10.842     0.754
   1  10   6     2.381     0.431
   1  11   6     9.627     0.664
   1  12   6    28.394     0.939
   1  13   6     7.383     0.589
   1  14   6    27.428     0.980
   1  15   6    10.778     0.797
   1  16   6     2.919     0.418
   1  17   6    21.070     0.980
   1  18   6    13.568     0.876
   1  19   6    11.556     0.841
   1  20   6    30.937     1.217
   1  21   6     9.211     0.756
   1  22   6     8.448     0.740
   1  23   6    11.784     0.866
   1   0   7   242.736     5.044
   1   1   7    26.288     1.416
   1   2   7    60.077     2.070
   1   3   7    79.746     2.437
   1   4   7   138.356     3.443
   1   5   7    29.943     1.019
   1   6   7    60.444     1.441
   1   7   7     9.314     0.750
   1   8   7    55.173     1.421
   1   9   7    65.969     1.578
   1  10   7    18.372     0.941
   1  11   7    21.386     0.890
   1  12   7     1.868     0.452
   1  13   7    41.466     1.222
   1  14   7    24.107     1.028
   1  15   7    31.650     1.147
   1  16   7    25.324     1.052
   1  17   7    20.084     0.993
   1  18   7    42.155     1.361
   1  19   7     6.611     0.600
   1  20   7    15.126     0.967
   1  21   7     9.115     0.651
   1   0   8    10.227     1.177
   1   1   8    34.609     1.753
   1   2   8    19.446     1.409
   1   3   8    31.457     1.673
   1   4   8    32.114     1.716
   1   5   8   100.162     3.046
   1   6   8    14.737     0.900
   1   7   8    89.492     1.916
   1   8   8     3.178     0.480
   1   9   8    50.189     1.490
   1  10   8    38.924     1.353
   1  11   8    93.589     2.079
   1  12   8    11.531     0.951
   1  13   8    27.738     1.238
   1  14   8     1.177     0.496
   1  15   8    45.340     1.351
   1  16   8     5.470     0.509
   1  17   8    26.281     1.157
   1  18   8     5.350     0.510
   1  19   8     2.223     0.432
   1  20   8     0.109     0.383
   1   0   9     0.035     0.906
   1   1   9     2.187     0.976
   1   2   9    50.495     2.222
   1   3   9     1.599     0.963
   1   4   9     3.192     1.109
   1   5   9    28.011     1.796
   1   6   9     9.846     1.274
   1   7   9    15.550     0.994
   1   8   9     8.180     0.727
   1   9   9    19.433     1.094
   1  10   9    28.980     1.286
   1  11   9    45.169     1.545
   1  12   9     8.761     0.808
   1  13   9    15.766     1.110
   1  14   9     7.765     0.805
   1  15   9    21.791     1.214
   1  16   9    42.069     1.550
   1  17   9    17.929     1.028
   1  18   9    11.337     0.877
   1   0  10     3.408     1.150
   1   1  10    25.209     1.837
   1   2  10     1.533     1.099
   1   3  10    19.747     1.679
   1   4  10    21.268     1.782
   1   5  10    32.035     2.046
   1   6  10    40.764     2.260
   1   7  10    31.058     2.060
   1   8  10    24.027     1.228
   1   9  10     7.234     0.793
   1  10  10    54.843     1.764
   1  11  10    15.968     1.123
   1  12  10    44.653     1.606
   1  13  10     0.228     0.502
   1  14  10     6.442     0.653
   1  15  10    10.319     0.865
   1   0  11     0.790     1.263
   1   1  11    11.764     1.580
   1   2  11    33.136     2.215
   1   3  11    22.932     1.912
   1   4  11    11.665     1.588
   1   5  11     6.018     1.417
   1   6  11     3.871     1.323
   1   7  11     8.437     1.546
   1   8  11    15.312     1.155
   1   9  11    23.046     1.281
   1  10  11    18.353     1.195
   1  11  11     3.531     0.579
   1  12  11     1.582     0.521
   1   0  12    17.517     1.885
   1   1  12    74.464     3.118
   1   2  12     8.128     1.700
   1   3  12     3.169     1.525
   1   4  12    28.462     2.167
   1   5  12    67.233     3.049
   1   6  12     2.798     1.495
   1   7  12    22.401     2.043
   2   0   0    41.031     0.524
   2   1   0    30.455     0.432
   2   2   0  1642.626    14.473
   2   3   0   769.665     7.020
   2   4   0    35.077     0.521
   2   5   0    89.175     1.056
   2   6   0  2036.414    18.080
   2   7   0   287.428     2.945
   2   8   0     0.747     0.297
   2   9   0   229.893     2.527
   2  10   0   248.875     2.728
   2  11   0     2.363     0.355
   2  12   0    42.462     0.894
   2  13   0   164.355     2.095
   2  14   0    10.698     0.590
   2  15   0    68.444     1.298
   2  16   0    36.196     1.003
   2  17   0    34.913     1.023
   2  18   0    42.766     1.174
   2  19   0    36.951     1.137
   2  20   0     0.903     0.365
   2  21   0     7.567     0.626
   2  22   0    14.795     0.906
   2  23   0    10.920     0.860
   2  24   0    31.690     1.212
   2  25   0     4.032     0.565
   2  26   0     1.050     0.439
   2   0   1     1.600     0.157
   2   1   1    76.327     0.863
   2   2   1   271.448     2.671
   2   3   1   524.914     4.942
   2   4   1   154.410     1.630
   2   5   1   417.603     4.062
   2   6   1    22.424     0.474
   2   7   1    95.872     1.204
   2   8   1     4.736     0.355
   2   9   1   267.320     2.877
   2  10   1     8.518     0.450
   2  11   1     4.649     0.424
   2  12   1    39.822     0.868
   2  13   1    78.107     1.319
   2  14   1    43.775     1.002
   2  15   1    23.241     0.790
   2  16   1     3.487     0.386
   2  17   1     9.859     0.675
   2  18   1     9.742     0.709
   2  19   1    28.611     1.037
   2  20   1    70.124     1.600
   2  21   1    28.255     1.096
   2  22   1    22.833     1.049
   2  23   1     2.506     0.436
   2  24   1    40.260     1.312
   2  25   1    22.504     1.294
   2  26   1    29.815     1.421
   2   0   2     4.107     0.222
   2   1   2   301.999     2.987
   2   2   2  1061.190     9.604
   2   3   2   104.796     1.226
   2   4   2    87.164     1.068
   2   5   2     8.213     0.337
   2   6   2   285.844     2.949
   2   7   2   137.376     1.628
   2   8   2   141.001     1.716
   2   9   2   125.400     1.584
   2  10   2     2.591     0.362
   2  11   2    62.738     1.098
   2  12   2    56.087     1.061
   2  13   2    71.928     1.277
   2  14   2    33.096     0.889
   2  15   2    31.144     0.915
   2  16   2    71.675     1.426
   2  17   2     0.063     0.326
   2  18   2    10.585     0.720
   2  19   2     1.113     0.357
   2  20   2    31.168     1.102
   2  21   2    29.602     1.141
   2  22   2     3.492     0.460
   2  23   2     2.483     0.440
   2  24   2     8.531     0.744
   2  25   2    39.068     1.626
   2   0   3   129.277     1.496
   2   1   3   137.404     1.546
   2   2   3   375.506     3.724
   2   3   3   438.707     4.340
   2   4   3    64.449     0.919
   2   5   3   244.106     2.611
   2   6   3    89.089     1.201
   2   7   3   106.317     1.383
   2   8   3   117.118     1.515
   2   9   3   283.337     3.120
   2  10   3   251.542     2.861
   2  11   3    11.758     0.569
   2  12   3    82.703     1.383
   2  13   3    42.940     1.008
   2  14   3    47.167     1.113
   2  15   3    16.616     0.776
   2  16   3     2.730     0.385
   2  17   3    12.492     0.736
   2  18   3     2.062     0.376
   2  19   3    38.038     1.193
   2  20   3     9.671     0.653
   2  21   3    42.421     1.344
   2  22   3     7.638     0.703
   2  23   3     5.101     0.555
   2  24   3     0.035     0.387
   2  25   3    12.783     1.047
   2   0   4    55.577     1.500
   2   1   4   104.638     1.511
   2   2   4   128.394     1.790
   2   3   4   130.561     1.811
   2   4   4    12.725     0.558
   2   5   4    58.573     0.964
   2   6   4   105.926     1.423
   2   7   4   100.326     1.401
   2   8   4   114.038     1.560
   2   9   4    47.607     0.956
   2  10   4   135.410     1.841
   2  11   4    48.766     1.048
   2  12   4    12.414     0.643
   2  13   4     0.393     0.321
   2  14   4    11.450     0.694
   2  15   4    12.562     0.729
   2  16   4    24.668     0.897
   2  17   4    37.936     1.159
   2  18   4    24.845     1.022
   2  19   4     8.530     0.690
   2  20   4    26.092     1.074
   2  21   4    19.850     1.020
   2  22   4    16.435     1.013
   2  23   4    22.955     1.048
   2  24   4     3.268     0.458
   2   0   5   141.458     3.040
   2   1   5    33.254     1.276
   2   2   5   157.948     2.198
   2   3   5    30.968     0.829
   2   4   5   145.235     2.077
   2   5   5    62.406     1.221
   2   6   5    12.223     0.623
   2   7   5    13.861     0.685
   2   8   5    61.425     1.145
   2   9   5    25.651     0.787
   2  10   5   135.718     1.934
   2  11   5    59.069     1.235
   2  12   5    14.008     0.726
   2  13   5     2.214     0.367
   2  14   5    90.500     1.682
   2  15   5    12.437     0.746
   2  16   5     1.111     0.351
   2  17   5     5.221     0.470
   2  18   5    43.394     1.336
   2  19   5    10.886     0.824
   2  20   5     1.380     0.408
   2  21   5     0.930     0.397
   2  22   5    20.529     1.019
   2  23   5    16.102     0.999
   2   0   6    74.870     2.161
   2   1   6    92.003     2.453
   2   2   6     2.259     0.697
   2   3   6     2.213     0.565
   2   4   6    22.160     0.803
   2   5   6    96.525     1.716
   2   6   6     0.578     0.470
   2   7   6    75.532     1.532
   2   8   6     0.224     0.512
   2   9   6     4.816     0.472
   2  10   6    11.860     0.676
   2  11   6   102.295     1.753
   2  12   6     7.716     0.530
   2  13   6    61.025     1.387
   2  14   6    11.028     0.728
   2  15   6    55.592     1.408
   2  16   6    15.047     0.876
   2  17   6    45.940     1.339
   2  18   6    48.614     1.425
   2  19   6     2.297     0.429
   2  20   6     3.734     0.475
   2  21   6    13.464     0.939
   2  22   6    44.761     1.390
   2   0   7     7.264     0.965
   2   1   7    43.020     1.780
   2   2   7    12.301     1.103
   2   3   7    14.183     1.170
   2   4   7   127.643     2.617
   2   5   7    69.531     1.538
   2   6   7    28.719     1.039
   2   7   7    81.937     1.740
   2   8   7    80.670     1.735
   2   9   7     4.877     0.519
   2  10   7     9.296     0.778
   2  11   7    95.589     2.020
   2  12   7     2.132     0.377
   2  13   7    47.905     1.329
   2  14   7    39.417     1.224
   2  15   7    32.089     1.167
   2  16   7     4.198     0.472
   2  17   7    49.775     1.446
   2  18   7     9.694     0.748
   2  19   7     6.864     0.622
   2  20   7     0.961     0.397
   2  21   7    10.177     0.781
   2   0   8    52.959     2.152
   2   1   8    57.605     2.252
   2   2   8    23.089     1.551
   2   3   8    28.433     1.644
   2   4   8    15.604     1.353
   2   5   8    55.364     1.493
   2   6   8    46.082     1.411
   2   7   8    40.962     1.335
   2   8   8     0.302     0.401
   2   9   8    11.516     0.782
   2  10   8     1.376     0.477
   2  11   8     8.347     0.762
   2  12   8     0.016     0.423
   2  13   8    30.773     1.335
   2  14   8     9.765     0.793
   2  15   8     6.873     0.683
   2  16   8     3.182     0.461
   2  17   8    23.015     1.110
   2  18   8     1.875     0.424
   2  19   8     6.584     0.534
   2   0   9    74.139     2.713
   2   1   9    17.123     1.470
   2   2   9   107.118     3.363
   2   3   9     5.245     1.079
   2   4   9    47.772     2.251
   2   5   9    11.227     1.359
   2   6   9    48.828     1.537
   2   7   9    10.345     0.901
   2   8   9     3.286     0.528
   2   9   9    37.569     1.402
   2  10   9    13.830     1.004
   2  11   9    15.308     1.054
   2  12   9    17.006     1.108
   2  13   9    34.411     1.428
   2  14   9    70.810     1.945
   2  15   9     1.073     0.510
   2  16   9    15.214     0.987
   2  17   9     4.244     0.513
   2   0  10    48.671     2.397
   2   1  10    65.801     2.767
   2   2  10     2.802     1.157
   2   3  10     6.435     1.306
   2   4  10     4.586     1.228
   2   5  10    45.707     2.357
   2   6  10    16.623     1.631
   2   7  10    25.682     1.292
   2   8  10    29.769     1.370
   2   9  10    11.972     0.897
   2  10  10    32.810     1.424
   2  11  10    43.411     1.551
   2  12  10    47.330     1.646
   2  13  10     6.946     0.668
   2  14  10    16.744     1.125
   2  15  10     2.894     0.561
   2   0  11    12.334     1.636
   2   1  11     9.712     1.563
   2   2  11     3.242     1.339
   2   3  11     7.109     1.425
   2   4  11     2.228     1.379
   2   5  11     0.686     1.278
   2   6  11    13.357     1.638
   2   7  11     0.507     1.280
   2   8  11     5.540     0.639
   2   9  11     0.302     0.499
   2  10  11     6.168     0.767
   2  11  11     4.492     0.599
   2   0  12    45.706     2.592
   2   1  12    20.145     2.050
   2   2  12     6.089     1.589
   2   3  12    41.726     2.478
   2   4  12    10.953     1.742
   2   5  12     2.210     1.494
   2   6  12    28.733     2.166
   3   1   0    30.344     0.500
   3   3   0    67.694     0.865
   3   4   0   404.587     3.948
   3   5   0   204.071     2.168
   3   6   0    38.576     0.683
   3   7   0   237.809     2.553
   3   8   0    79.008     1.132
   3   9   0   105.429     1.408
   3  10   0    29.387     0.709
   3  11   0   245.947     2.803
   3  12   0     8.009     0.515
   3  13   0     2.680     0.436
   3  14   0     3.671     0.479
   3  15   0    23.513     0.831
   3  16   0    41.990     1.113
   3  17   0    41.382     1.137
   3  18   0     2.086     0.367
   3  19   0     2.879     0.405
   3  20   0    27.325     1.053
   3  21   0    29.716     1.124
   3  22   0     3.994     0.473
   3  23   0     0.060     0.389
   3  24   0     7.885     0.637
   3  25   0    28.932     1.398
   3   0   1   171.860     1.819
   3   1   1   361.000     3.563
   3   2   1    57.690     0.771
   3   3   1   424.894     4.155
   3   4   1    80.107     1.019
   3   5   1    23.770     0.518
   3   6   1    67.463     0.963
   3   7   1   155.756     1.817
   3   8   1    41.779     0.785
   3   9   1   373.821     3.929
   3  10   1    36.106     0.798
   3  11   1    52.422     1.009
   3  12   1    53.228     1.061
   3  13   1    87.610     1.482
   3  14   1    26.477     0.840
   3  15   1     1.946     0.365
   3  16   1    38.523     1.072
   3  17   1    29.534     0.986
   3  18   1    49.973     1.302
   3  19   1    19.300     0.901
   3  20   1     3.620     0.444
   3  21   1    66.210     1.602
   3  22   1    60.641     1.602
   3  23   1    15.129     0.934
   3  24   1    29.180     1.179
   3  25   1     7.630     0.752
   3   0   2     0.102     0.225
   3   1   2   175.828     1.919
   3   2   2   265.919     2.729
   3   3   2   261.029     2.712
   3   4   2    53.876     0.836
   3   5   2   308.069     3.191
   3   6   2   624.209     6.118
   3   7   2     7.145     0.411
   3   8   2    87.063     1.242
   3   9   2    60.883     1.034
   3  10   2   248.396     2.818
   3  11   2    33.862     0.831
   3  12   2   104.129     1.586
   3  13   2    25.647     0.796
   3  14   2     6.499     0.577
   3  15   2    12.617     0.699
   3  16   2    35.911     1.037
   3  17   2    27.910     0.978
   3  18   2     8.847     0.700
   3  19   2     5.412     0.530
   3  20   2    11.314     0.820
   3  21   2     0.574     0.376
   3  22   2     2.751     0.443
   3  23   2     9.598     0.847
   3  24   2    26.966     1.148
   3  25   2     4.440     0.550
   3   0   3   179.415     2.002
   3   1   3   245.979     2.610
   3   2   3    17.016     0.496
   3   3   3   163.577     1.877
   3   4   3    12.339     0.469
   3   5   3   209.376     2.324
   3   6   3     3.317     0.368
   3   7   3   248.809     2.763
   3   8   3    42.136     0.852
   3   9   3    25.591     0.709
   3  10   3    11.309     0.552
   3  11   3    74.253     1.286
   3  12   3    39.287     0.950
   3  13   3    12.148     0.651
   3  14   3     8.872     0.579
   3  15   3    11.771     0.710
   3  16   3     2.003     0.380
   3  17   3     8.001     0.621
   3  18   3     0.194     0.333
   3  19   3    10.063     0.800
   3  20   3     5.980     0.506
   3  21   3     1.581     0.405
   3  22   3     6.253     0.533
   3  23   3    38.939     1.350
   3  24   3     8.320     0.707
   3   0   4    11.334     0.458
   3   1   4   110.862     1.440
   3   2   4    30.287     0.682
   3   3   4    78.353     1.157
   3   4   4    24.453     0.634
   3   5   4   264.647     2.925
   3   6   4    78.243     1.217
   3   7   4    58.233     1.048
   3   8   4    52.712     1.028
   3   9   4    65.914     1.186
   3  10   4    20.533     0.714
   3  11   4    28.382     0.857
   3  12   4    29.318     0.884
   3  13   4   102.387     1.710
   3  14   4     9.828     0.665
   3  15   4    36.760     1.089
   3  16   4    16.906     0.825
   3  17   4    31.479     1.092
   3  18   4    24.922     1.031
   3  19   4    16.505     0.917
   3  20   4    20.387     0.987
   3  21   4    25.178     1.093
   3  22   4     6.819     0.609
   3  23   4     9.833     0.844
   3  24   4     1.074     0.397
   3   0   5    48.860     0.949
   3   1   5    43.742     0.896
   3   2   5    34.692     0.814
   3   3   5    71.647     1.187
   3   4   5    70.080     1.186
   3   5   5    70.814     1.212
   3   6   5    43.037     0.937
   3   7   5   119.897     1.723
   3   8   5   183.077     2.335
   3   9   5     1.777     0.464
   3  10   5   130.619     1.943
   3  11   5     7.138     0.520
   3  12   5   120.792     1.919
   3  13   5    10.051     0.701
   3  14   5    62.542     1.429
   3  15   5    43.261     1.222
   3  16   5     9.792     0.758
   3  17   5     3.067     0.428
   3  18   5     6.265     0.515
   3  19   5    10.368     0.755
   3  20   5     2.767     0.446
   3  21   5     3.500     0.470
   3  22   5    14.799     0.973
   3  23   5     3.693     0.467
   3   1   6     3.700     0.500
   3   2   6    40.794     1.070
   3   3   6     4.719     0.547
   3   4   6     9.351     0.658
   3   5   6    20.568     0.839
   3   6   6    18.226     0.839
   3   7   6    38.485     1.123
   3   8   6    18.360     0.778
   3   9   6    31.701     0.951
   3  10   6    23.467     0.869
   3  11   6    66.392     1.416
   3  12   6     3.530     0.417
   3  13   6    55.288     1.373
   3  14   6    25.176     0.995
   3  15   6     7.031     0.570
   3  16   6    40.785     1.280
   3  17   6    23.448     1.043
   3  18   6     9.956     0.746
   3  19   6    21.336     1.058
   3  20   6    62.072     1.624
   3  21   6     5.647     0.518
   3  22   6     5.043     0.501
   3   0   7     5.789     0.982
   3   1   7     0.827     0.814
   3   2   7   148.088     3.652
   3   3   7    28.367     1.053
   3   4   7     9.431     0.768
   3   5   7    31.381     1.104
   3   6   7    11.749     0.833
   3   7   7    35.220     1.183
   3   8   7    10.907     0.836
   3   9   7   106.554     2.087
   3  10   7    49.534     1.285
   3  11   7     6.030     0.468
   3  12   7     2.338     0.393
   3  13   7    37.282     1.203
   3  14   7    47.993     1.352
   3  15   7    36.391     1.242
   3  16   7     2.720     0.439
   3  17   7     2.774     0.443
   3  18   7     7.664     0.623
   3  19   7    20.389     1.065
   3  20   7     8.970     0.735
   3  21   7     5.086     0.499
   3   0   8     2.085     0.985
   3   1   8   111.347     3.246
   3   2   8    58.205     2.297
   3   3   8    44.860     2.046
   3   4   8    38.153     1.276
   3   5   8    37.730     1.276
   3   6   8    25.647     1.108
   3   7   8    29.606     1.177
   3   8   8    32.679     1.262
   3   9   8    21.701     1.098
   3  10   8     4.306     0.553
   3  11   8    97.814     2.174
   3  12   8    16.902     1.048
   3  13   8     6.177     0.575
   3  14   8     4.486     0.484
   3  15   8    17.632     0.966
   3  16   8    15.024     0.967
   3  17   8    10.973     0.882
   3  18   8     8.143     0.633
   3  19   8    22.588     1.086
   3   0   9    67.529     2.653
   3   1   9    11.689     1.375
   3   2   9    18.969     1.581
   3   3   9    13.648     1.458
   3   4   9    99.766     3.298
   3   5   9     0.142     0.456
   3   6   9     7.916     0.646
   3   7   9     8.827     0.729
   3   8   9    42.322     1.505
   3   9   9     6.163     0.625
   3  10   9    27.351     1.267
   3  11   9     4.161     0.580
   3  12   9     4.830     0.605
   3  13   9     1.508     0.518
   3  14   9    30.489     1.333
   3  15   9     6.277     0.597
   3  16   9     8.826     0.646
   3  17   9    21.323     1.060
   3   0  10     0.840     1.139
   3   1  10    56.157     2.551
   3   2  10    27.171     1.955
   3   3  10    80.706     3.107
   3   4  10    11.689     1.545
   3   5  10     6.999     1.384
   3   6  10    22.838     1.220
   3   7  10    11.448     0.867
   3   8  10     7.096     0.666
   3   9  10    32.662     1.421
   3  10  10     7.432     0.819
   3  11  10     4.479     0.596
   3  12  10     1.103     0.501
   3  13  10    18.654     1.194
   3  14  10    16.609     1.107
   3   0  11     1.216     1.307
   3   1  11    10.738     1.637
   3   2  11    14.828     1.689
   3   3  11    34.104     2.232
   3   4  11    16.577     1.833
   3   5  11    15.320     1.714
   3   6  11    11.878     1.663
   3   7  11    22.077     1.262
   3   8  11     6.384     0.785
   3   9  11    10.531     0.821
   3  10  11     8.794     0.846
   3  11  11     9.197     2.882
   3   0  12     5.402     1.632
   3   1  12     7.160     1.640
   3   2  12     3.199     1.497
   3   3  12     0.759     1.497
   3   4  12     0.980     1.428
   4   0   0   384.160     3.814
   4   1   0   378.419     3.799
   4   2   0    39.434     0.685
   4   3   0     1.716     0.305
   4   4   0    36.218     0.689
   4   5   0    15.097     0.496
   4   6   0   128.922     1.596
   4   7   0    86.250     1.238
   4   8   0   129.679     1.665
   4   9   0   127.496     1.688
   4  10   0    67.668     1.168
   4  11   0    12.399     0.599
   4  12   0   235.377     2.907
   4  13   0    67.758     1.283
   4  14   0     2.759     0.362
   4  15   0    12.379     0.703
   4  16   0    88.641     1.656
   4  17   0     1.159     0.340
   4  18   0     1.996     0.380
   4  19   0     7.101     0.647
   4  20   0     0.273     0.366
   4  21   0     7.821     0.612
   4  22   0     0.044     0.401
   4  23   0     4.687     0.501
   4  24   0    21.385     1.063
   4   0   1     1.434     0.287
   4   1   1   145.482     1.665
   4   2   1    33.894     0.645
   4   3   1   147.498     1.710
   4   4   1    11.879     0.451
   4   5   1    58.764     0.930
   4   6   1    42.575     0.804
   4   7   1   240.298     2.675
   4   8   1    42.064     0.847
   4   9   1     4.160     0.398
   4  10   1    33.515     0.813
   4  11   1   260.807     3.034
   4  12   1    66.342     1.247
   4  13   1    42.056     1.031
   4  14   1    45.194     1.104
   4  15   1    44.069     1.138
   4  16   1    51.361     1.258
   4  17   1    16.688     0.846
   4  18   1    30.361     1.055
   4  19   1    41.720     1.249
   4  20   1    31.994     1.156
   4  21   1     7.565     0.682
   4  22   1    13.988     0.944
   4  23   1     2.142     0.444
   4  24   1    19.195     1.028
   4  25   1     5.119     0.568
   4   0   2    10.509     0.433
   4   1   2   258.717     2.772
   4   2   2     9.484     0.435
   4   3   2    73.557     1.065
   4   4   2   195.760     2.198
   4   5   2   132.931     1.668
   4   6   2    31.661     0.712
   4   7   2   173.343     2.095
   4   8   2   158.054     1.967
   4   9   2     5.518     0.439
   4  10   2    40.353     0.906
   4  11   2    18.305     0.679
   4  12   2    45.340     1.039
   4  13   2     0.130     0.302
   4  14   2    14.117     0.718
   4  15   2    14.736     0.760
   4  16   2    16.198     0.823
   4  17   2    18.955     0.890
   4  18   2     5.987     0.530
   4  19   2    10.965     0.810
   4  20   2     8.264     0.604
   4  21   2     9.314     0.805
   4  22   2     9.510     0.652
   4  23   2    17.354     1.007
   4  24   2     1.584     0.414
   4   0   3     4.584     0.379
   4   1   3   219.855     2.429
   4   2   3    37.622     0.765
   4   3   3   454.086     4.588
   4   4   3    93.088     1.311
   4   5   3   106.160     1.455
   4   6   3     5.311     0.418
   4   7   3    59.190     1.057
   4   8   3    85.284     1.355
   4   9   3    31.306     0.815
   4  10   3    16.566     0.661
   4  11   3    29.070     0.847
   4  12   3    41.173     1.039
   4  13   3    12.055     0.688
   4  14   3    22.037     0.872
   4  15   3    72.107     1.491
   4  16   3    26.769     0.994
   4  17   3     0.935     0.355
   4  18   3    21.160     0.970
   4  19   3    34.307     1.174
   4  20   3    12.926     0.861
   4  21   3    33.063     1.231
   4  22   3    24.912     1.142
   4  23   3     0.970     0.396
   4  24   3    13.656     0.946
   4   0   4    75.667     1.166
   4   1   4   121.411     1.602
   4   2   4    33.397     0.772
   4   3   4    94.701     1.374
   4   4   4    34.373     0.794
   4   5   4    85.482     1.327
   4   6   4    54.901     1.054
   4   7   4    42.066     0.935
   4   8   4     8.738     0.525
   4   9   4     1.410     0.444
   4  10   4    35.336     0.935
   4  11   4    24.043     0.825
   4  12   4    67.542     1.367
   4  13   4    25.547     0.910
   4  14   4     9.003     0.622
   4  15   4    39.202     1.170
   4  16   4    52.802     1.368
   4  17   4    58.319     1.485
   4  18   4     1.552     0.395
   4  19   4     8.323     0.624
   4  20   4    22.061     1.070
   4  21   4    19.699     1.023
   4  22   4     2.045     0.462
   4  23   4    62.637     1.615
   4   0   5    27.342     0.757
   4   1   5    22.542     0.696
   4   2   5     6.070     0.480
   4   3   5   160.451     2.067
   4   4   5    27.999     0.781
   4   5   5    82.906     1.381
   4   6   5    13.494     0.612
   4   7   5    34.477     0.921
   4   8   5    47.219     1.074
   4   9   5    43.986     1.091
   4  10   5    26.595     0.871
   4  11   5     9.680     0.651
   4  12   5    18.921     0.855
   4  13   5     6.586     0.578
   4  14   5     8.329     0.628
   4  15   5     1.918     0.389
   4  16   5    20.760     0.969
   4  17   5    10.145     0.785
   4  18   5     2.263     0.428
   4  19   5     5.339     0.510
   4  20   5    28.446     1.170
   4  21   5     2.180     0.432
   4  22   5     1.062     0.399
   4   0   6     0.282     0.422
   4   1   6    86.628     1.472
   4   2   6    15.004     0.670
   4   3   6    25.204     0.825
   4   4   6    11.620     0.648
   4   5   6   135.179     1.976
   4   6   6    40.439     1.053
   4   7   6    39.582     1.062
   4   8   6    53.102     1.252
   4   9   6   132.943     2.075
   4  10   6    25.875     0.957
   4  11   6    35.787     1.072
   4  12   6    61.898     1.439
   4  13   6    48.307     1.300
   4  14   6    12.240     0.806
   4  15   6    53.530     1.435
   4  16   6    17.901     0.953
   4  17   6    41.484     1.328
   4  18   6    26.051     1.110
   4  19   6    36.310     1.275
   4  20   6     1.818     0.423
   4  21   6    22.030     1.083
   4   0   7   135.466     2.056
   4   1   7     9.243     0.705
   4   2   7    12.576     0.822
   4   3   7    11.865     0.799
   4   4   7    63.904     1.550
   4   5   7    16.069     0.888
   4   6   7    19.740     0.845
   4   7   7    25.628     0.947
   4   8   7    50.597     1.289
   4   9   7     6.109     0.582
   4  10   7    43.040     1.212
   4  11   7    51.066     1.358
   4  12   7    39.227     1.214
   4  13   7    10.310     0.719
   4  14   7    30.002     1.148
   4  15   7     2.082     0.420
   4  16   7     3.304     0.456
   4  17   7     9.220     0.757
   4  18   7     5.591     0.522
   4  19   7    12.666     0.893
   4  20   7     1.913     0.424
   4   0   8    43.425     2.047
   4   1   8    19.245     1.216
   4   2   8    13.459     0.889
   4   3   8    11.578     0.874
   4   4   8    28.609     1.160
   4   5   8     4.320     0.527
   4   6   8     8.859     0.746
   4   7   8    31.946     1.274
   4   8   8     3.662     0.533
   4   9   8    87.387     2.070
   4  10   8    18.786     0.968
   4  11   8     8.674     0.720
   4  12   8     0.832     0.385
   4  13   8    51.521     1.478
   4  14   8    33.445     1.242
   4  15   8     2.198     0.435
   4  16   8     9.618     0.767
   4  17   8     0.053     0.382
   4  18   8    15.943     0.966
   4   0   9    18.869     1.624
   4   1   9    13.444     1.462
   4   2   9    13.045     1.430
   4   3   9    23.710     1.176
   4   4   9    58.170     1.677
   4   5   9    13.621     0.987
   4   6   9    35.497     1.423
   4   7   9     5.491     0.610
   4   8   9    83.596     2.079
   4   9   9    16.697     1.083
   4  10   9    19.527     1.126
   4  11   9     0.342     0.511
   4  12   9    23.362     1.268
   4  13   9     9.120     0.746
   4  14   9    11.544     0.883
   4  15   9    26.024     1.134
   4  16   9     2.405     0.439
   4   1  10    81.437     3.162
   4   2  10    13.929     1.608
   4   3  10     3.045     1.262
   4   4  10    29.680     1.335
   4   5  10    56.654     1.788
   4   6  10    27.592     1.337
   4   7  10    15.289     1.091
   4   8  10    15.204     1.093
   4   9  10     0.757     0.506
   4  10  10    14.794     1.091
   4  11  10     6.932     0.668
   4  12  10     1.586     0.525
   4  13  10     8.517     0.700
   4   0  11    27.343     2.093
   4   1  11     1.588     1.305
   4   2  11     3.112     1.321
   4   3  11     8.851     1.535
   4   4  11    32.383     2.211
   4   5  11    12.883     1.321
   4   6  11     0.490     0.511
   4   7  11     6.628     0.659
   4   8  11    20.197     1.245
   4   9  11     9.655     0.845
   5   1   0    39.379     0.758
   5   2   0    42.791     0.814
   5   3   0   226.540     2.525
   5   4   0    59.827     1.003
   5   5   0    71.651     1.120
   5   6   0     0.102     0.319
   5   7   0    11.561     0.530
   5   8   0    16.030     0.605
   5   9   0    25.075     0.734
   5  10   0    37.818     0.912
   5  11   0    36.190     0.935
   5  12   0     1.585     0.465
   5  13   0    11.993     0.685
   5  14   0    51.614     1.228
   5  15   0    15.107     0.805
   5  16   0     4.497     0.425
   5  17   0    10.305     0.683
   5  18   0     6.167     0.630
   5  19   0     0.137     0.358
   5  20   0     0.427     0.372
   5  21   0     0.904     0.394
   5  22   0     7.785     0.623
   5  24   0     2.020     0.431
   5   0   1     5.847     0.404
   5   1   1   131.104     1.625
   5   2   1    89.182     1.261
   5   3   1   374.229     3.832
   5   4   1     5.200     0.400
   5   5   1    34.992     0.763
   5   6   1    69.751     1.144
   5   7   1   151.403     1.923
   5   8   1     3.138     0.407
   5   9   1    57.266     1.107
   5  10   1    12.483     0.599
   5  11   1    67.136     1.263
   5  12   1    21.344     0.802
   5  13   1    18.644     0.818
   5  14   1    15.889     0.770
   5  15   1   213.866     2.865
   5  16   1    60.260     1.411
   5  17   1     4.181     0.440
   5  18   1     7.566     0.672
   5  19   1    52.643     1.460
   5  20   1    50.767     1.427
   5  21   1     3.453     0.467
   5  22   1     0.887     0.399
   5  23   1     1.849     0.424
   5  24   1    14.380     0.922
   5   0   2   324.642     3.441
   5   1   2   166.231     2.014
   5   2   2     0.556     0.330
   5   3   2   247.638     2.787
   5   4   2    84.198     1.270
   5   5   2    41.820     0.866
   5   6   2     6.473     0.453
   5   7   2    12.695     0.571
   5   8   2    28.622     0.785
   5   9   2    36.758     0.904
   5  10   2     1.372     0.428
   5  11   2    15.971     0.708
   5  12   2   122.137     1.897
   5  13   2     0.473     0.326
   5  14   2     7.415     0.649
   5  15   2     3.021     0.387
   5  16   2    59.502     1.428
   5  17   2    14.454     0.844
   5  18   2    11.353     0.801
   5  19   2    29.814     1.116
   5  20   2     2.120     0.428
   5  21   2    38.380     1.303
   5  22   2     1.740     0.425
   5  23   2     5.263     0.565
   5  24   2     7.228     0.884
   5   0   3    30.548     0.750
   5   1   3   195.097     2.318
   5   2   3    24.035     0.676
   5   3   3     9.392     0.503
   5   4   3     1.330     0.377
   5   5   3    67.427     1.164
   5   6   3    34.172     0.837
   5   7   3    62.944     1.170
   5   8   3    18.266     0.675
   5   9   3     8.907     0.580
   5  10   3    42.492     1.040
   5  11   3    25.448     0.870
   5  12   3    26.974     0.915
   5  13   3    18.797     0.833
   5  14   3    46.233     1.205
   5  15   3     3.658     0.414
   5  16   3    49.975     1.355
   5  17   3    23.324     1.000
   5  18   3    23.537     1.043
   5  19   3     4.347     0.482
   5  20   3    55.567     1.538
   5  21   3     8.114     0.642
   5  22   3     4.719     0.500
   5  23   3     8.510     0.630
   5   0   4     0.279     0.364
   5   1   4    68.662     1.186
   5   2   4    42.882     0.929
   5   3   4    27.808     0.791
   5   4   4    16.966     0.652
   5   5   4     6.135     0.502
   5   6   4    27.884     0.819
   5   7   4    29.569     0.855
   5   8   4    87.859     1.502
   5   9   4     2.624     0.369
   5  10   4   109.975     1.797
   5  11   4    34.004     1.017
   5  12   4    84.172     1.595
   5  13   4     4.317     0.416
   5  14   4    84.576     1.690
   5  15   4    20.317     0.948
   5  16   4    21.800     0.976
   5  17   4     8.108     0.679
   5  18   4    25.073     1.072
   5  19   4    74.386     1.762
   5  20   4     0.052     0.377
   5  21   4    43.384     1.384
   5  22   4    11.528     0.922
   5   0   5     6.938     0.547
   5   1   5   182.802     2.341
   5   2   5    31.255     0.869
   5   3   5    15.805     0.664
   5   4   5    71.621     1.335
   5   5   5    58.464     1.224
   5   6   5    18.285     0.768
   5   7   5    33.875     0.957
   5   8   5    49.319     1.180
   5   9   5    10.724     0.689
   5  10   5    18.602     0.822
   5  11   5    20.035     0.875
   5  12   5     0.953     0.340
   5  13   5    17.448     0.887
   5  14   5    41.514     1.221
   5  15   5     1.294     0.385
   5  16   5    18.383     0.929
   5  17   5     3.614     0.462
   5  18   5    29.004     1.153
   5  19   5     3.093     0.465
   5  20   5    11.713     0.919
   5  21   5     8.657     0.650
   5   0   6    46.499     1.132
   5   1   6    44.621     1.093
   5   2   6    10.886     0.682
   5   3   6    52.974     1.208
   5   4   6    48.860     1.179
   5   5   6    78.797     1.519
   5   6   6    13.185     0.718
   5   7   6   102.811     1.791
   5   8   6    21.569     0.891
   5   9   6    20.678     0.866
   5  10   6    67.738     1.492
   5  11   6    78.629     1.641
   5  12   6     0.505     0.349
   5  13   6    66.048     1.570
   5  14   6    52.943     1.435
   5  15   6    15.005     0.894
   5  16   6     5.233     0.503
   5  17   6    51.846     1.498
   5  18   6     7.114     0.630
   5  19   6     5.131     0.508
   5  20   6     0.004     0.380
   5   0   7     1.458     0.363
   5   1   7    29.363     0.977
   5   2   7    16.421     0.833
   5   3   7     3.949     0.422
   5   4   7   105.621     1.854
   5   5   7    10.167     0.661
   5   6   7    20.631     0.891
   5   7   7     9.542     0.729
   5   8   7    98.365     1.860
   5   9   7    11.199     0.747
   5  10   7     1.977     0.401
   5  11   7     4.191     0.458
   5  12   7    13.019     0.780
   5  13   7    15.929     0.907
   5  14   7     6.288     0.526
   5  15   7    17.971     0.981
   5  16   7     7.714     0.727
   5  17   7     4.822     0.503
   5  18   7     2.881     0.454
   5   0   8    35.959     1.150
   5   1   8    46.891     1.288
   5   2   8     3.191     0.419
   5   3   8     0.677     0.349
   5   4   8    19.149     0.943
   5   5   8   137.677     2.293
   5   6   8     1.160     0.777
   5   7   8     5.163     0.482
   5   8   8     2.893     0.434
   5   9   8    23.713     1.038
   5  10   8     2.024     0.419
   5  11   8    12.486     0.865
   5  12   8     7.934     0.623
   5  13   8    31.874     1.241
   5  14   8     8.008     0.639
   5  15   8     8.658     0.637
   5  16   8    11.729     0.883
   5  17   8    57.841     1.561
   5   0   9     0.669     0.778
   5   1   9    29.524     1.117
   5   2   9    34.837     1.389
   5   3   9     5.398     0.599
   5   4   9     6.106     0.624
   5   5   9    13.929     1.043
   5   6   9    26.766     1.264
   5   7   9     9.357     0.822
   5   8   9     1.086     0.498
   5   9   9     1.299     0.405
   5  10   9    20.945     1.050
   5  11   9    15.237     0.965
   5  12   9     1.682     0.417
   5  13   9     8.618     0.647
   5  14   9     6.671     0.537
   5  15   9     2.578     0.444
   5   0  10    73.641     3.066
   5   1  10     5.114     0.880
   5   2  10     2.787     0.559
   5   3  10    50.194     1.687
   5   4  10    24.136     1.263
   5   5  10    29.464     1.423
   5   6  10     6.486     0.665
   5   7  10    17.518     1.155
   5   8  10     6.849     0.667
   5   9  10    32.115     1.393
   5  10  10     0.846     0.514
   5  11  10     1.989     0.524
   5  12  10     5.766     0.520
   5   0  11     3.669     1.487
   5   1  11    23.379     1.964
   5   2  11    12.059     1.584
   5   3  11    16.067     1.147
   5   4  11    10.790     0.894
   5   5  11     0.057     0.504
   5   6  11    39.012     1.505
   5   7  11     2.379     0.551
   6   0   0   131.590     1.723
   6   1   0    64.897     1.102
   6   2   0     4.736     0.430
   6   3   0    30.991     0.778
   6   4   0     9.720     0.505
   6   5   0    74.826     1.258
   6   6   0    69.019     1.219
   6   7   0    82.556     1.385
   6   8   0    57.687     1.149
   6   9   0     0.228     0.423
   6  10   0    86.041     1.533
   6  11   0     0.253     0.310
   6  12   0    62.685     1.333
   6  13   0    20.995     0.877
   6  14   0     9.043     0.629
   6  15   0    27.844     0.999
   6  16   0     7.133     0.623
   6  17   0     8.744     0.677
   6  18   0    20.759     1.007
   6  19   0     6.820     0.672
   6  21   0     2.220     0.437
   6  22   0    23.039     1.075
   6  23   0     0.663     0.391
   6   0   1    38.688     0.856
   6   1   1   115.972     1.598
   6   2   1    83.812     1.311
   6   3   1    74.485     1.233
   6   4   1    85.656     1.351
   6   5   1   102.274     1.527
   6   6   1     9.267     0.526
   6   7   1    59.702     1.155
   6   8   1    51.664     1.096
   6   9   1     1.431     0.464
   6  10   1     1.425     0.327
   6  11   1    26.074     0.879
   6  12   1    12.497     0.735
   6  13   1   116.950     1.944
   6  14   1    40.235     1.153
   6  15   1    18.145     0.873
   6  16   1    11.478     0.766
   6  17   1    70.314     1.614
   6  18   1    64.881     1.590
   6  19   1    18.114     0.965
   6  20   1    12.880     0.897
   6  21   1     7.863     0.636
   6  22   1    21.333     1.071
   6  23   1     9.129     0.848
   6   0   2    18.778     0.641
   6   1   2   111.455     1.591
   6   2   2   170.301     2.153
   6   3   2     3.239     0.420
   6   4   2     0.842     0.395
   6   5   2    46.270     0.999
   6   6   2     9.286     0.548
   6   7   2    17.538     0.696
   6   8   2    45.497     1.060
   6   9   2     5.329     0.556
   6  10   2   103.939     1.725
   6  11   2     3.618     0.396
   6  12   2    29.804     0.998
   6  13   2    10.521     0.656
   6  14   2    89.107     1.746
   6  15   2     0.995     0.356
   6  16   2     6.812     0.567
   6  17   2    13.931     0.870
   6  18   2     7.292     0.596
   6  19   2     6.772     0.592
   6  20   2     1.786     0.426
   6  21   2     8.539     0.749
   6  22   2     6.080     0.529
   6  23   2    13.130     1.509
   6   0   3    11.999     0.585
   6   1   3    97.021     1.496
   6   2   3    16.179     0.661
   6   3   3   194.901     2.412
   6   4   3    65.019     1.215
   6   5   3     4.434     0.503
   6   6   3    23.828     0.784
   6   7   3    56.042     1.175
   6   8   3    22.270     0.807
   6   9   3    24.721     0.868
   6  10   3     1.261     0.347
   6  11   3     6.659     0.507
   6  12   3    20.184     0.877
   6  13   3     4.275     0.423
   6  14   3    46.783     1.296
   6  15   3    31.439     1.108
   6  16   3    27.615     1.092
   6  17   3    12.460     0.855
   6  18   3    67.749     1.667
   6  19   3    45.753     1.427
   6  20   3     2.935     0.460
   6  21   3    20.379     1.075
   6  22   3    28.151     1.174
   6   0   4     1.023     0.423
   6   1   4    91.482     1.522
   6   2   4    20.442     0.742
   6   3   4    55.259     1.156
   6   4   4     0.893     0.476
   6   5   4    35.828     0.977
   6   6   4    65.165     1.319
   6   7   4     4.798     0.407
   6   8   4    16.448     0.765
   6   9   4    38.893     1.089
   6  10   4    47.008     1.217
   6  11   4     2.424     0.371
   6  12   4    26.602     0.994
   6  13   4     4.548     0.445
   6  14   4    38.614     1.221
   6  15   4     3.710     0.453
   6  16   4    31.066     1.150
   6  17   4    78.149     1.770
   6  18   4     9.619     0.774
   6  19   4    30.559     1.221
   6  20   4    12.027     0.896
   6  21   4    53.023     1.514
   6   0   5    13.910     0.730
   6   1   5    63.256     1.298
   6   2   5    19.133     0.783
   6   3   5   103.170     1.725
   6   4   5    18.573     0.796
   6   5   5     4.072     0.403
   6   6   5    42.642     1.111
   6   7   5     9.880     0.689
   6   8   5     0.253     0.354
   6   9   5    32.809     1.064
   6  10   5     2.226     0.376
   6  11   5    18.812     0.897
   6  12   5    22.541     0.972
   6  13   5     9.276     0.613
   6  14   5    22.020     1.015
   6  15   5     1.857     0.413
   6  16   5    16.373     0.971
   6  17   5     1.835     0.425
   6  18   5    17.265     0.979
   6  19   5     5.849     0.525
   6  20   5     0.088     0.369
   6   0   6    49.513     1.221
   6   1   6    98.365     1.736
   6   2   6    70.413     1.470
   6   3   6    54.384     1.294
   6   4   6    19.116     0.854
   6   5   6    77.460     1.572
   6   6   6    71.893     1.527
   6   7   6     6.165     0.466
   6   8   6    10.537     0.755
   6   9   6    73.936     1.622
   6  10   6    12.373     0.836
   6  11   6    32.295     1.143
   6  12   6    39.416     1.243
   6  13   6    33.819     1.214
   6  14   6    12.817     0.910
   6  15   6    42.371     1.339
   6  16   6    28.053     1.146
   6  17   6    22.189     1.072
   6  18   6     8.402     0.581
   6  19   6    13.930     0.919
   6   0   7    17.243     0.845
   6   1   7     2.189     0.381
   6   2   7    48.610     1.293
   6   3   7    11.496     0.781
   6   4   7     7.955     0.638
   6   5   7    20.142     0.904
   6   6   7    95.975     1.854
   6   7   7     2.255     0.406
   6   8   7    18.522     0.915
   6   9   7     4.955     0.530
   6  10   7    56.458     1.483
   6  11   7     4.990     0.493
   6  12   7    17.044     0.982
   6  13   7    15.128     0.955
   6  14   7    13.464     0.925
   6  15   7     3.426     0.470
   6  16   7     0.090     0.386
   6  17   7    11.594     0.848
   6  18   7     6.902     0.538
   6   0   8    27.690     1.063
   6   1   8     1.216     0.383
   6   2   8    14.423     0.846
   6   3   8    48.174     1.353
   6   4   8     7.593     0.674
   6   5   8     3.324     0.441
   6   6   8    12.871     0.868
   6   7   8    51.932     1.426
   6   8   8     0.709     0.382
   6   9   8     3.070     0.455
   6  10   8     7.644     0.643
   6  11   8    17.228     1.007
   6  12   8     2.353     0.448
   6  13   8    10.221     0.727
   6  14   8    14.930     0.952
   6  15   8    40.353     1.337
   6  16   8    20.674     1.060
   6   0   9    38.188     1.284
   6   1   9     1.087     0.396
   6   2   9    11.178     0.847
   6   3   9    10.963     0.797
   6   4   9     8.780     0.739
   6   5   9     2.650     0.444
   6   6   9    12.784     0.884
   6   7   9     6.873     0.546
   6   8   9    29.433     1.155
   6   9   9     5.699     0.524
   6  10   9    41.225     1.365
   6  11   9     6.425     0.596
   6  12   9    35.646     1.280
   6  13   9    13.654     0.925
   6   0  10     4.826     0.508
   6   1  10    42.552     1.362
   6   2  10    44.832     1.416
   6   3  10     1.580     0.447
   6   4  10     6.878     0.550
   6   5  10    50.527     1.481
   6   6  10     8.384     0.646
   6   7  10    22.095     1.093
   6   8  10     1.539     0.421
   6   9  10     4.438     0.493
   6   0  11     7.282     0.617
   6   1  11    28.991     1.356
   6   2  11     4.197     0.590
   7   2   0    69.938     1.271
   7   3   0    13.377     0.612
   7   4   0     3.730     0.495
   7   5   0    51.458     1.133
   7   6   0    20.659     0.778
   7   7   0     2.368     0.346
   7   8   0    33.929     0.968
   7   9   0    42.028     1.093
   7  10   0    95.930     1.714
   7  11   0    32.029     1.028
   7  12   0    23.772     0.925
   7  13   0     0.079     0.343
   7  14   0    17.045     0.872
   7  15   0    14.810     0.867
   7  16   0     2.432     0.426
   7  17   0    11.252     0.836
   7  18   0     1.204     0.405
   7  19   0     3.034     0.458
   7  20   0    24.314     1.086
   7  21   0    17.458     1.003
   7  22   0     1.404     0.432
   7   0   1   214.230     2.640
   7   1   1    55.198     1.117
   7   2   1    15.563     0.668
   7   3   1    40.585     0.968
   7   4   1    68.446     1.276
   7   5   1    71.331     1.334
   7   6   1    38.990     1.004
   7   7   1    22.336     0.812
   7   8   1     1.115     0.335
   7   9   1    98.003     1.711
   7  10   1    18.625     0.829
   7  11   1    17.784     0.843
   7  12   1     0.498     0.323
   7  13   1    36.148     1.134
   7  14   1    17.672     0.935
   7  15   1    10.494     0.774
   7  16   1    16.947     0.943
   7  17   1    35.146     1.234
   7  18   1    41.863     1.345
   7  19   1    25.732     1.135
   7  20   1    10.934     0.879
   7  21   1    24.636     1.127
   7  22   1    32.835     1.245
   7   0   2    11.233     0.618
   7   1   2     1.998     0.471
   7   2   2    37.895     0.959
   7   3   2    28.426     0.850
   7   4   2    12.343     0.651
   7   5   2    49.402     1.117
   7   6   2   203.910     2.632
   7   7   2     6.916     0.494
   7   8   2    17.076     0.787
   7   9   2    23.015     0.911
   7  10   2   139.025     2.166
   7  11   2    10.411     0.647
   7  12   2    56.974     1.387
   7  13   2     5.148     0.507
   7  14   2     5.627     0.486
   7  15   2    19.536     0.933
   7  16   2    14.816     0.905
   7  17   2     6.011     0.576
   7  18   2    10.965     0.852
   7  19   2     1.619     0.425
   7  20   2     1.842     0.435
   7  21   2     0.955     0.398
   7   0   3     3.675     0.521
   7   1   3   115.351     1.801
   7   2   3    29.456     0.902
   7   3   3    17.519     0.758
   7   4   3    23.970     0.844
   7   5   3   100.320     1.685
   7   6   3    43.273     1.096
   7   7   3    11.734     0.688
   7   8   3    36.570     1.057
   7   9   3     5.548     0.499
   7  10   3     5.847     0.499
   7  11   3     5.811     0.582
   7  12   3    14.531     0.820
   7  13   3    20.849     0.960
   7  14   3    41.558     1.291
   7  15   3    15.947     0.911
   7  16   3    23.987     1.108
   7  17   3    31.686     1.215
   7  18   3     7.720     0.627
   7  19   3    20.634     1.064
   7  20   3    12.351     0.896
   7  21   3     8.653     0.730
   7   0   4     2.554     0.368
   7   1   4    64.722     1.343
   7   2   4    11.660     0.698
   7   3   4    22.831     0.867
   7   4   4    55.665     1.262
   7   5   4    50.647     1.237
   7   6   4    47.402     1.195
   7   7   4     4.407     0.432
   7   8   4     8.927     0.626
   7   9   4    16.112     0.835
   7  10   4    11.522     0.763
   7  11   4    13.662     0.835
   7  12   4    26.577     1.054
   7  13   4    38.422     1.273
   7  14   4    11.518     0.846
   7  15   4    37.294     1.277
   7  16   4    34.603     1.229
   7  17   4    22.610     1.055
   7  18   4    15.713     0.962
   7  19   4    25.014     1.156
   7  20   4     1.891     0.429
   7   0   5     2.933     0.392
   7   1   5    21.513     0.874
   7   2   5    21.166     0.855
   7   3   5     7.066     0.599
   7   4   5    30.645     1.023
   7   5   5    31.831     1.038
   7   6   5    26.615     0.984
   7   7   5    43.828     1.232
   7   8   5    61.085     1.455
   7   9   5     4.706     0.455
   7  10   5    43.123     1.273
   7  11   5    11.727     0.827
   7  12   5    27.459     1.115
   7  13   5     4.471     0.477
   7  14   5    51.892     1.460
   7  15   5     3.071     0.455
   7  16   5    11.870     0.808
   7  17   5     3.929     0.483
   7  18   5     5.529     0.518
   7  19   5     5.346     0.509
   7   0   6    14.033     0.797
   7   1   6    59.812     1.422
   7   2   6    75.195     1.595
   7   3   6    56.206     1.402
   7   4   6    53.435     1.351
   7   5   6     6.326     0.527
   7   6   6    11.815     0.811
   7   7   6    32.803     1.149
   7   8   6    27.670     1.080
   7   9   6     8.682     0.697
   7  10   6     7.295     0.673
   7  11   6    24.588     1.052
   7  12   6     6.511     0.592
   7  13   6    13.074     0.893
   7  14   6    10.534     0.758
   7  15   6    17.022     1.001
   7  16   6    18.426     1.021
   7  17   6    14.432     0.961
   7  18   6     6.859     0.609
   7   0   7    29.813     1.113
   7   1   7     1.193     0.374
   7   2   7    70.512     1.620
   7   3   7     7.981     0.681
   7   4   7     3.046     0.432
   7   5   7     4.693     0.474
   7   6   7     3.177     0.442
   7   7   7    21.700     1.008
   7   8   7    34.602     1.202
   7   9   7    16.721     0.978
   7  10   7    36.044     1.267
   7  11   7    12.563     0.804
   7  12   7    20.011     1.071
   7  13   7     7.438     0.624
   7  14   7    28.304     1.211
   7  15   7     6.695     0.541
   7  16   7     0.182     0.796
   7   0   8     1.158     0.398
   7   1   8    31.415     1.192
   7   2   8    69.359     1.651
   7   3   8    17.755     0.957
   7   4   8     6.177     0.584
   7   5   8    10.224     0.821
   7   6   8     4.377     0.483
   7   7   8     8.441     0.716
   7   8   8     3.810     0.517
   7   9   8    22.878     1.085
   7  10   8     2.052     0.438
   7  11   8    26.898     1.152
   7  12   8    16.740     0.978
   7  13   8    20.514     1.029
   7  14   8     2.374     0.434
   7   0   9     4.535     0.500
   7   1   9     4.343     0.491
   7   2   9    10.161     0.775
   7   3   9     7.012     0.580
   7   4   9    18.793     1.021
   7   5   9    10.437     0.683
   7   6   9    10.066     0.718
   7   7   9     3.721     0.479
   7   8   9    56.160     1.562
   7   9   9     0.674     0.855
   7  10   9    30.941     1.198
   7  11   9     6.439     0.530
   7   0  10     0.213     0.414
   7   1  10    30.430     1.210
   7   2  10     3.838     0.473
   7   3  10    64.561     1.647
   7   4  10     7.283     0.553
   7   5  10     0.701     0.410
   7   6  10     9.486     0.861
   8   0   0     2.296     0.357
   8   1   0     1.674     0.345
   8   2   0    48.291     1.134
   8   3   0     0.139     0.321
   8   4   0     2.317     0.364
   8   5   0    10.363     0.665
   8   6   0   128.312     2.028
   8   7   0    17.572     0.833
   8   8   0     5.588     0.502
   8   9   0    62.666     1.437
   8  10   0    17.410     0.863
   8  11   0    22.270     0.940
   8  12   0     9.962     0.647
   8  13   0    57.113     1.464
   8  14   0     1.247     0.393
   8  15   0     1.750     0.414
   8  16   0    35.406     1.235
   8  17   0    16.629     0.955
   8  18   0     0.514     0.392
   8  19   0     9.067     0.657
   8  20   0     0.770     0.397
   8   0   1    30.793     0.960
   8   1   1    30.396     0.938
   8   2   1    94.146     1.640
   8   3   1     1.206     0.339
   8   4   1    31.898     0.977
   8   5   1    65.261     1.380
   8   6   1     2.491     0.386
   8   7   1    21.347     0.872
   8   8   1     4.990     0.484
   8   9   1    59.677     1.429
   8  10   1     4.242     0.430
   8  11   1     3.884     0.437
   8  12   1    20.737     0.964
   8  13   1    25.657     1.043
   8  14   1     4.443     0.479
   8  15   1    18.144     0.959
   8  16   1     8.528     0.739
   8  17   1    17.972     1.011
   8  18   1     3.841     0.482
   8  19   1    39.674     1.332
   8  20   1    36.618     1.273
   8   0   2     0.545     0.325
   8   1   2     3.055     0.383
   8   2   2    31.570     0.978
   8   3   2    11.155     0.705
   8   4   2   126.546     2.015
   8   5   2     3.007     0.395
   8   6   2    48.828     1.229
   8   7   2    12.213     0.790
   8   8   2   178.397     2.574
   8   9   2     1.924     0.371
   8  10   2    22.629     0.959
   8  11   2     4.106     0.448
   8  12   2    27.118     1.058
   8  13   2     2.683     0.430
   8  14   2    26.597     1.088
   8  15   2     3.621     0.463
   8  16   2    20.770     1.031
   8  17   2     5.267     0.519
   8  18   2     2.859     0.457
   8  19   2     2.951     0.456
   8  20   2    10.191     0.748
   8   0   3    81.025     1.569
   8   1   3     1.864     0.368
   8   2   3    14.393     0.774
   8   3   3    34.185     1.032
   8   4   3    41.134     1.145
   8   5   3    22.486     0.915
   8   6   3    35.051     1.076
   8   7   3    34.201     1.086
   8   8   3    20.797     0.895
   8   9   3    58.416     1.435
   8  10   3    69.408     1.587
   8  11   3    10.738     0.795
   8  12   3    61.740     1.546
   8  13   3    36.688     1.228
   8  14   3    15.591     0.908
   8  15   3     0.527     0.383
   8  16   3    12.007     0.876
   8  17   3     3.166     0.465
   8  18   3     5.843     0.523
   8  19   3     1.813     0.426
   8   0   4     5.392     0.481
   8   1   4    13.780     0.746
   8   2   4    15.998     0.808
   8   3   4    44.912     1.210
   8   4   4    23.270     0.937
   8   5   4    11.825     0.729
   8   6   4     6.756     0.507
   8   7   4    40.259     1.211
   8   8   4    63.874     1.523
   8   9   4    24.037     0.996
   8  10   4    30.134     1.120
   8  11   4    53.210     1.442
   8  12   4    15.339     0.896
   8  13   4    24.157     1.066
   8  14   4    24.471     1.107
   8  15   4    38.065     1.305
   8  16   4     8.232     0.580
   8  17   4     7.005     0.610
   8  18   4     0.544     0.387
   8   0   5     0.652     0.343
   8   1   5    22.918     0.931
   8   2   5    17.831     0.866
   8   3   5    14.555     0.826
   8   4   5    16.739     0.862
   8   5   5    33.231     1.137
   8   6   5    45.614     1.299
   8   7   5     8.138     0.679
   8   8   5    36.225     1.221
   8   9   5    13.197     0.871
   8  10   5    48.559     1.411
   8  11   5     1.078     0.393
   8  12   5    52.736     1.509
   8  13   5     1.201     0.411
   8  14   5     5.367     0.520
   8  15   5    13.765     0.918
   8  16   5    10.022     0.860
   8  17   5     5.300     0.511
   8   0   6    83.851     1.769
   8   1   6     1.847     0.398
   8   2   6     8.237     0.678
   8   3   6    12.055     0.830
   8   4   6    36.198     1.197
   8   5   6    21.945     0.997
   8   6   6    16.089     0.915
   8   7   6    27.763     1.152
   8   8   6    12.742     0.910
   8   9   6     5.170     0.503
   8  10   6     0.135     0.393
   8  11   6    28.964     1.193
   8  12   6     0.026     0.375
   8  13   6     9.614     0.717
   8  14   6     3.231     0.467
   8  15   6    14.497     0.963
   8  16   6    18.370     1.013
   8   0   7    53.704     1.496
   8   1   7     4.908     0.491
   8   2   7     1.285     0.402
   8   3   7    11.105     0.748
   8   4   7    58.803     1.536
   8   5   7     0.994     0.400
   8   6   7     3.050     0.453
   8   7   7    35.162     1.259
   8   8   7    29.833     1.190
   8   9   7    10.150     0.770
   8  10   7     0.126     0.421
   8  11   7    27.791     1.195
   8  12   7    32.123     1.212
   8  13   7     8.503     0.642
   8  14   7    12.923     0.913
   8   0   8    46.563     1.421
   8   1   8    43.979     1.390
   8   2   8     9.800     0.748
   8   3   8    34.613     1.280
   8   4   8    11.515     0.798
   8   5   8    13.869     0.954
   8   6   8     8.731     0.618
   8   7   8    13.111     0.922
   8   8   8     3.042     0.460
   8   9   8     3.839     0.483
   8  10   8     4.373     0.487
   8  11   8    22.009     1.070
   8   0   9     6.131     0.532
   8   1   9     5.702     0.526
   8   2   9    19.572     1.063
   8   3   9    16.812     0.993
   8   4   9    17.571     1.024
   8   5   9     0.884     0.424
   8   6   9    43.349     1.343
   8   7   9    22.747     1.083
   8   8   9     7.367     0.632
   9   1   0     0.561     0.324
   9   2   0    23.628     0.929
   9   4   0   174.429     2.566
   9   5   0     0.570     0.670
   9   6   0     6.562     0.534
   9   7   0     7.094     0.627
   9   8   0   124.022     2.159
   9   9   0     4.310     0.458
   9  10   0    15.480     0.894
   9  11   0    24.637     1.050
   9  12   0     5.442     0.504
   9  13   0     6.659     0.538
   9  14   0    41.496     1.347
   9  15   0    36.834     1.282
   9  16   0     0.109     0.395
   9  18   0     4.582     0.493
   9   0   1     7.308     0.530
   9   1   1    11.696     0.741
   9   2   1    26.084     0.967
   9   3   1    12.784     0.782
   9   4   1     5.769     0.506
   9   5   1     6.855     0.603
   9   6   1    19.326     0.898
   9   7   1    38.739     1.216
   9   8   1    14.069     0.824
   9   9   1    38.185     1.194
   9  10   1     4.252     0.468
   9  11   1    34.070     1.200
   9  12   1     3.222     0.449
   9  13   1    58.699     1.557
   9  14   1    13.421     0.922
   9  15   1     4.138     0.487
   9  16   1    10.085     0.832
   9  17   1    21.574     1.065
   9  18   1     1.371     0.413
   9   0   2   110.440     1.957
   9   1   2     1.785     0.363
   9   2   2     4.505     0.433
   9   3   2     2.760     0.396
   9   4   2    90.821     1.780
   9   5   2    32.140     1.081
   9   6   2     9.858     0.772
   9   7   2    11.005     0.807
   9   8   2     6.202     0.500
   9   9   2    62.911     1.537
   9  10   2     9.907     0.764
   9  11   2    15.638     0.914
   9  12   2    19.131     1.003
   9  13   2    34.828     1.263
   9  14   2    10.448     0.781
   9  15   2    10.726     0.831
   9  16   2    18.055     1.012
   9  17   2     3.620     0.469
   9  18   2    12.873     0.875
   9   0   3    19.848     0.887
   9   1   3    20.277     0.915
   9   2   3    72.518     1.583
   9   3   3     0.065     0.332
   9   4   3     7.664     0.566
   9   5   3    21.310     0.975
   9   6   3    27.444     1.067
   9   7   3    16.261     0.897
   9   8   3    84.870     1.812
   9   9   3     9.836     0.813
   9  10   3    48.996     1.409
   9  11   3    15.441     0.930
   9  12   3    43.788     1.361
   9  13   3     3.876     0.483
   9  14   3    30.180     1.217
   9  15   3     3.527     0.472
   9  16   3     2.124     0.433
   9  17   3     4.823     0.499
   9   0   4    65.622     1.560
   9   1   4     1.558     0.390
   9   2   4     3.398     0.432
   9   3   4    15.063     0.851
   9   4   4    41.853     1.256
   9   5   4    18.959     0.945
   9   6   4    28.727     1.076
   9   7   4    13.041     0.866
   9   8   4    34.570     1.208
   9   9   4    20.240     0.980
   9  10   4    48.358     1.438
   9  11   4     0.570     0.386
   9  12   4    35.207     1.247
   9  13   4     1.295     0.418
   9  14   4     4.409     0.495
   9  15   4     5.254     0.516
   9  16   4     4.668     0.499
   9   0   5    68.283     1.650
   9   1   5    12.059     0.844
   9   2   5    43.020     1.309
   9   3   5    39.660     1.271
   9   4   5    13.059     0.870
   9   5   5     1.129     0.390
   9   6   5    17.576     0.973
   9   7   5    36.166     1.242
   9   8   5    20.336     1.002
   9   9   5     1.586     0.421
   9  10   5     2.867     0.455
   9  11   5    20.484     1.043
   9  12   5    11.509     0.862
   9  13   5     7.678     0.637
   9  14   5     2.763     0.456
   9  15   5     9.324     0.747
   9   0   6     0.869     0.387
   9   1   6     2.821     0.445
   9   2   6    15.806     0.940
   9   3   6    29.884     1.155
   9   4   6     9.047     0.732
   9   5   6    10.683     0.845
   9   6   6     9.961     0.812
   9   7   6    15.775     0.960
   9   8   6     3.147     0.471
   9   9   6    23.451     1.091
   9  10   6     5.149     0.566
   9  11   6    20.805     1.052
   9  12   6     9.072     0.728
   9  13   6     7.732     0.563
   9   0   7    18.074     1.009
   9   1   7     5.972     0.588
   9   2   7    20.422     1.064
   9   3   7     5.428     0.517
   9   4   7    19.365     1.055
   9   5   7    19.828     1.050
   9   6   7    62.329     1.632
   9   7   7     1.333     0.415
   9   8   7    20.807     1.024
   9   9   7    11.348     0.907
   9  10   7    13.225     0.905
   9  11   7     1.388     0.416
   9   0   8     4.326     0.493
   9   1   8     2.315     0.441
   9   2   8     2.910     0.457
   9   3   8    13.449     0.927
   9   4   8    23.269     1.118
   9   5   8     6.859     0.607
   9   6   8    18.665     0.990
   9   7   8    28.951     1.186
   9   8   8     5.000     0.502
  10   0   0   269.495     3.531
  10   1   0     0.073     0.730
  10   2   0    10.151     0.777
  10   3   0     1.723     0.397
  10   4   0   117.766     2.132
  10   5   0    10.365     0.799
  10   6   0    24.206     1.041
  10   7   0     1.307     0.397
  10   8   0     3.038     0.449
  10   9   0    18.303     0.976
  10  10   0     3.663     0.469
  10  11   0     2.416     0.441
  10  12   0     1.904     0.433
  10  14   0     7.367     0.697
  10  15   0     1.575     0.419
  10  16   0     0.153     0.375
  10   0   1     0.733     0.366
  10   1   1    40.469     1.249
  10   2   1    13.064     0.790
  10   3   1    18.890     0.930
  10   4   1    12.954     0.869
  10   5   1     5.737     0.552
  10   6   1    40.979     1.282
  10   7   1    11.700     0.770
  10   8   1     2.152     0.426
  10   9   1     9.948     0.828
  10  10   1    10.919     0.842
  10  11   1    48.051     1.443
  10  12   1     8.846     0.755
  10  13   1     9.221     0.667
  10  14   1     8.753     0.749
  10  15   1    16.770     0.980
  10  16   1     2.330     0.435
  10   0   2    51.147     1.410
  10   1   2     3.631     0.450
  10   2   2    50.120     1.420
  10   3   2    14.248     0.863
  10   4   2    18.605     0.931
  10   5   2     5.287     0.495
  10   6   2     2.667     0.436
  10   7   2    36.595     1.235
  10   8   2     7.320     0.692
  10   9   2     2.672     0.445
  10  10   2    32.294     1.237
  10  11   2    44.114     1.405
  10  12   2     2.310     0.446
  10  13   2     0.954     0.403
  10  14   2    34.402     1.256
  10  15   2    33.042     1.238
  10   0   3     7.505     0.688
  10   1   3     0.714     0.376
  10   2   3    14.976     0.879
  10   3   3     5.046     0.492
  10   4   3    15.445     0.900
  10   5   3     8.166     0.624
  10   6   3    57.137     1.513
  10   7   3     2.401     0.434
  10   9   3    10.733     0.852
  10  10   3    22.819     1.113
  10  11   3     1.801     0.426
  10  12   3    21.752     1.052
  10  13   3    27.159     1.171
  10  14   3     2.497     0.446
  10  15   3     2.460     0.439
  10   0   4     3.171     0.452
  10   1   4     8.699     0.711
  10   2   4    14.640     0.879
  10   3   4    17.775     0.991
  10   4   4    15.451     0.919
  10   5   4    32.392     1.218
  10   6   4     3.876     0.474
  10   7   4    38.800     1.341
  10   8   4    21.953     1.074
  10   9   4    15.547     0.947
  10  10   4    22.712     1.099
  10  11   4    20.977     1.062
  10  12   4     1.526     0.417
  10  13   4     0.945     0.399
  10  14   4    19.664     1.025
  10   0   5    17.873     0.983
  10   1   5    32.361     1.212
  10   2   5    30.098     1.216
  10   3   5     1.265     0.413
  10   4   5    23.020     1.072
  10   5   5    56.774     1.577
  10   6   5    19.709     1.042
  10   7   5     2.183     0.445
  10   8   5    12.483     0.887
  10   9   5    41.254     1.381
  10  10   5    13.050     0.932
  10  11   5     2.150     0.438
  10  12   5     9.284     0.763
  10   0   6     0.171     0.402
  10   1   6     9.247     0.630
  10   2   6    11.627     0.910
  10   3   6     0.439     0.387
  10   4   6     1.972     0.433
  10   5   6     3.934     0.487
  10   6   6     3.153     0.464
  10   7   6    13.007     0.832
  10   8   6     6.244     0.534
  10   9   6     6.631     0.598
  10  10   6    15.542     0.941
  10   0   7     3.381     0.472
  10   1   7     5.776     0.523
  10   2   7    85.050     1.912
  10   3   7     3.662     0.473
  10   4   7     9.206     0.757
  10   5   7     4.614     0.492
  10   6   7    36.843     1.285
  10   7   7    11.670     0.896
  11   1   0     0.772     0.386
  11   2   0   183.708     2.870
  11   3   0    10.413     0.772
  11   4   0     0.654     0.389
  11   5   0     0.377     0.390
  11   6   0    19.738     1.023
  11   7   0    58.616     1.572
  11   8   0     0.890     0.405
  11   9   0     1.706     0.425
  11  10   0    10.395     0.787
  11  11   0    55.666     1.529
  11  12   0     4.468     0.493
  11  13   0     9.709     0.782
  11   0   1     0.307     0.371
  11   1   1    30.505     1.188
  11   2   1     1.583     0.417
  11   3   1     8.609     0.731
  11   4   1     8.092     0.625
  11   5   1    26.228     1.134
  11   6   1     1.640     0.426
  11   7   1    28.546     1.147
  11   8   1    15.105     0.954
  11   9   1     2.112     0.440
  11  10   1     7.990     0.638
  11  11   1     5.217     0.511
  11  12   1     0.858     0.398
  11  13   1    13.506     0.797
  11   0   2     7.546     0.690
  11   1   2    10.126     0.826
  11   2   2    14.577     0.962
  11   3   2    20.982     1.067
  11   4   2    12.962     0.875
  11   5   2     1.487     0.422
  11   6   2     1.943     0.433
  11   7   2    19.922     1.038
  11   8   2     9.429     0.750
  11   9   2     2.276     0.446
  11  10   2     3.205     0.468
  11  11   2    21.759     1.061
  11  12   2     5.996     0.580
  11   0   3    15.981     0.958
  11   1   3    19.504     1.005
  11   2   3     8.743     0.730
  11   3   3     0.608     0.393
  11   4   3    27.781     1.169
  11   5   3    19.278     1.000
  11   6   3    18.303     1.011
  11   7   3    12.630     0.913
  11   8   3    15.417     0.993
  11   9   3     3.147     0.459
  11  10   3     3.718     0.475
  11  11   3    16.359     1.005
  11   0   4     7.017     0.615
  11   1   4    14.604     0.938
  11   2   4    27.823     1.162
  11   3   4    35.558     1.284
  11   4   4     7.470     0.569
  11   5   4     3.274     0.462
  11   6   4    16.552     0.945
  11   7   4     5.102     0.515
  11   8   4     1.416     0.415
  11   9   4    10.964     0.785
  11  10   4     3.391     0.464
  11   0   5     9.016     0.664
  11   1   5    14.559     0.967
  11   2   5    35.175     1.282
  11   3   5    22.766     1.050
  11   4   5     2.428     0.440
  11   5   5     3.085     0.457
  11   6   5    48.348     1.475
  11   7   5    12.233     0.873
  11   8   5     0.263     0.397
  11   0   6    18.265     1.033
  11   1   6     4.796     0.501
  11   2   6     0.922     0.426
  11   3   6    27.904     1.154
  11   4   6     6.999     0.603
  12   0   0     8.969     0.667
  12   1   0    13.895     0.939
  12   2   0     5.372     0.575
  12   3   0    24.785     1.122
  12   4   0     2.328     0.440
  12   5   0    17.585     0.984
  12   6   0    20.444     1.031
  12   7   0     8.050     0.570
  12   8   0     0.594     0.395
  12   9   0    35.866     1.279
  12   0   1    12.354     0.884
  12   1   1     5.121     0.512
  12   2   1     3.807     0.484
  12   3   1    22.420     1.099
  12   4   1     8.846     0.688
  12   5   1    34.475     1.284
  12   6   1     0.517     0.391
  12   7   1    22.753     1.098
  12   8   1    10.072     0.848
  12   0   2     0.987     0.404
  12   1   2     5.135     0.511
  12   2   2    47.455     1.479
  12   3   2     1.523     0.417
  12   4   2     8.647     0.747
  12   5   2     7.736     0.622
  12   6   2    15.102     0.975
  12   7   2     4.890     0.501
  12   8   2     5.311     0.573
  12   0   3     1.065     0.833
  12   1   3    18.011     0.967
  12   2   3     0.819     0.402
  12   3   3    20.748     1.055
  12   4   3     1.854     0.423
  12   5   3     7.030     0.695
  12   6   3     0.892     0.398
  12   0   4    14.183     0.924
  12   1   4    44.013     1.387
  12   2   4     9.060     0.830
  12   3   4    17.120     0.987
}
}
REVERT
;
loop_
_symmetry_equiv_pos_as_xyz
'+x, +y, +z'
'-x+1/2, -y, +z+1/2'
'+x+1/2, -y+1/2, -z'
'-x, +y+1/2, -z+1/2'
loop_
_atom_site_label
_atom_site_fract_x
_atom_site_fract_y
_atom_site_fract_z
_atom_site_U_iso_or_equiv
_atom_site_adp_type
_atom_site_occupancy
_atom_site_disorder_group
N1 0.64716(5) 0.13753(2) 0.18304(5) 0.00529(9) Uani 1 0
H1 0.7001(14) 0.0628(7) 0.1998(16) 0.033(5) Uani 1 0
H2 0.7748(13) 0.1893(6) 0.2098(16) 0.025(5) Uani 1 0
H3 0.5825(12) 0.1492(6) 0.0205(15) 0.020(4) Uani 1 0
C1 0.46645(5) 0.16111(2) 0.35431(6) 0.00457(9) Uani 1 0
H4 0.4311(11) 0.2475(5) 0.3390(13) 0.027(4) Uani 1 0
C2 0.25989(6) 0.09064(3) 0.30336(6) 0.00704(10) Uani 1 0
H5 0.1923(12) 0.1106(6) 0.1328(14) 0.030(5) Uani 1 0
H6 0.1287(12) 0.1046(6) 0.4264(14) 0.032(5) Uani 1 0
H7 0.3054(10) 0.0061(5) 0.3087(15) 0.027(5) Uani 1 0
C3 0.55417(5) 0.14076(2) 0.59985(6) 0.00439(9) Uani 1 0
O1 0.72662(4) 0.083813(19) 0.62434(5) 0.00649(8) Uani 1 0
O2 0.44095(4) 0.184000(19) 0.76113(5) 0.00634(8) Uani 1 0
loop_
_atom_site_aniso_label
_atom_site_aniso_U_11
_atom_site_aniso_U_22
_atom_site_aniso_U_33
_atom_site_aniso_U_23
_atom_site_aniso_U_13
_atom_site_aniso_U_12
N1 0.00557(8) 0.00591(8) 0.00439(10) -0.00007(7) 0.00047(7) 0.00011(7)
H1 0.036(6) 0.056(5) 0.008(5) -0.007(5) 0.003(5) -0.017(5)
H2 0.027(4) 0.021(4) 0.026(6) 0.001(4) 0.000(5) 0.007(4)
H3 0.014(4) 0.013(4) 0.032(6) -0.007(4) 0.006(4) -0.004(3)
C1 0.00529(9) 0.00480(8) 0.00360(10) 0.00009(7) -0.00035(8) 0.00038(7)
H4 0.029(4) 0.024(4) 0.027(5) 0.008(4) -0.003(4) 0.004(4)
C2 0.00592(10) 0.00899(10) 0.00620(12) -0.00039(9) -0.00061(9) -0.00140(9)
H5 0.026(5) 0.050(5) 0.015(5) 0.006(4) -0.003(4) -0.015(4)
H6 0.027(4) 0.039(5) 0.030(6) 0.001(4) 0.000(5) -0.011(4)
H7 0.024(5) 0.022(3) 0.035(6) 0.002(4) 0.002(4) -0.011(4)
C3 0.00492(8) 0.00457(8) 0.00369(10) -0.00007(7) -0.00020(8) 0.00044(8)
O1 0.00701(8) 0.00721(7) 0.00525(9) 0.00046(7) -0.00062(7) 0.00229(7)
O2 0.00746(8) 0.00769(7) 0.00387(9) -0.00038(6) 0.00026(7) 0.00221(7)
loop_
_atom_type_symbol
_atom_type_description
_atom_type_scat_dispersion_real
_atom_type_scat_dispersion_imag
_atom_type_scat_source
C C 0 0 'Hirshfeld partitioning of a quantum chemical wavefunction from ELMOs.'
H H 0 0 'Hirshfeld partitioning of a quantum chemical wavefunction from ELMOs.'
N N 0 0 'Hirshfeld partitioning of a quantum chemical wavefunction from ELMOs.'
O O 0 0 'Hirshfeld partitioning of a quantum chemical wavefunction from ELMOs.'
loop_
_geom_angle_atom_site_label_1
_geom_angle_atom_site_label_2
_geom_angle_atom_site_label_3
_geom_angle
_geom_angle_publ_flag
O1 C3 O2 125.82(3) yes
O1 C3 C1 118.33(3) yes
O2 C3 C1 115.86(3) yes
N1 C1 C2 109.77(3) yes
N1 C1 C3 110.03(3) yes
N1 C1 H4 105.9(4) yes
C1 N1 H1 110.4(5) yes
C1 N1 H2 108.6(5) yes
C1 N1 H3 108.4(4) yes
C2 C1 C3 111.03(3) yes
C1 C2 H5 110.0(4) yes
C1 C2 H6 111.3(4) yes
C1 C2 H7 109.9(3) yes
C2 C1 H4 112.5(4) yes
C3 C1 H4 107.5(4) yes
H1 N1 H2 109.7(6) yes
H1 N1 H3 110.0(6) yes
H2 N1 H3 109.7(6) yes
H5 C2 H6 107.5(5) yes
H5 C2 H7 109.5(6) yes
H6 C2 H7 108.6(5) yes
loop_
_geom_bond_atom_site_label_1
_geom_bond_atom_site_label_2
_geom_bond_distance
_geom_bond_publ_flag
O1 C3 1.2460(4) yes
O2 C3 1.2668(4) yes
N1 C1 1.4885(4) yes
N1 H1 0.974(9) yes
N1 H2 1.000(8) yes
N1 H3 1.027(8) yes
C1 C2 1.5274(4) yes
C1 C3 1.5351(5) yes
C1 H4 1.083(6) yes
C2 H5 1.094(8) yes
C2 H6 1.069(8) yes
C2 H7 1.071(7) yes
