#------------------------------------------------------------------------------
#$Date: 2016-02-18 14:25:00 +0200 (Thu, 18 Feb 2016) $
#$Revision: 176728 $
#$URL: svn://www.crystallography.net/cod/cif/8/10/33/8103362.cif $
#------------------------------------------------------------------------------
#
# This file is available in the Crystallography Open Database (COD),
# http://www.crystallography.net/
#
# All data on this site have been placed in the public domain by the
# contributors.
#
data_8103362
loop_
_publ_author_name
'Sergey Belyakov'
'Daina Jansone'
'Edgars Abele'
'Mendel Fleisher'
_publ_section_title
;
 Crystal structure of
 4-[2-(2-chlorophenyl)vinyl]-6,6-dimethyl-2-oxo-1,2,5,6-tetrahydropyridine-3-carbonitrile,
 C16H15ClN2O
;
_journal_issue                   2
_journal_name_full
'Zeitschrift f\"ur Kristallographie - New Crystal Structures'
_journal_page_first              175
_journal_volume                  227
_journal_year                    2012
_chemical_formula_moiety         'C16 H15 Cl N2 O'
_chemical_formula_sum            'C16 H15 Cl N2 O'
_chemical_formula_weight         286.75
_chemical_name_systematic
; 
4-[2-(2-chlorophenyl)-vinyl]-6,6-dimethyl-2-oxo-1,2,5,6-tetrahydropyridine
-3-carbonitrile  
;
_space_group_IT_number           2
_symmetry_cell_setting           triclinic
_symmetry_space_group_name_Hall  '-P 1'
_symmetry_space_group_name_H-M   'P -1'
_atom_sites_solution_hydrogens   mixed
_atom_sites_solution_primary     direct
_atom_sites_solution_secondary   difmap
_audit_creation_date             'October 3, 2011'
_audit_creation_method           shelxl
_cell_angle_alpha                102.272(3)
_cell_angle_beta                 108.689(3)
_cell_angle_gamma                96.463(3)
_cell_formula_units_Z            2
_cell_length_a                   7.6036(4)
_cell_length_b                   10.1520(7)
_cell_length_c                   10.4790(8)
_cell_measurement_reflns_used    2013
_cell_measurement_temperature    293(2)
_cell_measurement_theta_max      25.0
_cell_measurement_theta_min      0.9
_cell_volume                     734.33(9)
_computing_cell_refinement
'Denzo and Scalepak (Otwinowski & Minor, 1997)'
_computing_data_collection       'Bruker-Nonius KappaCCD'
_computing_data_reduction
'Denzo and Scalepak (Otwinowski & Minor, 1997)'
_computing_molecular_graphics    'ORTEP-3 (Farrugia, 1997)'
_computing_publication_material  'SHELXL-97 (Sheldrick, 2008)'
_computing_structure_refinement  'SHELXL-97 (Sheldrick, 2008)'
_computing_structure_solution    'SHELXS-97 (Sheldrick, 2008)'
_diffrn_ambient_temperature      293(2)
_diffrn_measured_fraction_theta_full 0.98
_diffrn_measured_fraction_theta_max 0.98
_diffrn_measurement_device_type  'Bruker-Nonius KappaCCD'
_diffrn_measurement_method       '\f and \w scan'
_diffrn_radiation_monochromator  graphite
_diffrn_radiation_source         'fine-focus sealed tube'
_diffrn_radiation_type           MoK\a
_diffrn_radiation_wavelength     0.71073
_diffrn_reflns_av_R_equivalents  0.0431
_diffrn_reflns_av_sigmaI/netI    0.0739
_diffrn_reflns_limit_h_max       9
_diffrn_reflns_limit_h_min       -9
_diffrn_reflns_limit_k_max       12
_diffrn_reflns_limit_k_min       -13
_diffrn_reflns_limit_l_max       13
_diffrn_reflns_limit_l_min       -13
_diffrn_reflns_number            5367
_diffrn_reflns_theta_full        27.5
_diffrn_reflns_theta_max         27.5
_diffrn_reflns_theta_min         2.0
_exptl_absorpt_coefficient_mu    0.257
_exptl_absorpt_correction_type   none
_exptl_crystal_colour            'Colourless '
_exptl_crystal_density_diffrn    1.297
_exptl_crystal_density_method    'not measured'
_exptl_crystal_description       Prism
_exptl_crystal_F_000             300
_exptl_crystal_size_max          0.32
_exptl_crystal_size_mid          0.21
_exptl_crystal_size_min          0.19
_refine_diff_density_max         0.313
_refine_diff_density_min         -0.199
_refine_diff_density_rms         0.038
_refine_ls_extinction_method     none
_refine_ls_goodness_of_fit_ref   0.987
_refine_ls_hydrogen_treatment    mixed
_refine_ls_matrix_type           full
_refine_ls_number_parameters     185
_refine_ls_number_reflns         3325
_refine_ls_number_restraints     0
_refine_ls_restrained_S_all      0.987
_refine_ls_R_factor_all          0.1194
_refine_ls_R_factor_gt           0.0604
_refine_ls_shift/su_max          0.000
_refine_ls_shift/su_mean         0.000
_refine_ls_structure_factor_coef Fsqd
_refine_ls_weighting_details
'calc w=1/[\s^2^(Fo^2^)+(0.0806P)^2^+0.1129P] where P=(Fo^2^+2Fc^2^)/3'
_refine_ls_weighting_scheme      calc
_refine_ls_wR_factor_gt          0.1451
_refine_ls_wR_factor_ref         0.1760
_reflns_d_resolution_high        0.7684
_reflns_number_gt                1915
_reflns_number_total             3325
_reflns_threshold_expression     >2sigma(I)
_cod_data_source_file            1267-3719.cff
_cod_data_source_block           D518
_cod_original_cell_volume        734.33(8)
_cod_original_sg_symbol_H-M      'P -1 '
_cod_database_code               8103362
#BEGIN Tags that were not found in dictionaries:
_shelx_title                     ' Compound D-518'
_shelx_refln_list_code           4
_shelx_f_calc_maximum            66.53
_shelx_f_squared_multiplier      1.000
#END Tags that were not found in dictionaries
loop_
_symmetry_equiv_pos_as_xyz
'x, y, z'
'-x, -y, -z'
loop_
_atom_site_label
_atom_site_type_symbol
_atom_site_fract_x
_atom_site_fract_y
_atom_site_fract_z
_atom_site_U_iso_or_equiv
_atom_site_adp_type
_atom_site_occupancy
_atom_site_symmetry_multiplicity
_atom_site_calc_flag
_atom_site_refinement_flags
Cl20 Cl -0.35887(11) 0.19405(9) 0.03464(9) 0.0904(4) Uani 1 1 d .
N1 N 0.3664(3) 0.8243(2) 0.4661(2) 0.0587(6) Uani 1 1 d .
H1 H 0.382(4) 0.903(3) 0.514(3) 0.061(8) Uiso 1 1 d .
O7 O 0.6028(2) 0.88683(17) 0.3910(2) 0.0681(5) Uani 1 1 d .
C12 C 0.2065(3) 0.4435(2) 0.1554(3) 0.0548(6) Uani 1 1 d .
H12 H 0.3000 0.4227 0.1146 0.066 Uiso 1 1 d R
C4 C 0.2605(3) 0.5725(2) 0.2617(3) 0.0503(6) Uani 1 1 d .
C3 C 0.4277(3) 0.6590(2) 0.2951(2) 0.0476(5) Uani 1 1 d .
C2 C 0.4754(3) 0.7995(2) 0.3901(3) 0.0518(6) Uani 1 1 d .
C14 C -0.0223(3) 0.2338(2) -0.0050(2) 0.0531(6) Uani 1 1 d .
C8 C 0.5607(3) 0.6219(2) 0.2299(3) 0.0547(6) Uani 1 1 d .
C5 C 0.1290(3) 0.6182(3) 0.3352(3) 0.0569(7) Uani 1 1 d .
H5A H 0.0404 0.6578 0.2809 0.068 Uiso 1 1 d R
H5B H 0.0575 0.5351 0.3444 0.068 Uiso 1 1 d R
C13 C 0.0390(4) 0.3593(2) 0.1086(3) 0.0566(6) Uani 1 1 d .
H13 H -0.0553 0.3832 0.1499 0.068 Uiso 1 1 d R
N9 N 0.6656(3) 0.5855(3) 0.1788(3) 0.0772(7) Uani 1 1 d .
C16 C -0.2556(5) 0.0300(3) -0.1529(3) 0.0733(8) Uani 1 1 d .
H16 H -0.3777 -0.0263 -0.1769 0.088 Uiso 1 1 d R
C6 C 0.2303(4) 0.7175(2) 0.4789(3) 0.0547(6) Uani 1 1 d .
C19 C 0.0970(4) 0.1903(3) -0.0758(3) 0.0666(7) Uani 1 1 d .
H19 H 0.2275 0.2456 -0.0509 0.080 Uiso 1 1 d R
C10 C 0.0892(4) 0.7862(3) 0.5298(4) 0.0799(9) Uani 1 1 d .
H10A H 0.0116 0.8352 0.4605 0.096 Uiso 1 1 d R
H10B H 0.0024 0.7246 0.5404 0.096 Uiso 1 1 d R
H10C H 0.1573 0.8513 0.6193 0.096 Uiso 1 1 d R
C17 C -0.1360(5) -0.0090(3) -0.2216(3) 0.0848(10) Uani 1 1 d .
H17 H -0.1779 -0.0907 -0.2976 0.102 Uiso 1 1 d R
C15 C -0.1998(4) 0.1498(3) -0.0468(3) 0.0577(7) Uani 1 1 d .
C18 C 0.0425(5) 0.0713(3) -0.1814(3) 0.0818(9) Uani 1 1 d .
H18 H 0.1295 0.0451 -0.2268 0.098 Uiso 1 1 d R
C11 C 0.3378(5) 0.6446(3) 0.5842(3) 0.0806(9) Uani 1 1 d .
H11A H 0.3929 0.7160 0.6842 0.097 Uiso 1 1 d R
H11B H 0.4451 0.6100 0.5590 0.097 Uiso 1 1 d R
H11C H 0.2457 0.5788 0.5916 0.097 Uiso 1 1 d R
loop_
_atom_site_aniso_label
_atom_site_aniso_U_11
_atom_site_aniso_U_22
_atom_site_aniso_U_33
_atom_site_aniso_U_23
_atom_site_aniso_U_13
_atom_site_aniso_U_12
Cl20 0.0651(5) 0.0928(6) 0.1014(7) -0.0017(5) 0.0410(4) -0.0131(4)
N1 0.0678(14) 0.0371(11) 0.0655(14) -0.0023(10) 0.0290(11) 0.0016(10)
O7 0.0622(11) 0.0479(10) 0.0867(13) -0.0008(9) 0.0343(10) -0.0068(8)
C12 0.0527(13) 0.0501(13) 0.0609(15) 0.0041(12) 0.0269(12) 0.0067(11)
C4 0.0483(12) 0.0464(12) 0.0537(14) 0.0044(11) 0.0221(11) 0.0047(10)
C3 0.0463(12) 0.0430(12) 0.0519(13) 0.0057(10) 0.0208(10) 0.0049(9)
C2 0.0506(13) 0.0423(12) 0.0571(15) 0.0037(11) 0.0192(11) 0.0057(10)
C14 0.0592(14) 0.0474(13) 0.0485(14) 0.0047(11) 0.0211(11) 0.0035(11)
C8 0.0483(13) 0.0467(13) 0.0644(16) 0.0061(12) 0.0225(12) 0.0003(10)
C5 0.0516(13) 0.0489(13) 0.0687(16) -0.0001(12) 0.0313(12) 0.0037(11)
C13 0.0584(14) 0.0517(13) 0.0582(15) 0.0035(12) 0.0284(12) 0.0028(11)
N9 0.0572(13) 0.0776(16) 0.0967(19) 0.0048(14) 0.0417(13) 0.0040(12)
C16 0.085(2) 0.0499(15) 0.0641(18) 0.0024(13) 0.0135(15) -0.0059(14)
C6 0.0642(14) 0.0440(12) 0.0575(15) 0.0034(11) 0.0314(12) 0.0076(11)
C19 0.0724(17) 0.0630(16) 0.0624(17) 0.0031(14) 0.0308(14) 0.0108(13)
C10 0.086(2) 0.0645(17) 0.092(2) -0.0070(16) 0.0555(18) 0.0071(15)
C17 0.116(3) 0.0536(17) 0.067(2) -0.0049(15) 0.0237(19) 0.0116(18)
C15 0.0612(14) 0.0516(14) 0.0538(15) 0.0093(12) 0.0180(12) 0.0007(11)
C18 0.105(2) 0.0659(18) 0.074(2) -0.0025(16) 0.0404(18) 0.0250(17)
C11 0.107(2) 0.077(2) 0.0695(19) 0.0228(17) 0.0429(18) 0.0233(18)
loop_
_atom_type_symbol
_atom_type_description
_atom_type_scat_dispersion_real
_atom_type_scat_dispersion_imag
_atom_type_scat_source
C C 0.0033 0.0016 'International Tables Vol C Tables 4.2.6.8 and 6.1.1.4'
H H 0.0000 0.0000 'International Tables Vol C Tables 4.2.6.8 and 6.1.1.4'
Cl Cl 0.1484 0.1585 'International Tables Vol C Tables 4.2.6.8 and 6.1.1.4'
N N 0.0061 0.0033 'International Tables Vol C Tables 4.2.6.8 and 6.1.1.4'
O O 0.0106 0.0060 'International Tables Vol C Tables 4.2.6.8 and 6.1.1.4'
loop_
_geom_angle_atom_site_label_1
_geom_angle_atom_site_label_2
_geom_angle_atom_site_label_3
_geom_angle
C2 N1 C6 124.0(2)
C2 N1 H1 118.1(18)
C6 N1 H1 117.7(18)
C13 C12 C4 125.0(2)
C13 C12 H12 120.0
C4 C12 H12 114.9
C3 C4 C12 121.6(2)
C3 C4 C5 117.5(2)
C12 C4 C5 120.81(19)
C4 C3 C8 120.6(2)
C4 C3 C2 122.5(2)
C8 C3 C2 116.67(19)
O7 C2 N1 123.7(2)
O7 C2 C3 120.6(2)
N1 C2 C3 115.6(2)
C15 C14 C19 116.6(2)
C15 C14 C13 122.3(2)
C19 C14 C13 121.1(2)
N9 C8 C3 176.5(3)
C4 C5 C6 113.4(2)
C4 C5 H5A 110.1
C6 C5 H5A 109.5
C4 C5 H5B 107.8
C6 C5 H5B 109.4
H5A C5 H5B 106.3
C12 C13 C14 125.8(2)
C12 C13 H13 118.8
C14 C13 H13 115.4
C17 C16 C15 120.1(3)
C17 C16 H16 120.5
C15 C16 H16 119.4
N1 C6 C10 108.4(2)
N1 C6 C5 108.1(2)
C10 C6 C5 110.0(2)
N1 C6 C11 108.8(2)
C10 C6 C11 110.1(2)
C5 C6 C11 111.4(2)
C18 C19 C14 121.8(3)
C18 C19 H19 117.2
C14 C19 H19 121.0
C6 C10 H10A 112.6
C6 C10 H10B 111.9
H10A C10 H10B 105.3
C6 C10 H10C 108.5
H10A C10 H10C 110.1
H10B C10 H10C 108.3
C16 C17 C18 119.5(3)
C16 C17 H17 119.4
C18 C17 H17 121.1
C16 C15 C14 121.9(3)
C16 C15 Cl20 117.7(2)
C14 C15 Cl20 120.37(19)
C19 C18 C17 120.1(3)
C19 C18 H18 119.0
C17 C18 H18 120.9
C6 C11 H11A 108.0
C6 C11 H11B 111.2
H11A C11 H11B 109.5
C6 C11 H11C 106.4
H11A C11 H11C 104.1
H11B C11 H11C 117.1
loop_
_geom_bond_atom_site_label_1
_geom_bond_atom_site_label_2
_geom_bond_distance
Cl20 C15 1.736(3)
N1 C2 1.330(3)
N1 C6 1.470(3)
N1 H1 0.82(3)
O7 C2 1.234(3)
C12 C13 1.330(3)
C12 C4 1.446(3)
C12 H12 0.9607
C4 C3 1.357(3)
C4 C5 1.501(3)
C3 C8 1.432(3)
C3 C2 1.485(3)
C14 C15 1.394(3)
C14 C19 1.397(4)
C14 C13 1.456(3)
C8 N9 1.147(3)
C5 C6 1.521(3)
C5 H5A 0.9231
C5 H5B 0.9906
C13 H13 0.9772
C16 C17 1.372(4)
C16 C15 1.379(4)
C16 H16 0.9600
C6 C10 1.516(4)
C6 C11 1.530(4)
C19 C18 1.371(4)
C19 H19 1.0071
C10 H10A 1.0327
C10 H10B 0.9075
C10 H10C 0.9661
C17 C18 1.386(5)
C17 H17 0.9599
C18 H18 0.9600
C11 H11A 1.0620
C11 H11B 1.0103
C11 H11C 0.9461
loop_
_geom_torsion_atom_site_label_1
_geom_torsion_atom_site_label_2
_geom_torsion_atom_site_label_3
_geom_torsion_atom_site_label_4
_geom_torsion
C13 C12 C4 C3 -173.8(3)
C13 C12 C4 C5 3.6(4)
C12 C4 C3 C8 -3.0(4)
C5 C4 C3 C8 179.6(2)
C12 C4 C3 C2 171.9(2)
C5 C4 C3 C2 -5.6(4)
C6 N1 C2 O7 -172.3(3)
C6 N1 C2 C3 11.2(4)
C4 C3 C2 O7 -161.5(2)
C8 C3 C2 O7 13.5(4)
C4 C3 C2 N1 15.2(4)
C8 C3 C2 N1 -169.8(2)
C4 C3 C8 N9 -44(5)
C2 C3 C8 N9 141(4)
C3 C4 C5 C6 -27.1(3)
C12 C4 C5 C6 155.4(2)
C4 C12 C13 C14 175.5(3)
C15 C14 C13 C12 179.1(3)
C19 C14 C13 C12 0.5(4)
C2 N1 C6 C10 -160.9(3)
C2 N1 C6 C5 -41.7(3)
C2 N1 C6 C11 79.4(3)
C4 C5 C6 N1 47.5(3)
C4 C5 C6 C10 165.6(2)
C4 C5 C6 C11 -72.0(3)
C15 C14 C19 C18 0.3(4)
C13 C14 C19 C18 179.0(3)
C15 C16 C17 C18 1.5(5)
C17 C16 C15 C14 -0.6(4)
C17 C16 C15 Cl20 179.4(2)
C19 C14 C15 C16 -0.2(4)
C13 C14 C15 C16 -178.9(3)
C19 C14 C15 Cl20 179.8(2)
C13 C14 C15 Cl20 1.1(4)
C14 C19 C18 C17 0.5(5)
C16 C17 C18 C19 -1.4(5)
loop_
_refln_index_h
_refln_index_k
_refln_index_l
_refln_F_squared_calc
_refln_F_squared_meas
_refln_F_squared_sigma
_refln_observed_status
1 0 0 50.92 45.90 5.80 o
2 0 0 1.64 2.75 0.62 o
3 0 0 581.31 587.76 20.73 o
4 0 0 215.83 205.69 13.19 o
5 0 0 86.95 87.82 3.48 o
6 0 0 0.21 0.56 0.95 o
7 0 0 25.61 26.76 2.27 o
8 0 0 4.96 6.23 1.42 o
9 0 0 3.57 5.77 4.26 o
-9 1 0 19.61 21.18 3.28 o
-8 1 0 22.55 23.19 2.16 o
-7 1 0 4.61 1.49 1.09 o
-6 1 0 13.50 14.91 1.39 o
-5 1 0 84.36 74.32 3.40 o
-4 1 0 122.32 112.50 5.37 o
-3 1 0 9.30 6.95 2.02 o
-2 1 0 960.83 865.60 48.08 o
-1 1 0 2237.14 2179.23 96.70 o
0 1 0 54.80 49.46 3.42 o
1 1 0 3361.24 3027.51 83.58 o
2 1 0 238.67 203.29 9.68 o
3 1 0 34.56 34.45 2.13 o
4 1 0 70.27 68.41 2.58 o
5 1 0 14.27 15.74 1.07 o
6 1 0 29.84 26.36 1.66 o
7 1 0 12.73 9.84 1.18 o
8 1 0 0.34 -0.84 2.85 o
9 1 0 1.96 3.12 2.94 o
-9 2 0 2.41 0.44 2.74 o
-8 2 0 5.25 5.20 1.43 o
-7 2 0 5.14 5.25 1.29 o
-6 2 0 86.61 83.02 5.01 o
-5 2 0 7.12 7.46 1.82 o
-4 2 0 26.41 28.44 1.95 o
-3 2 0 67.55 62.87 3.54 o
-2 2 0 33.66 40.29 2.30 o
-1 2 0 3.15 3.85 1.48 o
0 2 0 1153.24 1105.57 63.90 o
1 2 0 466.35 393.24 34.05 o
2 2 0 1332.96 1229.84 36.18 o
3 2 0 239.77 246.41 9.21 o
4 2 0 127.28 100.86 4.24 o
5 2 0 60.40 58.79 4.52 o
6 2 0 14.35 11.77 2.02 o
7 2 0 106.66 105.83 5.13 o
8 2 0 28.30 31.65 3.01 o
-9 3 0 1.10 2.56 1.93 o
-8 3 0 17.06 19.80 2.60 o
-7 3 0 141.94 138.99 6.95 o
-6 3 0 14.14 13.87 2.00 o
-5 3 0 5.18 5.92 1.44 o
-4 3 0 137.65 148.06 6.33 o
-3 3 0 130.88 151.70 5.94 o
-2 3 0 235.33 230.68 8.79 o
-1 3 0 1361.61 1237.97 45.21 o
0 3 0 237.84 228.80 6.87 o
1 3 0 48.62 51.11 2.25 o
2 3 0 471.56 463.56 13.23 o
3 3 0 727.37 714.78 22.67 o
4 3 0 110.08 116.34 4.84 o
5 3 0 2.85 2.05 0.70 o
6 3 0 150.46 134.57 7.04 o
7 3 0 21.35 20.71 2.60 o
8 3 0 0.56 0.39 4.42 o
-9 4 0 7.60 6.79 2.75 o
-8 4 0 5.86 6.11 2.18 o
-7 4 0 3.33 5.41 1.57 o
-6 4 0 24.87 30.31 2.51 o
-5 4 0 46.98 50.46 2.97 o
-4 4 0 238.08 247.32 10.02 o
-3 4 0 96.61 86.69 4.24 o
-2 4 0 238.38 234.33 10.58 o
-1 4 0 886.33 970.53 31.31 o
0 4 0 439.72 437.94 22.34 o
1 4 0 32.95 36.67 1.52 o
2 4 0 33.54 30.03 2.39 o
3 4 0 238.04 255.72 8.92 o
4 4 0 2.77 1.02 0.69 o
5 4 0 4.73 4.16 3.35 o
6 4 0 10.81 9.28 0.81 o
7 4 0 4.45 6.68 4.62 o
8 4 0 4.92 4.18 2.69 o
-9 5 0 0.19 -2.08 2.11 o
-8 5 0 0.07 5.75 2.21 o
-7 5 0 0.04 -1.36 1.74 o
-6 5 0 29.94 31.57 2.51 o
-5 5 0 280.38 276.18 12.31 o
-4 5 0 161.48 176.67 8.80 o
-3 5 0 57.00 56.48 4.96 o
-2 5 0 24.87 22.67 1.65 o
-1 5 0 58.75 57.64 2.16 o
0 5 0 1753.91 1768.57 72.05 o
1 5 0 144.07 138.24 5.27 o
2 5 0 9.24 10.62 1.04 o
3 5 0 20.92 23.98 1.23 o
4 5 0 16.20 14.12 1.27 o
5 5 0 9.92 10.75 2.10 o
6 5 0 6.78 6.97 0.79 o
7 5 0 15.18 15.57 3.31 o
-8 6 0 0.13 -0.09 2.68 o
-7 6 0 0.27 1.56 1.95 o
-6 6 0 0.02 2.04 1.99 o
-5 6 0 43.56 48.25 3.98 o
-4 6 0 84.46 87.41 4.09 o
-3 6 0 74.35 88.93 3.86 o
-2 6 0 206.28 208.76 6.20 o
-1 6 0 312.64 324.50 22.13 o
0 6 0 37.29 40.61 1.49 o
1 6 0 20.24 15.11 1.16 o
2 6 0 112.60 113.51 3.77 o
3 6 0 39.25 34.79 3.76 o
4 6 0 26.40 29.04 4.35 o
5 6 0 29.78 27.98 1.78 o
6 6 0 9.51 9.79 0.78 o
7 6 0 8.37 10.91 4.94 o
-8 7 0 1.20 6.71 3.80 o
-7 7 0 2.09 1.36 2.77 o
-6 7 0 6.71 13.65 5.57 o
-5 7 0 8.04 8.30 1.77 o
-4 7 0 35.47 45.55 5.82 o
-3 7 0 125.04 120.56 6.16 o
-2 7 0 0.44 0.12 1.31 o
-1 7 0 90.33 95.41 3.54 o
0 7 0 41.09 41.51 2.12 o
1 7 0 98.95 107.33 3.40 o
2 7 0 1210.30 1199.12 63.41 o
3 7 0 0.22 -0.61 1.17 o
4 7 0 6.05 6.78 0.91 o
5 7 0 0.01 1.24 3.61 o
6 7 0 1.41 -3.61 4.06 o
-8 8 0 0.83 4.63 4.30 o
-7 8 0 27.46 27.21 5.68 o
-6 8 0 8.76 5.42 2.89 o
-5 8 0 0.29 3.29 3.15 o
-4 8 0 0.75 -0.52 1.76 o
-3 8 0 14.99 12.88 1.30 o
-2 8 0 0.03 1.63 1.12 o
-1 8 0 0.05 0.17 2.27 o
0 8 0 19.05 20.46 1.56 o
1 8 0 69.14 74.55 2.98 o
2 8 0 59.42 59.70 2.25 o
3 8 0 87.58 87.94 3.84 o
4 8 0 0.36 -1.05 1.05 o
5 8 0 7.13 10.53 2.99 o
-7 9 0 0.16 4.33 4.48 o
-6 9 0 0.48 5.57 3.99 o
-5 9 0 2.45 2.45 2.35 o
-4 9 0 0.38 0.21 3.07 o
-3 9 0 2.48 4.93 1.70 o
-2 9 0 3.86 4.08 1.28 o
-1 9 0 0.04 0.02 1.81 o
0 9 0 4.75 3.87 1.35 o
1 9 0 1.49 3.61 1.93 o
2 9 0 45.10 48.15 2.40 o
3 9 0 4.81 5.02 3.10 o
4 9 0 0.12 -0.33 2.75 o
5 9 0 2.85 -3.66 3.66 o
-7 10 0 1.29 -3.07 3.07 o
-6 10 0 1.37 7.69 4.49 o
-5 10 0 70.12 68.83 5.45 o
-4 10 0 19.92 18.18 4.43 o
-3 10 0 2.23 4.37 1.36 o
-2 10 0 1.23 2.07 1.21 o
-1 10 0 0.84 -0.61 1.98 o
0 10 0 4.96 8.97 1.91 o
1 10 0 24.65 28.14 7.15 o
2 10 0 10.42 10.25 1.50 o
3 10 0 0.00 1.43 1.67 o
4 10 0 9.32 12.05 4.27 o
-6 11 0 0.23 -1.07 3.65 o
-5 11 0 0.33 -1.84 1.84 o
-4 11 0 10.76 10.68 2.56 o
-3 11 0 1.18 2.28 2.67 o
-2 11 0 7.89 10.97 1.58 o
-1 11 0 0.90 -1.70 2.22 o
0 11 0 19.45 20.22 2.46 o
1 11 0 1.56 2.23 2.24 o
2 11 0 6.53 9.79 1.91 o
3 11 0 2.01 1.04 2.57 o
-5 12 0 0.00 -2.93 5.26 o
-4 12 0 0.61 3.50 5.20 o
-3 12 0 8.80 6.04 2.75 o
-2 12 0 11.05 11.81 2.64 o
-1 12 0 0.09 -2.58 2.58 o
0 12 0 2.35 4.63 2.62 o
1 12 0 0.99 3.85 2.67 o
1 -13 1 1.22 1.31 2.81 o
2 -13 1 1.78 2.15 2.68 o
-2 -12 1 4.77 11.95 3.28 o
-1 -12 1 3.75 0.83 2.61 o
0 -12 1 0.74 1.27 2.20 o
1 -12 1 14.24 17.59 5.91 o
2 -12 1 8.71 7.12 1.90 o
3 -12 1 5.98 8.20 1.80 o
4 -12 1 1.41 3.91 2.35 o
5 -12 1 0.02 -3.12 5.21 o
-3 -11 1 4.83 6.42 2.20 o
-2 -11 1 5.61 6.14 1.61 o
-1 -11 1 9.30 9.45 1.83 o
0 -11 1 7.29 6.65 2.21 o
1 -11 1 0.63 0.88 1.30 o
2 -11 1 9.44 11.05 1.41 o
3 -11 1 0.00 1.89 2.29 o
4 -11 1 1.25 -1.89 2.04 o
5 -11 1 0.63 2.23 2.34 o
6 -11 1 6.22 11.24 5.10 o
-4 -10 1 15.59 19.54 2.33 o
-3 -10 1 0.42 -1.27 1.27 o
-2 -10 1 6.96 5.86 1.50 o
-1 -10 1 0.42 -0.90 1.58 o
0 -10 1 10.66 9.00 1.52 o
1 -10 1 0.65 1.42 1.37 o
2 -10 1 0.04 -1.79 2.24 o
3 -10 1 0.14 -1.01 1.33 o
4 -10 1 34.24 32.45 2.61 o
5 -10 1 0.95 1.41 1.99 o
6 -10 1 0.35 1.51 4.48 o
7 -10 1 0.22 -1.46 4.39 o
-5 -9 1 17.22 19.29 5.09 o
-4 -9 1 0.83 0.76 1.12 o
-3 -9 1 0.32 0.53 1.07 o
-2 -9 1 5.57 5.92 3.57 o
-1 -9 1 48.16 47.15 2.47 o
0 -9 1 9.77 9.82 2.09 o
1 -9 1 0.23 2.05 0.97 o
2 -9 1 18.76 19.74 1.80 o
3 -9 1 6.34 7.35 1.37 o
4 -9 1 26.51 27.95 2.13 o
5 -9 1 26.69 27.30 3.09 o
6 -9 1 5.10 7.12 4.29 o
7 -9 1 3.61 1.71 3.06 o
-6 -8 1 3.26 6.29 5.11 o
-5 -8 1 0.30 0.65 0.72 o
-4 -8 1 60.24 60.95 2.57 o
-3 -8 1 10.41 10.10 1.25 o
-2 -8 1 380.07 398.34 18.80 o
-1 -8 1 3.57 2.74 2.00 o
0 -8 1 32.75 31.23 2.41 o
1 -8 1 3.13 2.01 0.86 o
2 -8 1 2.27 1.91 1.28 o
3 -8 1 37.23 38.92 2.55 o
4 -8 1 0.58 4.20 4.53 o
5 -8 1 7.46 7.38 1.93 o
6 -8 1 0.42 1.74 1.71 o
7 -8 1 0.11 3.91 4.34 o
8 -8 1 0.43 1.13 2.74 o
-7 -7 1 0.00 0.93 3.66 o
-6 -7 1 1.42 5.57 3.76 o
-5 -7 1 9.62 8.53 1.30 o
-4 -7 1 3.26 3.60 0.76 o
-3 -7 1 235.71 232.91 8.74 o
-2 -7 1 0.01 -0.22 1.04 o
-1 -7 1 13.34 14.37 1.54 o
0 -7 1 2.32 3.03 0.93 o
1 -7 1 131.25 125.79 8.01 o
2 -7 1 64.29 69.49 5.53 o
3 -7 1 4.68 4.83 1.59 o
4 -7 1 32.02 30.93 2.76 o
5 -7 1 0.74 -0.72 1.48 o
6 -7 1 2.35 2.39 1.78 o
7 -7 1 1.31 3.67 2.99 o
8 -7 1 0.22 5.37 4.11 o
-7 -6 1 2.95 2.58 2.92 o
-6 -6 1 10.70 12.44 2.76 o
-5 -6 1 0.16 0.70 0.61 o
-4 -6 1 18.01 18.77 1.00 o
-3 -6 1 9.51 9.72 1.36 o
-2 -6 1 205.18 209.62 6.87 o
-1 -6 1 49.00 48.04 1.64 o
0 -6 1 16.66 18.45 1.19 o
1 -6 1 2.02 2.43 1.12 o
2 -6 1 1.47 1.03 1.60 o
3 -6 1 19.29 17.25 8.46 o
4 -6 1 7.11 9.74 2.00 o
5 -6 1 0.82 2.63 2.90 o
6 -6 1 21.78 19.09 2.59 o
7 -6 1 7.05 2.67 2.14 o
8 -6 1 0.23 0.22 2.19 o
-8 -5 1 8.77 4.69 3.12 o
-7 -5 1 8.62 12.44 2.66 o
-6 -5 1 7.14 12.39 2.90 o
-5 -5 1 152.01 166.00 8.64 o
-4 -5 1 65.77 66.44 5.21 o
-3 -5 1 51.29 52.75 1.66 o
-2 -5 1 3.17 3.59 0.75 o
-1 -5 1 128.79 122.97 3.06 o
0 -5 1 494.96 509.21 36.34 o
1 -5 1 196.39 185.67 9.56 o
2 -5 1 29.47 26.98 1.97 o
3 -5 1 38.98 40.81 2.74 o
4 -5 1 178.50 185.63 8.04 o
5 -5 1 50.63 55.72 3.50 o
6 -5 1 0.01 0.05 2.44 o
7 -5 1 0.27 1.87 2.05 o
8 -5 1 12.08 7.03 1.94 o
-8 -4 1 6.35 6.01 2.74 o
-7 -4 1 1.97 1.02 2.15 o
-6 -4 1 20.46 15.63 2.54 o
-5 -4 1 5.18 4.33 2.00 o
-4 -4 1 111.08 105.18 4.77 o
-3 -4 1 132.50 143.82 5.56 o
-2 -4 1 0.32 0.18 0.56 o
-1 -4 1 52.38 44.21 3.29 o
0 -4 1 155.15 149.36 4.74 o
1 -4 1 479.83 432.74 26.41 o
2 -4 1 0.31 1.27 1.26 o
3 -4 1 16.10 15.30 1.40 o
4 -4 1 19.07 19.74 1.63 o
5 -4 1 39.90 40.47 2.47 o
6 -4 1 46.65 52.86 5.13 o
7 -4 1 4.41 3.45 1.25 o
8 -4 1 16.84 16.71 2.47 o
9 -4 1 0.07 1.72 2.06 o
-8 -3 1 0.03 4.39 3.07 o
-7 -3 1 17.25 13.34 3.93 o
-6 -3 1 14.69 12.53 3.17 o
-5 -3 1 3.31 5.80 0.49 o
-4 -3 1 36.06 27.77 2.79 o
-3 -3 1 46.12 30.87 1.67 o
-2 -3 1 900.03 891.30 21.59 o
-1 -3 1 317.90 312.04 7.27 o
0 -3 1 1899.05 1966.99 57.88 o
1 -3 1 0.58 1.88 1.30 o
2 -3 1 9.29 14.77 2.50 o
3 -3 1 283.67 274.60 10.17 o
4 -3 1 200.99 197.57 7.46 o
5 -3 1 18.10 19.62 1.81 o
6 -3 1 10.19 9.66 2.19 o
7 -3 1 19.65 18.71 1.83 o
8 -3 1 2.06 1.97 1.75 o
9 -3 1 0.40 2.19 2.33 o
-9 -2 1 9.62 13.24 5.64 o
-7 -2 1 8.64 6.82 0.77 o
-6 -2 1 5.05 4.84 1.05 o
-5 -2 1 178.29 178.67 6.76 o
-4 -2 1 8.44 7.39 0.60 o
-3 -2 1 653.29 762.47 54.76 o
-2 -2 1 498.75 530.11 19.94 o
2 -2 1 31.53 34.84 2.04 o
3 -2 1 52.89 57.60 3.02 o
4 -2 1 24.50 29.31 2.05 o
5 -2 1 2.55 1.48 1.70 o
6 -2 1 87.87 94.14 4.21 o
7 -2 1 28.39 30.62 5.08 o
8 -2 1 0.87 1.14 1.51 o
9 -2 1 1.12 -2.09 2.09 o
-9 -1 1 0.28 -0.24 4.35 o
-8 -1 1 0.19 -0.36 2.07 o
-7 -1 1 0.37 -0.06 0.76 o
-6 -1 1 75.77 74.85 3.24 o
-5 -1 1 258.13 263.82 9.80 o
-4 -1 1 0.34 0.17 0.87 o
-3 -1 1 3.21 2.93 0.74 o
1 -1 1 1610.98 1556.07 59.10 o
2 -1 1 156.57 142.07 4.82 o
3 -1 1 159.30 156.62 5.69 o
4 -1 1 1.16 0.90 0.79 o
5 -1 1 93.24 89.75 4.05 o
6 -1 1 0.31 0.69 1.18 o
7 -1 1 25.13 22.00 3.45 o
8 -1 1 1.87 2.38 2.49 o
9 -1 1 0.37 5.02 3.57 o
-9 0 1 3.16 10.50 4.80 o
-8 0 1 1.07 0.57 2.61 o
-7 0 1 36.08 31.74 1.96 o
-6 0 1 19.39 19.73 2.31 o
-5 0 1 147.02 149.63 6.51 o
-4 0 1 86.04 79.69 3.96 o
-3 0 1 0.94 1.74 1.88 o
-2 0 1 626.69 666.55 37.14 o
0 0 1 274.44 263.85 10.67 o
2 0 1 1146.04 1099.85 51.88 o
3 0 1 868.94 899.08 36.23 o
4 0 1 74.23 91.42 3.56 o
5 0 1 7.95 5.61 1.51 o
6 0 1 50.60 49.88 5.24 o
7 0 1 4.07 1.93 1.19 o
8 0 1 2.39 1.47 1.34 o
-9 1 1 0.24 -1.56 2.15 o
-8 1 1 5.41 6.18 1.17 o
-7 1 1 26.49 25.65 1.69 o
-6 1 1 196.71 203.61 9.76 o
-5 1 1 1.66 4.82 1.04 o
-4 1 1 5.53 5.86 1.87 o
-3 1 1 108.43 102.46 5.19 o
-2 1 1 104.31 94.45 7.04 o
-1 1 1 31.03 22.67 1.75 o
0 1 1 2273.64 2112.34 69.56 o
2 1 1 151.84 144.84 4.88 o
3 1 1 37.59 42.00 1.58 o
4 1 1 0.53 0.51 1.17 o
5 1 1 40.60 36.24 5.34 o
6 1 1 29.00 26.55 1.68 o
7 1 1 0.86 1.09 1.36 o
8 1 1 5.38 5.61 1.44 o
-9 2 1 3.90 2.22 1.73 o
-8 2 1 1.24 0.81 1.30 o
-7 2 1 69.10 66.02 4.27 o
-6 2 1 78.65 78.86 3.99 o
-5 2 1 10.06 8.20 1.33 o
-4 2 1 302.49 342.56 14.30 o
-3 2 1 322.05 320.32 10.45 o
-2 2 1 946.09 968.06 33.75 o
-1 2 1 8.77 7.80 1.09 o
0 2 1 5.83 6.93 1.77 o
1 2 1 746.61 711.48 23.88 o
2 2 1 701.93 764.04 24.51 o
3 2 1 5.70 9.28 1.09 o
4 2 1 81.19 69.19 2.93 o
5 2 1 4.45 5.51 0.96 o
6 2 1 8.67 9.11 1.13 o
7 2 1 0.01 3.30 1.48 o
8 2 1 0.36 8.48 3.86 o
-9 3 1 0.01 3.06 1.70 o
-8 3 1 9.25 2.94 2.17 o
-7 3 1 41.46 38.91 2.80 o
-6 3 1 7.57 7.56 1.57 o
-5 3 1 117.79 114.08 4.97 o
-4 3 1 132.09 154.70 7.72 o
-3 3 1 475.61 528.93 18.70 o
-2 3 1 282.57 250.75 7.74 o
-1 3 1 80.68 57.09 1.85 o
0 3 1 224.06 211.61 11.19 o
1 3 1 339.64 365.01 12.33 o
2 3 1 192.18 181.30 5.72 o
3 3 1 25.27 24.60 1.19 o
4 3 1 29.86 32.07 1.90 o
5 3 1 6.60 8.90 1.74 o
6 3 1 45.38 40.19 2.41 o
7 3 1 15.95 16.42 2.78 o
8 3 1 0.95 0.49 3.12 o
-9 4 1 0.67 -0.78 1.78 o
-8 4 1 0.00 0.99 3.12 o
-7 4 1 16.93 20.86 5.00 o
-6 4 1 21.28 21.14 2.08 o
-5 4 1 40.25 48.65 2.66 o
-4 4 1 76.73 100.50 4.22 o
-3 4 1 43.05 44.41 3.34 o
-2 4 1 293.95 265.21 24.44 o
-1 4 1 13.95 15.28 1.17 o
0 4 1 104.67 115.74 11.04 o
1 4 1 291.11 277.04 10.42 o
2 4 1 379.78 350.71 15.31 o
3 4 1 33.50 27.93 1.72 o
4 4 1 39.39 45.13 1.93 o
5 4 1 88.14 82.69 3.71 o
6 4 1 27.58 27.80 1.80 o
7 4 1 0.05 1.20 1.27 o
-9 5 1 0.30 4.87 2.50 o
-8 5 1 3.63 5.12 5.76 o
-7 5 1 31.24 34.39 3.11 o
-6 5 1 4.65 0.98 1.85 o
-5 5 1 9.38 12.20 1.61 o
-4 5 1 40.06 37.19 2.42 o
-3 5 1 211.10 194.20 9.88 o
-2 5 1 1.45 -0.96 1.22 o
-1 5 1 147.14 177.91 9.73 o
0 5 1 265.30 277.55 7.57 o
1 5 1 46.35 35.33 2.61 o
2 5 1 273.52 252.62 7.18 o
3 5 1 506.53 529.68 16.01 o
4 5 1 25.01 27.36 1.61 o
5 5 1 1.80 1.46 0.98 o
6 5 1 0.29 -1.06 1.06 o
7 5 1 1.14 4.24 3.51 o
-9 6 1 0.01 1.41 2.77 o
-8 6 1 0.15 1.66 2.29 o
-7 6 1 7.94 15.40 2.48 o
-6 6 1 31.29 33.26 3.08 o
-5 6 1 0.05 1.40 5.47 o
-4 6 1 0.02 1.36 2.23 o
-3 6 1 60.46 63.23 5.79 o
-2 6 1 0.05 -0.95 0.95 o
-1 6 1 15.31 13.33 1.66 o
0 6 1 48.62 55.65 4.52 o
1 6 1 1.25 1.75 0.97 o
2 6 1 26.84 31.69 1.68 o
3 6 1 426.71 462.28 15.04 o
4 6 1 5.20 5.73 1.38 o
5 6 1 12.58 12.48 3.93 o
6 6 1 1.52 3.16 1.46 o
-8 7 1 1.58 4.48 4.05 o
-7 7 1 2.29 2.80 2.45 o
-6 7 1 3.44 4.85 2.15 o
-5 7 1 0.85 0.98 1.94 o
-4 7 1 5.29 6.06 2.05 o
-3 7 1 29.03 26.60 1.48 o
-2 7 1 6.52 6.88 1.50 o
-1 7 1 20.01 18.90 1.73 o
0 7 1 40.76 35.80 2.29 o
1 7 1 18.95 18.79 1.30 o
2 7 1 22.37 22.29 1.65 o
3 7 1 47.77 49.69 2.19 o
4 7 1 32.78 37.96 5.74 o
5 7 1 30.56 32.87 2.18 o
6 7 1 1.11 -1.36 4.43 o
-8 8 1 1.50 3.42 4.06 o
-7 8 1 2.61 2.30 3.03 o
-6 8 1 8.41 3.25 2.24 o
-5 8 1 35.69 33.96 2.93 o
-4 8 1 125.26 119.98 8.34 o
-3 8 1 10.19 12.55 1.53 o
-2 8 1 0.20 1.32 1.11 o
-1 8 1 14.76 13.07 2.10 o
0 8 1 0.60 -0.31 1.03 o
1 8 1 17.94 17.26 1.43 o
2 8 1 9.91 14.24 3.31 o
3 8 1 4.93 8.12 1.24 o
4 8 1 4.19 3.23 1.35 o
5 8 1 13.13 17.59 3.86 o
-7 9 1 2.78 6.53 4.50 o
-6 9 1 0.01 -2.92 2.92 o
-5 9 1 18.30 21.26 2.22 o
-4 9 1 0.36 1.82 1.90 o
-3 9 1 0.00 -0.03 1.39 o
-2 9 1 36.84 32.34 3.06 o
-1 9 1 0.27 -1.48 1.48 o
0 9 1 1.19 0.76 1.17 o
1 9 1 0.11 -0.31 1.27 o
2 9 1 0.18 1.61 3.93 o
3 9 1 2.56 2.04 1.44 o
4 9 1 0.04 1.11 1.71 o
-7 10 1 1.01 -1.51 4.53 o
-6 10 1 11.29 11.19 2.29 o
-5 10 1 11.76 8.52 1.96 o
-4 10 1 1.57 1.76 2.07 o
-3 10 1 11.52 12.92 1.60 o
-2 10 1 0.50 -2.07 2.07 o
-1 10 1 87.53 73.55 6.29 o
0 10 1 7.67 6.03 1.76 o
1 10 1 1.33 0.60 1.31 o
2 10 1 22.13 21.90 1.97 o
3 10 1 28.87 33.61 6.82 o
-6 11 1 0.70 -4.57 4.57 o
-4 11 1 3.09 3.12 1.80 o
-3 11 1 6.38 16.75 4.86 o
-2 11 1 42.23 34.07 3.13 o
-1 11 1 0.08 -1.73 4.31 o
0 11 1 0.50 2.97 1.92 o
1 11 1 0.23 1.83 1.84 o
2 11 1 8.99 15.85 3.20 o
-4 12 1 0.01 6.50 4.59 o
-3 12 1 0.11 -1.61 2.74 o
-2 12 1 0.08 2.05 4.44 o
-1 12 1 0.71 5.06 4.27 o
0 12 1 0.75 -4.25 4.25 o
0 -13 2 1.25 -2.74 3.56 o
1 -13 2 0.13 2.62 2.83 o
2 -13 2 0.09 2.34 2.14 o
-2 -12 2 3.06 1.31 2.53 o
-1 -12 2 2.99 1.81 2.38 o
0 -12 2 2.90 3.29 1.76 o
1 -12 2 0.19 1.00 2.14 o
2 -12 2 1.41 3.12 2.10 o
3 -12 2 0.08 -2.20 2.20 o
4 -12 2 0.66 3.66 2.83 o
-4 -11 2 8.20 7.00 4.33 o
-3 -11 2 4.61 2.93 1.80 o
-2 -11 2 5.08 6.32 1.61 o
-1 -11 2 8.44 10.90 2.09 o
0 -11 2 7.18 6.57 1.40 o
1 -11 2 14.89 19.59 1.84 o
2 -11 2 0.76 1.23 4.40 o
3 -11 2 1.89 1.01 2.31 o
4 -11 2 0.22 1.02 1.47 o
5 -11 2 4.93 7.27 2.30 o
6 -11 2 1.45 5.41 4.94 o
-5 -10 2 0.02 -4.45 4.45 o
-4 -10 2 0.38 3.22 3.79 o
-3 -10 2 3.17 3.18 1.24 o
-2 -10 2 27.92 24.38 1.90 o
-1 -10 2 119.12 111.16 5.47 o
0 -10 2 1.33 1.60 1.34 o
1 -10 2 8.80 10.02 1.52 o
2 -10 2 2.92 0.06 2.56 o
3 -10 2 2.71 3.33 1.34 o
4 -10 2 2.24 1.39 1.87 o
5 -10 2 6.55 1.46 3.46 o
6 -10 2 1.33 0.15 3.18 o
-5 -9 2 0.17 2.69 4.24 o
-4 -9 2 13.31 11.55 1.13 o
-3 -9 2 3.46 1.93 0.99 o
-2 -9 2 162.43 160.82 8.04 o
-1 -9 2 100.06 96.25 6.23 o
0 -9 2 17.49 16.16 1.44 o
1 -9 2 17.04 17.18 3.02 o
2 -9 2 15.23 13.18 1.33 o
3 -9 2 7.18 7.15 1.39 o
4 -9 2 1.14 2.65 2.21 o
5 -9 2 2.35 4.61 4.51 o
6 -9 2 0.00 1.76 4.21 o
7 -9 2 3.01 -1.71 4.49 o
-6 -8 2 2.50 -2.30 4.11 o
-5 -8 2 1.63 1.22 3.47 o
-4 -8 2 18.11 16.83 1.61 o
-3 -8 2 15.34 15.20 1.29 o
-2 -8 2 77.83 76.99 7.76 o
-1 -8 2 224.83 244.73 6.81 o
0 -8 2 118.16 110.73 5.26 o
1 -8 2 2.63 5.88 2.59 o
2 -8 2 15.78 14.23 1.25 o
3 -8 2 8.32 10.96 1.81 o
4 -8 2 29.32 20.39 2.29 o
5 -8 2 0.77 2.24 1.54 o
6 -8 2 1.29 1.04 2.10 o
7 -8 2 0.02 -2.09 4.00 o
-7 -7 2 2.81 10.05 3.19 o
-6 -7 2 14.68 14.97 2.70 o
-5 -7 2 16.17 20.60 2.66 o
-4 -7 2 0.01 1.23 0.65 o
-3 -7 2 4.51 3.80 1.47 o
-2 -7 2 1.13 0.03 0.77 o
-1 -7 2 9.39 9.60 1.50 o
0 -7 2 36.75 42.71 1.79 o
1 -7 2 233.45 247.60 9.13 o
2 -7 2 9.51 11.69 4.10 o
3 -7 2 35.31 34.24 4.52 o
4 -7 2 54.84 66.79 3.83 o
5 -7 2 55.65 49.45 3.96 o
6 -7 2 0.37 1.53 2.12 o
7 -7 2 0.05 1.89 2.58 o
8 -7 2 0.48 1.31 2.67 o
-7 -6 2 6.02 4.24 2.45 o
-6 -6 2 54.68 65.40 4.75 o
-5 -6 2 29.51 32.07 2.85 o
-4 -6 2 5.54 4.76 1.28 o
-3 -6 2 119.25 122.71 3.23 o
-2 -6 2 76.36 78.39 2.49 o
-1 -6 2 1.08 1.75 0.89 o
0 -6 2 41.14 44.32 1.89 o
1 -6 2 100.01 104.48 3.41 o
2 -6 2 23.20 19.59 2.04 o
3 -6 2 3.06 3.48 1.64 o
4 -6 2 78.51 83.13 4.50 o
5 -6 2 1.58 0.18 1.87 o
6 -6 2 12.23 8.74 1.77 o
7 -6 2 13.36 13.63 3.06 o
8 -6 2 0.30 3.37 2.26 o
-8 -5 2 8.54 12.44 3.64 o
-7 -5 2 24.50 22.29 3.03 o
-6 -5 2 20.39 18.87 2.61 o
-5 -5 2 94.66 80.90 6.78 o
-4 -5 2 31.19 27.29 1.97 o
-3 -5 2 0.57 0.32 0.55 o
-2 -5 2 488.61 529.65 12.51 o
-1 -5 2 251.59 245.80 5.65 o
0 -5 2 6.61 8.33 1.77 o
1 -5 2 81.67 84.92 3.59 o
2 -5 2 381.49 354.14 17.75 o
3 -5 2 44.22 47.57 2.89 o
4 -5 2 38.83 47.06 3.13 o
5 -5 2 22.03 21.65 4.85 o
6 -5 2 2.73 0.79 2.10 o
7 -5 2 20.41 24.54 2.08 o
8 -5 2 3.45 2.48 1.83 o
-8 -4 2 0.00 -3.02 3.02 o
-7 -4 2 4.85 4.39 2.69 o
-6 -4 2 284.46 286.31 13.24 o
-5 -4 2 60.43 68.60 3.70 o
-4 -4 2 0.70 1.95 1.56 o
-3 -4 2 250.56 267.64 6.84 o
-2 -4 2 1977.14 2052.83 43.54 o
-1 -4 2 45.02 46.40 1.66 o
0 -4 2 0.22 1.77 0.85 o
1 -4 2 409.44 407.25 17.87 o
2 -4 2 234.47 289.43 20.31 o
3 -4 2 174.67 200.97 7.54 o
4 -4 2 0.40 -0.72 1.44 o
5 -4 2 22.80 21.59 1.75 o
6 -4 2 8.53 14.00 2.20 o
7 -4 2 34.48 33.86 2.69 o
8 -4 2 3.85 2.33 1.95 o
-8 -3 2 8.48 4.45 2.89 o
-7 -3 2 94.30 107.98 6.96 o
-6 -3 2 62.22 64.72 4.15 o
-5 -3 2 6.01 5.28 1.86 o
-4 -3 2 408.89 450.39 18.08 o
-3 -3 2 109.35 92.74 3.90 o
-2 -3 2 135.26 117.18 6.01 o
-1 -3 2 447.50 399.46 9.25 o
0 -3 2 3134.21 3104.06 111.63 o
1 -3 2 525.15 532.47 17.10 o
2 -3 2 7.31 7.14 1.74 o
3 -3 2 182.50 199.19 9.03 o
4 -3 2 10.21 6.97 0.92 o
5 -3 2 4.46 3.13 1.04 o
6 -3 2 3.07 3.10 1.17 o
7 -3 2 1.89 4.04 1.42 o
8 -3 2 2.72 7.51 3.28 o
-9 -2 2 3.23 2.15 3.03 o
-8 -2 2 17.07 21.57 4.02 o
-7 -2 2 0.31 -2.69 2.69 o
-6 -2 2 64.04 60.41 5.97 o
-5 -2 2 33.01 34.49 3.53 o
-4 -2 2 63.10 81.15 4.15 o
-3 -2 2 113.68 122.67 4.33 o
-2 -2 2 2.01 2.57 0.38 o
-1 -2 2 655.80 629.40 28.93 o
2 -2 2 185.83 167.78 6.45 o
3 -2 2 4.31 2.70 0.79 o
4 -2 2 5.75 4.73 1.81 o
5 -2 2 0.02 2.90 0.96 o
6 -2 2 3.70 0.84 1.25 o
7 -2 2 9.80 8.66 2.96 o
8 -2 2 0.14 0.27 2.09 o
-9 -1 2 6.36 3.99 3.46 o
-8 -1 2 0.20 0.55 1.81 o
-7 -1 2 10.71 9.45 0.81 o
-6 -1 2 47.32 50.06 1.90 o
-5 -1 2 2.46 0.75 1.05 o
-4 -1 2 59.68 64.49 4.23 o
-3 -1 2 477.74 485.43 21.54 o
-2 -1 2 524.35 548.60 17.34 o
-1 -1 2 58.49 56.78 2.95 o
2 -1 2 865.42 794.61 26.98 o
3 -1 2 1.31 1.77 2.35 o
4 -1 2 22.78 20.44 1.41 o
5 -1 2 127.39 135.08 8.33 o
6 -1 2 17.16 14.24 1.53 o
7 -1 2 0.17 0.76 1.78 o
8 -1 2 5.14 6.00 1.64 o
-9 0 2 8.57 15.84 4.67 o
-8 0 2 59.64 62.32 3.44 o
-7 0 2 153.70 157.82 7.94 o
-6 0 2 167.19 171.99 8.03 o
-5 0 2 176.96 159.15 6.46 o
-4 0 2 406.99 433.74 14.01 o
-3 0 2 90.84 86.22 3.94 o
-2 0 2 15.45 18.32 2.73 o
0 0 2 786.09 742.19 54.48 o
1 0 2 24.66 15.24 1.32 o
2 0 2 19.83 21.61 2.69 o
3 0 2 847.01 862.27 31.27 o
4 0 2 9.80 13.40 1.15 o
5 0 2 0.97 1.89 0.99 o
6 0 2 0.17 0.47 0.94 o
7 0 2 35.62 37.80 2.54 o
8 0 2 0.05 0.71 1.58 o
-9 1 2 0.53 1.99 1.65 o
-8 1 2 14.08 11.89 1.31 o
-7 1 2 37.31 34.47 2.26 o
-6 1 2 304.19 310.87 19.56 o
-5 1 2 10.46 12.42 1.36 o
-4 1 2 204.86 235.56 7.83 o
-3 1 2 0.65 -1.52 1.52 o
-2 1 2 2.57 3.42 0.72 o
0 1 2 121.04 114.91 5.99 o
1 1 2 451.37 411.23 16.77 o
2 1 2 529.86 468.35 15.11 o
3 1 2 53.20 46.99 1.81 o
4 1 2 28.65 29.84 1.59 o
5 1 2 26.87 24.29 1.75 o
6 1 2 56.34 49.92 3.37 o
7 1 2 14.01 11.04 4.13 o
8 1 2 17.34 17.79 2.67 o
-9 2 2 3.27 1.22 1.44 o
-8 2 2 53.60 48.53 3.99 o
-7 2 2 63.77 68.89 4.21 o
-6 2 2 116.67 118.12 5.81 o
-5 2 2 1.30 3.49 1.20 o
-4 2 2 25.81 21.75 1.70 o
-3 2 2 1829.69 1874.94 69.70 o
-2 2 2 11.92 11.71 1.33 o
-1 2 2 1317.79 1304.71 50.90 o
0 2 2 4426.55 4005.61 188.72 o
1 2 2 885.79 848.88 34.30 o
2 2 2 95.97 104.95 3.72 o
3 2 2 201.74 225.22 6.92 o
4 2 2 245.96 247.37 9.87 o
5 2 2 27.37 26.67 1.67 o
6 2 2 0.65 0.32 0.98 o
7 2 2 15.29 17.13 1.64 o
-9 3 2 19.49 15.84 2.19 o
-8 3 2 4.01 4.88 1.89 o
-7 3 2 7.37 4.71 2.50 o
-6 3 2 57.83 61.17 4.21 o
-5 3 2 53.79 50.48 2.86 o
-4 3 2 1731.85 1909.51 59.32 o
-3 3 2 8.65 7.75 1.41 o
-2 3 2 437.91 492.69 17.52 o
-1 3 2 231.98 210.65 7.36 o
0 3 2 2412.74 2418.95 82.97 o
1 3 2 252.17 257.81 13.46 o
2 3 2 0.05 0.04 0.46 o
3 3 2 2.06 1.80 0.92 o
4 3 2 8.81 7.84 1.06 o
5 3 2 19.44 17.91 1.59 o
6 3 2 0.87 -0.59 1.41 o
7 3 2 1.28 1.36 1.17 o
-9 4 2 1.81 -0.05 2.10 o
-8 4 2 1.86 -1.02 1.63 o
-7 4 2 0.31 -0.67 2.68 o
-6 4 2 2.53 6.01 1.73 o
-5 4 2 85.21 83.84 3.93 o
-4 4 2 91.32 105.55 4.16 o
-3 4 2 251.18 325.53 11.43 o
-2 4 2 52.06 48.13 3.46 o
-1 4 2 41.61 42.10 1.79 o
0 4 2 431.44 453.05 19.28 o
1 4 2 327.88 338.97 10.98 o
2 4 2 193.25 185.23 13.94 o
3 4 2 11.35 14.11 1.37 o
4 4 2 6.08 5.02 1.03 o
5 4 2 48.33 46.55 2.86 o
6 4 2 0.08 -1.13 1.21 o
-9 5 2 3.82 5.34 2.46 o
-8 5 2 5.39 4.54 4.19 o
-7 5 2 5.02 6.47 2.18 o
-6 5 2 5.62 5.58 1.81 o
-5 5 2 8.70 7.47 1.78 o
-4 5 2 106.18 119.36 5.12 o
-3 5 2 3.82 3.15 0.82 o
-2 5 2 466.49 443.92 10.67 o
-1 5 2 28.16 28.91 1.71 o
0 5 2 202.83 192.30 7.39 o
1 5 2 8.41 10.76 1.15 o
2 5 2 77.44 84.97 3.35 o
3 5 2 660.61 715.16 28.52 o
4 5 2 45.82 45.98 2.37 o
5 5 2 1.84 2.49 1.17 o
6 5 2 2.15 1.07 1.36 o
-9 6 2 0.07 0.44 4.20 o
-8 6 2 0.23 -1.37 2.53 o
-7 6 2 10.07 10.62 2.81 o
-6 6 2 6.40 6.23 1.96 o
-5 6 2 13.20 11.63 1.98 o
-4 6 2 5.86 4.89 1.59 o
-3 6 2 30.97 36.10 1.60 o
-2 6 2 12.43 11.05 2.39 o
-1 6 2 62.82 48.91 6.78 o
0 6 2 105.11 106.72 3.65 o
1 6 2 2.10 4.53 0.93 o
2 6 2 532.05 608.21 21.78 o
3 6 2 217.12 214.70 7.80 o
4 6 2 1.26 1.16 2.39 o
5 6 2 1.58 4.82 1.20 o
6 6 2 0.23 3.56 3.90 o
-8 7 2 0.15 -1.99 3.41 o
-7 7 2 13.42 11.02 5.43 o
-6 7 2 59.95 56.81 4.26 o
-5 7 2 113.60 112.69 6.73 o
-4 7 2 27.94 22.96 1.88 o
-3 7 2 20.23 17.64 1.56 o
-2 7 2 29.81 30.38 2.00 o
-1 7 2 4.25 5.98 2.34 o
0 7 2 26.17 25.77 1.50 o
1 7 2 7.12 7.21 1.23 o
2 7 2 13.69 13.14 1.28 o
3 7 2 38.72 34.51 2.03 o
4 7 2 35.02 31.50 1.94 o
5 7 2 7.93 10.12 1.69 o
-8 8 2 0.50 7.23 4.06 o
-7 8 2 1.27 2.54 3.40 o
-6 8 2 0.13 0.00 0.49 o
-5 8 2 17.17 15.08 4.04 o
-4 8 2 302.83 304.59 12.91 o
-3 8 2 47.32 42.71 1.91 o
-2 8 2 12.23 14.57 4.44 o
-1 8 2 6.44 6.41 1.90 o
0 8 2 0.39 0.15 0.47 o
1 8 2 0.14 3.84 1.15 o
2 8 2 5.59 3.87 1.25 o
3 8 2 14.94 14.46 1.52 o
4 8 2 4.55 7.74 1.50 o
5 8 2 2.48 6.82 4.63 o
-7 9 2 0.09 2.38 3.84 o
-6 9 2 23.56 20.92 2.24 o
-5 9 2 19.83 10.19 1.48 o
-4 9 2 10.53 9.73 1.24 o
-3 9 2 24.62 30.30 2.87 o
-2 9 2 0.27 0.87 2.14 o
-1 9 2 7.03 11.76 3.75 o
0 9 2 1.82 1.28 1.13 o
1 9 2 64.85 64.55 2.85 o
2 9 2 24.80 28.87 2.84 o
3 9 2 10.49 14.18 3.36 o
4 9 2 0.01 2.49 2.16 o
-7 10 2 7.96 -0.73 5.44 o
-6 10 2 0.32 5.12 3.57 o
-5 10 2 0.76 0.44 1.42 o
-4 10 2 7.35 15.73 4.98 o
-3 10 2 0.64 2.25 2.50 o
-2 10 2 58.85 61.81 4.56 o
-1 10 2 1.11 0.16 2.47 o
0 10 2 6.71 7.50 2.05 o
1 10 2 3.11 3.81 1.66 o
2 10 2 12.57 16.25 2.02 o
3 10 2 2.05 1.86 2.09 o
-6 11 2 0.33 3.37 5.18 o
-5 11 2 2.06 -4.33 4.91 o
-4 11 2 2.86 -3.37 4.49 o
-3 11 2 1.72 -2.30 2.84 o
-2 11 2 3.10 5.77 2.45 o
-1 11 2 11.05 9.77 2.54 o
0 11 2 0.55 1.65 2.45 o
1 11 2 0.23 -0.91 1.70 o
2 11 2 18.45 26.54 2.99 o
-4 12 2 2.32 10.01 4.55 o
-3 12 2 0.26 -0.88 4.43 o
-2 12 2 3.31 7.08 3.01 o
-1 12 2 0.79 4.78 4.31 o
0 -13 3 1.01 3.96 2.89 o
1 -13 3 0.26 2.69 2.06 o
2 -13 3 0.13 1.56 2.83 o
-2 -12 3 4.56 5.98 2.07 o
-1 -12 3 0.03 -1.75 1.75 o
0 -12 3 0.13 1.41 1.73 o
1 -12 3 5.92 5.32 1.58 o
2 -12 3 1.51 0.39 1.65 o
3 -12 3 0.04 -1.60 1.60 o
4 -12 3 2.45 7.38 2.77 o
-4 -11 3 3.65 10.87 4.23 o
-3 -11 3 4.93 6.34 1.57 o
-2 -11 3 2.41 2.67 2.08 o
-1 -11 3 7.95 12.49 3.46 o
0 -11 3 28.51 32.84 5.22 o
1 -11 3 2.85 1.37 1.26 o
2 -11 3 0.72 -1.24 1.24 o
3 -11 3 1.01 3.19 3.74 o
4 -11 3 3.08 6.18 1.46 o
5 -11 3 0.21 0.68 2.73 o
-5 -10 3 0.16 7.00 4.55 o
-4 -10 3 2.69 4.17 2.79 o
-3 -10 3 3.80 3.05 1.34 o
-2 -10 3 33.48 27.59 2.44 o
-1 -10 3 3.07 2.55 1.83 o
0 -10 3 0.14 2.31 1.53 o
1 -10 3 0.33 1.22 1.10 o
2 -10 3 2.71 5.58 1.26 o
3 -10 3 2.40 6.01 3.81 o
4 -10 3 2.56 3.08 1.04 o
5 -10 3 2.72 2.69 1.38 o
6 -10 3 0.01 -3.56 4.63 o
-6 -9 3 4.27 1.31 5.36 o
-5 -9 3 4.10 12.05 4.55 o
-4 -9 3 6.44 7.99 1.03 o
-3 -9 3 2.10 2.39 1.83 o
-2 -9 3 227.68 231.18 9.01 o
-1 -9 3 130.64 140.95 10.14 o
0 -9 3 20.06 14.87 2.01 o
1 -9 3 3.44 3.89 1.49 o
2 -9 3 4.20 1.43 1.04 o
3 -9 3 11.84 13.58 1.39 o
4 -9 3 0.69 2.16 3.56 o
5 -9 3 0.96 -1.60 2.33 o
6 -9 3 0.53 -0.24 4.45 o
7 -9 3 0.04 -1.76 4.78 o
-6 -8 3 4.24 3.22 2.58 o
-5 -8 3 2.74 3.45 2.38 o
-4 -8 3 14.60 16.14 1.34 o
-3 -8 3 2.58 2.60 1.05 o
-2 -8 3 15.28 18.02 4.48 o
-1 -8 3 1.63 0.87 0.87 o
0 -8 3 3.14 4.15 1.15 o
1 -8 3 12.67 12.26 2.67 o
2 -8 3 6.80 10.12 1.82 o
3 -8 3 0.56 1.34 2.28 o
4 -8 3 0.18 -1.77 1.77 o
5 -8 3 0.96 -0.61 2.22 o
6 -8 3 2.90 6.18 3.23 o
7 -8 3 0.42 -4.09 4.09 o
-7 -7 3 0.03 -0.15 2.55 o
-6 -7 3 9.99 7.88 2.27 o
-5 -7 3 16.84 17.79 2.30 o
-4 -7 3 16.32 14.66 0.86 o
-3 -7 3 12.29 13.35 1.03 o
-2 -7 3 12.08 11.42 0.93 o
-1 -7 3 31.62 27.78 1.37 o
0 -7 3 105.62 115.82 3.72 o
1 -7 3 0.60 -0.15 0.70 o
2 -7 3 39.68 48.18 6.93 o
3 -7 3 7.43 10.32 1.70 o
4 -7 3 3.16 4.66 1.80 o
5 -7 3 13.91 12.87 2.31 o
6 -7 3 9.21 9.92 1.44 o
7 -7 3 0.22 2.74 1.41 o
-7 -6 3 14.55 17.97 3.02 o
-6 -6 3 7.68 9.23 2.46 o
-5 -6 3 38.97 30.44 2.70 o
-4 -6 3 69.22 94.77 6.53 o
-3 -6 3 120.22 114.36 3.78 o
-2 -6 3 63.05 69.36 3.37 o
-1 -6 3 30.62 26.22 1.62 o
0 -6 3 263.34 276.48 10.20 o
1 -6 3 134.85 156.66 17.85 o
2 -6 3 20.91 16.33 3.23 o
3 -6 3 3.65 0.90 1.31 o
4 -6 3 6.91 10.60 1.97 o
5 -6 3 7.11 6.39 2.59 o
6 -6 3 1.50 3.31 3.20 o
7 -6 3 0.62 1.16 2.14 o
8 -6 3 6.97 17.85 5.19 o
-8 -5 3 36.94 54.38 4.95 o
-7 -5 3 0.38 2.05 2.58 o
-6 -5 3 12.57 13.44 3.02 o
-5 -5 3 12.85 14.11 1.73 o
-4 -5 3 20.51 21.31 2.06 o
-3 -5 3 9.56 13.41 0.72 o
-2 -5 3 322.00 343.91 12.47 o
-1 -5 3 7.18 7.95 1.05 o
0 -5 3 1.15 2.72 0.84 o
1 -5 3 183.16 211.82 8.67 o
2 -5 3 25.88 23.79 2.47 o
3 -5 3 42.24 37.75 2.63 o
4 -5 3 13.97 10.78 3.25 o
5 -5 3 1.09 1.81 0.85 o
6 -5 3 0.37 2.50 1.08 o
7 -5 3 14.86 15.00 2.10 o
8 -5 3 3.17 4.63 4.09 o
-8 -4 3 1.70 1.07 2.97 o
-7 -4 3 10.12 5.60 1.98 o
-6 -4 3 0.06 -0.35 1.76 o
-5 -4 3 12.66 9.19 1.78 o
-4 -4 3 25.29 28.02 2.37 o
-3 -4 3 241.30 266.18 6.78 o
-2 -4 3 629.45 677.50 16.92 o
-1 -4 3 284.69 277.04 8.17 o
0 -4 3 55.30 64.30 2.09 o
1 -4 3 372.79 317.16 11.69 o
2 -4 3 762.20 741.96 28.33 o
3 -4 3 0.44 -0.16 0.66 o
4 -4 3 0.64 2.41 1.66 o
5 -4 3 3.91 4.47 1.93 o
6 -4 3 27.68 33.28 5.31 o
7 -4 3 1.25 1.53 1.58 o
8 -4 3 7.05 6.40 3.33 o
-9 -3 3 0.98 0.35 3.52 o
-8 -3 3 21.93 26.99 3.48 o
-7 -3 3 20.51 20.92 2.56 o
-6 -3 3 11.84 12.73 2.14 o
-5 -3 3 24.71 26.71 2.17 o
-4 -3 3 293.01 294.88 11.27 o
-3 -3 3 47.00 49.45 3.44 o
-2 -3 3 402.13 434.89 10.71 o
-1 -3 3 419.26 389.15 12.73 o
0 -3 3 32.19 31.79 1.59 o
1 -3 3 197.67 162.32 6.72 o
2 -3 3 69.49 57.52 2.86 o
3 -3 3 44.71 42.55 2.82 o
4 -3 3 0.20 -0.56 1.45 o
5 -3 3 22.07 24.48 1.80 o
6 -3 3 7.72 9.44 1.87 o
7 -3 3 11.40 11.08 5.76 o
8 -3 3 0.03 2.36 1.88 o
-9 -2 3 0.01 5.12 3.07 o
-8 -2 3 4.54 -1.65 2.44 o
-7 -2 3 0.03 0.54 1.52 o
-6 -2 3 34.44 36.66 2.71 o
-5 -2 3 246.96 261.13 9.70 o
-4 -2 3 81.62 78.04 4.44 o
-3 -2 3 132.05 156.61 4.37 o
-2 -2 3 41.53 37.48 1.36 o
-1 -2 3 29.99 32.27 3.96 o
1 -2 3 747.10 760.35 32.64 o
2 -2 3 34.61 42.62 3.34 o
3 -2 3 18.36 18.76 3.06 o
4 -2 3 53.72 59.69 2.54 o
5 -2 3 1.86 3.24 1.48 o
6 -2 3 7.94 7.74 1.36 o
7 -2 3 1.08 1.73 1.52 o
8 -2 3 3.35 4.01 1.84 o
-9 -1 3 21.24 23.29 3.64 o
-8 -1 3 10.94 13.84 1.07 o
-7 -1 3 0.03 0.55 0.63 o
-6 -1 3 56.71 54.59 2.64 o
-5 -1 3 15.07 16.78 0.86 o
-4 -1 3 3.85 3.60 0.61 o
-3 -1 3 309.71 323.52 9.09 o
-2 -1 3 362.94 369.49 8.33 o
-1 -1 3 42.51 59.17 2.26 o
0 -1 3 139.50 130.86 8.56 o
1 -1 3 693.83 716.72 26.94 o
2 -1 3 15.90 18.07 2.68 o
3 -1 3 248.29 258.02 11.09 o
4 -1 3 10.88 11.17 1.36 o
5 -1 3 7.57 6.31 1.64 o
6 -1 3 3.79 3.16 1.22 o
7 -1 3 11.63 13.71 2.23 o
8 -1 3 2.46 2.60 1.90 o
-9 0 3 0.89 -2.83 3.62 o
-8 0 3 12.40 12.02 2.22 o
-7 0 3 105.96 107.72 7.08 o
-6 0 3 9.23 11.10 3.07 o
-5 0 3 213.51 201.12 6.55 o
-4 0 3 448.28 472.83 12.54 o
-3 0 3 219.60 245.20 6.22 o
-2 0 3 745.29 782.59 17.27 o
-1 0 3 1674.19 1579.46 82.15 o
0 0 3 51.42 42.54 2.10 o
1 0 3 19.60 26.42 1.79 o
2 0 3 5.51 7.44 1.11 o
3 0 3 46.99 45.78 2.17 o
4 0 3 3.92 4.17 1.01 o
5 0 3 13.14 12.03 1.43 o
6 0 3 2.70 3.21 2.45 o
7 0 3 5.86 5.89 2.08 o
8 0 3 2.36 4.48 2.57 o
-9 1 3 2.83 1.79 1.24 o
-8 1 3 0.07 3.01 4.04 o
-7 1 3 126.63 129.42 16.44 o
-6 1 3 2.01 2.56 1.13 o
-5 1 3 223.75 229.24 10.01 o
-4 1 3 5.91 4.17 1.27 o
-3 1 3 1956.98 2102.81 59.27 o
-2 1 3 0.26 0.71 0.70 o
-1 1 3 767.79 713.10 27.42 o
0 1 3 72.70 82.15 5.39 o
1 1 3 24.74 25.14 1.68 o
2 1 3 109.31 107.83 5.08 o
3 1 3 77.82 83.05 3.05 o
4 1 3 3.96 5.21 1.12 o
5 1 3 1.73 2.69 1.33 o
6 1 3 16.33 15.40 1.70 o
7 1 3 0.15 1.13 1.47 o
-9 2 3 6.99 6.74 1.69 o
-8 2 3 6.03 5.67 1.68 o
-7 2 3 4.53 5.74 2.63 o
-6 2 3 173.63 175.54 7.55 o
-5 2 3 31.23 31.93 1.99 o
-4 2 3 78.74 78.28 3.17 o
-3 2 3 75.63 75.83 4.03 o
-2 2 3 9.29 9.34 1.66 o
-1 2 3 87.36 85.40 6.00 o
0 2 3 188.15 191.41 6.63 o
1 2 3 293.80 313.25 18.63 o
2 2 3 84.84 70.93 3.06 o
3 2 3 217.70 221.67 7.90 o
4 2 3 0.04 -0.10 1.08 o
5 2 3 2.49 1.76 1.28 o
6 2 3 14.64 11.43 1.79 o
7 2 3 8.54 7.27 1.92 o
-9 3 3 2.62 0.91 1.78 o
-8 3 3 2.68 -1.14 1.82 o
-7 3 3 1.52 1.21 2.28 o
-6 3 3 6.62 6.64 1.52 o
-5 3 3 1.45 1.25 1.23 o
-4 3 3 98.80 96.67 3.39 o
-3 3 3 29.12 28.33 1.94 o
-2 3 3 119.75 103.94 3.90 o
-1 3 3 134.86 163.10 14.00 o
0 3 3 740.68 785.88 37.67 o
1 3 3 46.75 43.22 2.32 o
2 3 3 205.82 185.10 11.58 o
3 3 3 56.02 53.77 2.77 o
4 3 3 161.29 176.98 6.69 o
5 3 3 1.62 0.78 1.21 o
6 3 3 5.38 6.71 1.88 o
7 3 3 3.32 6.86 2.81 o
-9 4 3 0.50 1.73 2.10 o
-8 4 3 3.92 7.51 1.87 o
-7 4 3 11.15 11.59 1.88 o
-6 4 3 62.22 63.15 3.14 o
-5 4 3 9.13 10.18 1.71 o
-4 4 3 2.70 0.36 1.53 o
-3 4 3 28.50 29.96 2.35 o
-2 4 3 562.03 516.58 19.84 o
-1 4 3 126.10 135.29 4.42 o
0 4 3 27.25 39.32 2.45 o
1 4 3 324.24 318.95 33.43 o
2 4 3 125.42 117.56 6.34 o
3 4 3 349.27 369.07 12.61 o
4 4 3 1.65 0.35 1.27 o
5 4 3 6.16 7.46 1.41 o
6 4 3 0.00 -1.46 1.46 o
-9 5 3 0.09 0.20 2.53 o
-8 5 3 6.17 9.55 2.43 o
-7 5 3 2.10 0.72 1.79 o
-6 5 3 2.27 1.56 2.63 o
-5 5 3 36.90 35.03 2.72 o
-4 5 3 87.53 91.07 4.14 o
-3 5 3 24.18 24.33 1.86 o
-2 5 3 0.67 0.89 1.65 o
-1 5 3 15.95 12.81 1.07 o
0 5 3 8.58 8.28 2.06 o
1 5 3 6.64 5.63 1.96 o
2 5 3 94.32 100.18 8.28 o
3 5 3 0.57 -0.78 1.27 o
4 5 3 33.29 25.28 1.97 o
5 5 3 12.21 14.17 1.47 o
6 5 3 12.98 14.48 3.08 o
-9 6 3 0.43 0.35 3.87 o
-8 6 3 0.56 -1.39 2.23 o
-7 6 3 9.47 9.14 1.94 o
-6 6 3 4.96 8.93 2.28 o
-5 6 3 0.22 -0.14 1.85 o
-4 6 3 9.74 8.72 1.52 o
-3 6 3 357.13 355.99 14.74 o
-2 6 3 2.91 6.80 1.80 o
-1 6 3 10.74 14.57 3.25 o
0 6 3 21.53 25.18 1.49 o
1 6 3 12.90 11.33 1.21 o
2 6 3 43.11 49.97 2.12 o
3 6 3 16.07 13.48 1.55 o
4 6 3 7.41 10.50 1.58 o
5 6 3 28.07 34.00 2.77 o
-8 7 3 6.42 3.42 2.92 o
-7 7 3 0.16 -2.05 2.40 o
-6 7 3 2.90 -0.32 2.13 o
-5 7 3 99.25 91.52 10.16 o
-4 7 3 50.84 49.48 3.22 o
-3 7 3 14.27 16.26 2.23 o
-2 7 3 40.65 40.57 5.52 o
-1 7 3 88.07 88.40 3.50 o
0 7 3 35.22 30.09 2.75 o
1 7 3 14.75 18.31 1.62 o
2 7 3 4.14 6.10 1.30 o
3 7 3 3.08 6.16 1.29 o
4 7 3 0.58 2.07 1.57 o
5 7 3 0.34 2.03 2.25 o
-8 8 3 0.00 6.57 4.22 o
-7 8 3 1.86 2.62 3.21 o
-6 8 3 4.35 5.84 1.28 o
-5 8 3 101.89 92.49 8.45 o
-4 8 3 0.66 0.56 3.22 o
-3 8 3 0.00 -0.25 1.72 o
-2 8 3 7.12 7.55 4.15 o
-1 8 3 95.79 86.48 5.18 o
0 8 3 45.97 36.85 1.93 o
1 8 3 3.65 3.99 1.37 o
2 8 3 0.14 0.23 2.65 o
3 8 3 0.26 2.46 1.78 o
4 8 3 1.52 1.92 1.45 o
-7 9 3 4.26 9.06 4.92 o
-6 9 3 1.47 0.59 0.98 o
-5 9 3 4.82 9.44 3.98 o
-4 9 3 29.53 23.67 3.35 o
-3 9 3 0.69 0.30 2.16 o
-2 9 3 12.12 12.23 2.56 o
-1 9 3 44.99 42.39 3.46 o
0 9 3 5.33 5.89 1.38 o
1 9 3 0.19 1.57 1.75 o
2 9 3 1.14 1.42 1.68 o
3 9 3 38.01 37.85 2.74 o
-7 10 3 0.05 3.42 4.24 o
-6 10 3 1.78 -2.93 4.35 o
-5 10 3 4.75 4.54 4.19 o
-4 10 3 0.72 0.68 3.89 o
-3 10 3 0.58 1.04 3.65 o
-2 10 3 2.97 0.87 2.04 o
-1 10 3 17.13 15.55 2.16 o
0 10 3 0.69 4.05 1.70 o
1 10 3 0.46 -0.47 1.82 o
2 10 3 2.55 1.45 4.55 o
-5 11 3 2.71 0.35 4.11 o
-4 11 3 0.54 0.88 4.57 o
-3 11 3 1.92 4.96 2.77 o
-2 11 3 0.00 2.34 4.18 o
-1 11 3 0.03 0.44 3.61 o
0 11 3 0.40 -3.50 3.50 o
1 11 3 7.09 10.02 2.28 o
0 -13 4 2.96 4.16 2.19 o
1 -13 4 0.01 -1.36 4.14 o
-2 -12 4 3.94 0.93 2.63 o
-1 -12 4 2.77 3.40 1.95 o
0 -12 4 8.59 8.69 1.71 o
1 -12 4 4.96 5.93 2.45 o
2 -12 4 0.64 0.49 1.56 o
3 -12 4 0.35 0.68 2.87 o
4 -12 4 0.87 -1.95 2.89 o
-4 -11 4 0.28 -1.61 4.05 o
-3 -11 4 0.00 4.11 3.68 o
-2 -11 4 11.39 6.64 1.77 o
-1 -11 4 91.28 102.74 4.11 o
0 -11 4 4.08 4.73 1.41 o
1 -11 4 2.01 0.27 1.35 o
2 -11 4 3.10 2.73 2.35 o
3 -11 4 1.05 -0.35 1.32 o
4 -11 4 1.06 4.69 3.02 o
5 -11 4 3.93 9.02 4.87 o
-5 -10 4 0.02 -0.39 4.42 o
-4 -10 4 3.91 6.94 1.47 o
-3 -10 4 1.00 3.81 1.31 o
-2 -10 4 6.84 6.80 1.49 o
-1 -10 4 0.30 2.33 1.58 o
0 -10 4 4.46 3.52 1.30 o
1 -10 4 16.36 15.83 1.67 o
2 -10 4 8.74 9.05 2.66 o
3 -10 4 0.39 -0.92 2.81 o
4 -10 4 0.62 0.68 0.73 o
5 -10 4 1.59 -2.38 4.18 o
6 -10 4 0.95 2.69 4.65 o
-6 -9 4 1.48 -2.50 2.50 o
-5 -9 4 1.90 2.88 2.68 o
-4 -9 4 12.20 10.84 1.60 o
-3 -9 4 1.09 0.22 2.09 o
-2 -9 4 0.32 -0.63 1.00 o
-1 -9 4 12.70 12.06 1.34 o
0 -9 4 48.66 48.59 2.86 o
1 -9 4 115.80 106.93 7.43 o
2 -9 4 15.30 10.58 1.10 o
3 -9 4 6.28 6.45 1.58 o
4 -9 4 1.41 1.75 0.72 o
5 -9 4 11.07 20.04 4.69 o
6 -9 4 2.59 3.61 3.08 o
-7 -8 4 2.34 1.65 4.97 o
-6 -8 4 0.13 -2.97 2.97 o
-5 -8 4 22.22 21.83 3.20 o
-4 -8 4 8.54 7.64 0.76 o
-3 -8 4 21.42 19.83 2.23 o
-2 -8 4 3.50 1.81 1.57 o
-1 -8 4 21.49 21.60 1.47 o
0 -8 4 1.14 0.57 0.87 o
1 -8 4 36.29 31.03 2.58 o
2 -8 4 24.24 23.94 1.86 o
3 -8 4 0.96 2.54 1.26 o
4 -8 4 9.60 9.50 2.08 o
5 -8 4 1.84 0.62 1.72 o
6 -8 4 0.05 -1.76 2.74 o
7 -8 4 0.17 -3.26 3.26 o
-7 -7 4 0.93 3.37 3.08 o
-6 -7 4 14.03 16.41 2.83 o
-5 -7 4 113.04 106.25 6.91 o
-4 -7 4 12.64 11.71 0.75 o
-3 -7 4 0.02 0.12 0.69 o
-2 -7 4 94.29 111.23 3.15 o
-1 -7 4 4.55 4.27 1.04 o
0 -7 4 8.22 7.90 1.31 o
1 -7 4 3.27 3.78 1.28 o
2 -7 4 0.22 -1.97 3.06 o
3 -7 4 2.54 9.04 2.98 o
4 -7 4 7.07 4.57 1.63 o
5 -7 4 0.31 1.12 2.07 o
6 -7 4 1.02 0.21 2.42 o
7 -7 4 0.27 -2.54 4.25 o
-8 -6 4 0.65 -0.35 2.94 o
-7 -6 4 8.04 11.81 3.02 o
-6 -6 4 55.33 47.51 5.97 o
-5 -6 4 38.89 36.15 2.85 o
-4 -6 4 15.01 15.57 1.93 o
-3 -6 4 12.32 10.78 0.84 o
-2 -6 4 1.18 0.46 1.46 o
-1 -6 4 565.40 607.86 15.45 o
0 -6 4 18.95 14.40 1.95 o
1 -6 4 8.02 4.34 3.02 o
2 -6 4 27.03 27.17 2.16 o
3 -6 4 0.00 1.52 2.25 o
4 -6 4 13.77 14.83 1.96 o
5 -6 4 10.82 8.16 2.01 o
6 -6 4 0.22 -0.08 0.90 o
7 -6 4 4.92 14.86 3.98 o
-8 -5 4 0.78 -2.88 3.03 o
-7 -5 4 3.30 6.86 2.78 o
-6 -5 4 63.28 69.99 4.09 o
-5 -5 4 96.91 91.40 5.21 o
-4 -5 4 117.41 115.21 5.10 o
-3 -5 4 14.46 17.43 0.95 o
-2 -5 4 115.16 114.69 3.07 o
-1 -5 4 77.70 74.60 2.65 o
0 -5 4 203.06 223.25 11.87 o
1 -5 4 0.17 -0.61 1.39 o
2 -5 4 34.69 39.06 2.50 o
3 -5 4 143.53 176.91 7.48 o
4 -5 4 17.70 16.03 2.21 o
5 -5 4 0.03 0.94 1.59 o
6 -5 4 0.88 1.90 1.14 o
7 -5 4 0.62 2.76 1.57 o
-8 -4 4 7.99 11.95 3.53 o
-7 -4 4 9.89 8.28 2.13 o
-6 -4 4 113.95 101.12 7.44 o
-5 -4 4 70.42 75.35 3.88 o
-4 -4 4 15.51 11.90 1.93 o
-3 -4 4 104.02 100.80 3.26 o
-2 -4 4 129.07 131.17 3.55 o
-1 -4 4 0.27 -0.62 0.62 o
0 -4 4 146.94 138.20 4.96 o
2 -4 4 16.20 23.29 2.02 o
3 -4 4 8.38 5.17 1.75 o
4 -4 4 17.16 17.51 2.04 o
5 -4 4 1.36 2.22 1.13 o
6 -4 4 0.36 1.74 1.24 o
7 -4 4 1.17 1.48 1.49 o
-9 -3 4 2.84 8.16 3.55 o
-8 -3 4 31.39 39.68 3.52 o
-7 -3 4 44.08 36.15 3.19 o
-6 -3 4 14.36 11.71 2.20 o
-5 -3 4 48.36 40.38 2.66 o
-4 -3 4 67.30 83.44 5.23 o
-3 -3 4 0.03 2.85 0.98 o
-2 -3 4 63.86 62.85 2.32 o
-1 -3 4 106.02 101.25 5.27 o
0 -3 4 55.95 59.09 2.98 o
1 -3 4 39.02 36.35 5.39 o
2 -3 4 735.43 849.12 31.24 o
3 -3 4 211.88 240.30 10.53 o
4 -3 4 3.12 2.82 1.34 o
5 -3 4 1.28 2.92 1.22 o
6 -3 4 3.37 2.71 1.35 o
7 -3 4 2.28 3.25 2.46 o
8 -3 4 1.00 -3.85 4.08 o
-9 -2 4 0.81 -2.05 2.78 o
-8 -2 4 1.68 1.17 2.58 o
-7 -2 4 0.74 3.61 2.25 o
-6 -2 4 44.98 40.83 3.75 o
-5 -2 4 481.17 509.73 25.23 o
-4 -2 4 0.84 -0.15 0.49 o
-3 -2 4 453.67 498.37 11.05 o
-2 -2 4 588.34 596.12 21.70 o
-1 -2 4 2.89 -0.90 0.90 o
0 -2 4 0.85 2.21 1.39 o
1 -2 4 544.25 518.58 30.71 o
2 -2 4 597.80 569.12 25.60 o
3 -2 4 285.49 299.35 13.98 o
4 -2 4 39.40 34.90 2.57 o
5 -2 4 13.10 14.98 2.21 o
6 -2 4 3.08 6.32 2.84 o
7 -2 4 4.38 6.13 4.22 o
-9 -1 4 0.17 3.37 2.28 o
-8 -1 4 12.94 20.41 2.59 o
-7 -1 4 164.39 177.78 6.28 o
-6 -1 4 1033.01 1152.13 40.95 o
-5 -1 4 75.67 73.19 2.18 o
-4 -1 4 168.66 166.85 8.44 o
-3 -1 4 584.88 576.69 12.07 o
-2 -1 4 19.37 18.05 1.18 o
-1 -1 4 4.63 2.88 1.02 o
0 -1 4 80.75 68.25 3.35 o
1 -1 4 86.85 80.42 13.97 o
2 -1 4 17.39 20.54 1.39 o
3 -1 4 151.54 147.81 5.38 o
4 -1 4 44.93 54.24 7.18 o
5 -1 4 0.17 2.21 1.49 o
6 -1 4 4.01 2.04 4.02 o
7 -1 4 7.43 4.18 2.06 o
-9 0 4 1.06 2.62 1.99 o
-8 0 4 39.27 40.73 2.31 o
-7 0 4 5.62 3.03 1.56 o
-6 0 4 48.46 53.82 2.21 o
-5 0 4 171.10 174.93 6.31 o
-4 0 4 13.55 14.40 1.08 o
-3 0 4 347.38 412.23 10.39 o
-2 0 4 2.81 1.02 1.38 o
-1 0 4 1.98 4.16 2.11 o
0 0 4 162.36 175.49 6.66 o
1 0 4 0.00 1.65 1.45 o
2 0 4 46.74 42.91 1.92 o
3 0 4 0.36 2.05 0.88 o
4 0 4 0.42 2.05 1.02 o
5 0 4 0.71 2.19 1.47 o
6 0 4 1.40 2.97 1.28 o
7 0 4 0.64 1.17 1.80 o
-9 1 4 3.61 5.17 1.52 o
-8 1 4 3.18 5.21 1.97 o
-7 1 4 18.27 18.98 1.65 o
-6 1 4 53.49 55.26 2.39 o
-5 1 4 4.25 3.77 1.97 o
-4 1 4 420.60 505.65 13.11 o
-3 1 4 1225.63 1337.31 35.54 o
-2 1 4 487.49 513.79 14.18 o
-1 1 4 25.15 24.98 1.66 o
0 1 4 2.51 5.78 1.42 o
1 1 4 3136.91 3058.01 89.84 o
2 1 4 164.27 166.55 5.77 o
3 1 4 0.48 2.83 1.08 o
4 1 4 16.25 12.64 1.34 o
5 1 4 7.44 10.91 1.52 o
6 1 4 16.64 15.51 2.09 o
7 1 4 0.96 2.34 2.01 o
-9 2 4 4.30 5.29 2.50 o
-8 2 4 31.47 26.38 2.59 o
-7 2 4 45.33 46.23 10.33 o
-6 2 4 0.22 -0.39 1.73 o
-5 2 4 65.63 65.95 3.21 o
-4 2 4 335.42 330.75 9.00 o
-3 2 4 1238.36 1348.76 35.69 o
-2 2 4 15.29 13.90 1.02 o
-1 2 4 72.08 77.16 3.77 o
0 2 4 1198.54 1247.94 49.01 o
1 2 4 53.43 40.54 3.43 o
2 2 4 3.73 4.24 1.03 o
3 2 4 32.98 37.08 1.96 o
4 2 4 0.24 0.20 1.17 o
5 2 4 44.87 41.91 2.89 o
6 2 4 0.07 -1.56 1.60 o
7 2 4 0.19 3.56 2.53 o
-9 3 4 10.91 10.00 2.23 o
-8 3 4 9.01 4.62 1.64 o
-7 3 4 10.47 11.85 1.78 o
-6 3 4 2.42 -0.11 1.44 o
-5 3 4 21.90 25.32 2.39 o
-4 3 4 166.95 181.26 5.71 o
-3 3 4 20.63 16.64 2.23 o
-2 3 4 241.47 231.82 14.74 o
-1 3 4 0.04 -1.24 1.24 o
0 3 4 29.20 30.56 2.29 o
1 3 4 237.84 227.93 11.65 o
2 3 4 34.16 34.17 1.96 o
3 3 4 515.46 548.27 18.64 o
4 3 4 5.65 8.20 1.36 o
5 3 4 12.24 12.39 1.67 o
6 3 4 1.10 -0.05 1.73 o
-9 4 4 0.04 0.31 2.12 o
-8 4 4 2.93 5.10 1.66 o
-7 4 4 22.30 20.68 2.13 o
-6 4 4 154.58 159.53 8.04 o
-5 4 4 11.04 13.65 2.52 o
-4 4 4 32.45 33.27 2.31 o
-3 4 4 188.79 204.63 16.61 o
-2 4 4 8.41 7.02 1.58 o
-1 4 4 187.39 195.07 7.60 o
0 4 4 146.58 142.08 6.19 o
1 4 4 36.11 37.22 2.20 o
2 4 4 33.12 28.49 4.06 o
3 4 4 180.66 184.30 8.53 o
4 4 4 151.78 153.30 7.61 o
5 4 4 15.32 16.58 1.65 o
6 4 4 0.85 0.10 1.91 o
-9 5 4 5.98 5.22 2.72 o
-8 5 4 9.54 10.15 2.24 o
-7 5 4 0.40 2.29 1.93 o
-6 5 4 12.65 10.33 2.05 o
-5 5 4 30.37 26.93 1.45 o
-4 5 4 95.73 91.46 5.99 o
-3 5 4 63.15 70.60 4.28 o
-2 5 4 27.07 21.99 1.80 o
-1 5 4 125.41 145.23 5.73 o
0 5 4 18.61 17.73 1.84 o
1 5 4 1.15 2.40 1.30 o
2 5 4 0.05 2.93 1.54 o
3 5 4 59.91 55.11 3.42 o
4 5 4 22.92 22.22 2.04 o
5 5 4 2.48 0.24 2.11 o
-9 6 4 0.93 -4.38 4.38 o
-8 6 4 0.03 -1.17 4.00 o
-7 6 4 0.51 0.54 1.75 o
-6 6 4 27.20 25.51 1.72 o
-5 6 4 31.32 28.46 2.60 o
-4 6 4 871.50 911.49 37.85 o
-3 6 4 205.81 205.42 9.73 o
-2 6 4 1.26 -1.85 1.85 o
-1 6 4 0.01 0.46 1.07 o
0 6 4 1.71 1.24 1.11 o
1 6 4 0.09 0.30 2.21 o
2 6 4 1.26 3.99 1.41 o
3 6 4 4.70 4.96 1.37 o
4 6 4 3.10 3.42 1.60 o
5 6 4 17.66 12.29 2.16 o
-8 7 4 0.60 -1.26 3.50 o
-7 7 4 0.71 -0.03 1.01 o
-6 7 4 8.26 13.56 2.61 o
-5 7 4 5.28 3.78 1.69 o
-4 7 4 42.21 38.67 3.30 o
-3 7 4 124.95 122.42 9.47 o
-2 7 4 15.72 17.78 2.41 o
-1 7 4 0.31 0.36 2.43 o
0 7 4 0.62 -1.12 2.52 o
1 7 4 24.81 23.71 1.80 o
2 7 4 1.76 1.28 1.23 o
3 7 4 2.01 -0.56 1.52 o
4 7 4 4.05 3.93 2.44 o
-8 8 4 1.13 5.80 4.64 o
-7 8 4 0.00 2.23 3.98 o
-6 8 4 13.80 14.88 2.67 o
-5 8 4 3.93 2.18 2.44 o
-4 8 4 20.80 19.38 2.86 o
-3 8 4 0.63 -2.31 2.83 o
-2 8 4 5.90 6.74 2.28 o
-1 8 4 88.90 79.02 8.66 o
0 8 4 15.40 14.84 1.52 o
1 8 4 2.04 1.27 1.21 o
2 8 4 17.22 14.59 2.57 o
3 8 4 71.82 86.43 4.90 o
-7 9 4 6.95 7.42 5.52 o
-6 9 4 8.32 7.61 3.43 o
-5 9 4 7.46 14.64 4.44 o
-4 9 4 0.20 -0.57 2.25 o
-3 9 4 6.17 6.33 2.18 o
-2 9 4 20.29 20.74 2.89 o
-1 9 4 43.42 44.39 4.38 o
0 9 4 5.27 4.12 1.37 o
1 9 4 3.97 8.23 1.90 o
2 9 4 20.47 30.72 3.06 o
-6 10 4 0.09 1.02 4.84 o
-5 10 4 0.42 3.17 4.57 o
-4 10 4 0.93 6.53 4.03 o
-3 10 4 1.13 0.59 3.76 o
-2 10 4 0.06 0.63 3.02 o
-1 10 4 0.11 -3.95 3.95 o
0 10 4 8.72 9.18 2.82 o
1 10 4 4.48 5.02 1.98 o
-4 11 4 14.83 23.96 5.20 o
-3 11 4 0.01 1.51 4.43 o
-2 11 4 0.06 -3.85 4.25 o
-1 11 4 0.00 0.88 4.96 o
-2 -12 5 0.40 -1.72 1.72 o
-1 -12 5 16.01 18.35 5.73 o
0 -12 5 1.27 2.47 3.53 o
1 -12 5 0.21 2.45 2.93 o
2 -12 5 0.76 -0.39 2.81 o
3 -12 5 0.40 -3.72 4.44 o
-4 -11 5 0.71 8.00 4.98 o
-3 -11 5 3.47 0.05 1.31 o
-2 -11 5 13.27 11.78 1.76 o
-1 -11 5 7.77 5.47 1.54 o
0 -11 5 5.18 3.11 2.09 o
1 -11 5 0.22 0.76 2.39 o
2 -11 5 1.24 1.40 2.04 o
3 -11 5 2.93 5.57 2.97 o
4 -11 5 0.03 2.09 2.97 o
-5 -10 5 7.00 7.38 4.71 o
-4 -10 5 2.33 4.03 2.57 o
-3 -10 5 5.33 4.27 1.22 o
-2 -10 5 15.03 18.85 2.39 o
-1 -10 5 30.88 27.62 2.36 o
0 -10 5 12.65 11.79 1.61 o
1 -10 5 12.46 7.01 3.35 o
2 -10 5 2.69 1.38 1.39 o
3 -10 5 0.77 2.75 2.15 o
4 -10 5 0.30 3.07 3.11 o
5 -10 5 0.00 3.50 3.79 o
-6 -9 5 6.29 7.23 2.93 o
-5 -9 5 0.70 4.78 2.78 o
-4 -9 5 16.15 15.87 1.18 o
-3 -9 5 0.03 -0.50 0.92 o
-2 -9 5 7.05 6.10 2.17 o
-1 -9 5 2.04 1.87 1.95 o
0 -9 5 5.26 4.29 1.42 o
1 -9 5 6.62 5.12 1.70 o
2 -9 5 10.35 11.13 4.03 o
3 -9 5 0.04 1.30 1.67 o
4 -9 5 4.90 5.76 1.70 o
5 -9 5 0.96 -1.65 2.38 o
6 -9 5 0.04 2.62 4.10 o
-7 -8 5 5.19 7.84 3.33 o
-6 -8 5 0.03 4.54 4.40 o
-5 -8 5 3.83 7.61 3.70 o
-4 -8 5 8.78 7.11 1.42 o
-3 -8 5 4.15 4.41 1.98 o
-2 -8 5 0.70 0.80 2.56 o
-1 -8 5 2.09 1.60 2.61 o
0 -8 5 1.14 0.44 1.21 o
1 -8 5 7.40 6.72 1.49 o
2 -8 5 0.63 2.36 1.83 o
3 -8 5 0.04 -0.53 1.84 o
4 -8 5 1.21 3.85 1.80 o
5 -8 5 0.41 -0.15 2.30 o
6 -8 5 1.31 1.31 3.07 o
-7 -7 5 1.48 4.33 3.26 o
-6 -7 5 0.62 2.38 2.09 o
-5 -7 5 13.32 13.39 2.40 o
-4 -7 5 0.77 0.98 0.55 o
-3 -7 5 29.56 30.72 4.21 o
-2 -7 5 11.91 13.57 1.03 o
-1 -7 5 157.23 162.95 5.73 o
0 -7 5 4.71 10.55 1.72 o
1 -7 5 82.35 92.21 5.16 o
2 -7 5 9.38 10.42 1.78 o
3 -7 5 2.81 2.99 1.56 o
4 -7 5 0.16 2.52 3.15 o
5 -7 5 0.10 1.69 2.50 o
6 -7 5 0.01 -1.17 2.49 o
7 -7 5 1.77 -2.77 2.77 o
-8 -6 5 13.93 18.44 3.24 o
-7 -6 5 22.49 21.76 3.32 o
-6 -6 5 52.81 56.46 4.09 o
-5 -6 5 7.22 2.30 2.10 o
-4 -6 5 27.21 29.29 1.21 o
-3 -6 5 9.56 9.22 1.24 o
-2 -6 5 318.74 334.73 14.35 o
-1 -6 5 14.01 15.86 1.27 o
0 -6 5 31.50 31.44 3.65 o
1 -6 5 17.51 21.82 3.46 o
2 -6 5 162.04 167.69 9.34 o
3 -6 5 27.56 28.88 4.41 o
4 -6 5 8.19 6.71 2.11 o
5 -6 5 1.42 1.34 2.06 o
6 -6 5 0.74 4.59 3.33 o
7 -6 5 4.33 8.24 4.09 o
-8 -5 5 4.56 6.64 3.31 o
-7 -5 5 2.10 6.11 2.59 o
-6 -5 5 0.06 0.82 1.99 o
-5 -5 5 11.17 14.27 2.21 o
-4 -5 5 9.30 8.52 0.65 o
-3 -5 5 5.38 5.85 0.73 o
-2 -5 5 0.03 0.79 0.79 o
-1 -5 5 316.39 375.93 11.60 o
0 -5 5 85.33 92.79 6.99 o
1 -5 5 21.44 21.93 1.82 o
2 -5 5 37.09 37.75 2.62 o
3 -5 5 0.10 1.59 1.49 o
4 -5 5 14.36 8.46 2.06 o
5 -5 5 0.34 -1.24 2.48 o
6 -5 5 3.38 1.77 2.38 o
7 -5 5 0.01 7.00 4.33 o
-8 -4 5 1.32 2.09 2.73 o
-7 -4 5 34.33 39.06 3.49 o
-6 -4 5 56.51 58.16 4.26 o
-5 -4 5 0.03 2.49 1.45 o
-4 -4 5 231.97 231.34 5.74 o
-3 -4 5 122.96 124.57 2.86 o
-2 -4 5 36.90 36.62 4.85 o
-1 -4 5 84.40 95.01 3.17 o
0 -4 5 46.53 36.94 2.19 o
1 -4 5 428.92 414.51 16.00 o
2 -4 5 2.76 6.56 2.80 o
3 -4 5 1.91 1.81 1.62 o
4 -4 5 8.76 8.62 3.02 o
5 -4 5 9.49 9.46 2.08 o
6 -4 5 0.32 -0.04 2.11 o
7 -4 5 0.66 -2.45 2.45 o
-9 -3 5 0.24 -3.51 3.51 o
-8 -3 5 16.47 12.93 2.66 o
-7 -3 5 4.07 4.48 2.01 o
-6 -3 5 6.97 3.74 1.70 o
-5 -3 5 143.74 145.62 8.09 o
-4 -3 5 0.19 -0.10 0.54 o
-3 -3 5 35.34 35.13 5.28 o
-2 -3 5 19.57 20.92 1.26 o
-1 -3 5 2.37 1.76 1.92 o
0 -3 5 97.21 80.60 4.02 o
1 -3 5 235.30 308.17 13.20 o
2 -3 5 80.59 77.19 3.95 o
3 -3 5 16.36 18.52 2.11 o
4 -3 5 32.34 26.81 2.13 o
5 -3 5 2.91 4.11 1.92 o
6 -3 5 0.00 0.90 4.36 o
7 -3 5 0.48 2.83 3.67 o
-9 -2 5 8.93 6.68 3.32 o
-8 -2 5 46.15 49.65 3.84 o
-7 -2 5 0.75 4.93 3.04 o
-6 -2 5 238.12 272.07 16.13 o
-5 -2 5 12.55 14.59 0.85 o
-4 -2 5 26.96 25.99 1.28 o
-3 -2 5 99.91 98.29 2.93 o
-2 -2 5 28.88 30.35 1.71 o
-1 -2 5 35.74 35.90 2.26 o
0 -2 5 181.85 173.52 13.77 o
1 -2 5 20.70 27.18 1.82 o
2 -2 5 0.09 0.24 2.58 o
3 -2 5 30.13 34.63 4.42 o
4 -2 5 0.43 2.59 1.63 o
5 -2 5 3.56 6.54 3.56 o
6 -2 5 0.15 0.60 1.74 o
7 -2 5 0.10 7.12 2.35 o
-9 -1 5 0.23 -1.46 2.24 o
-8 -1 5 20.94 25.92 3.91 o
-7 -1 5 27.46 28.01 1.37 o
-6 -1 5 43.26 48.13 2.82 o
-5 -1 5 14.60 16.08 1.09 o
-4 -1 5 189.96 175.52 4.82 o
-3 -1 5 314.43 330.57 7.44 o
-2 -1 5 703.63 742.98 22.32 o
-1 -1 5 22.65 23.22 1.82 o
0 -1 5 180.93 180.71 7.51 o
1 -1 5 1.45 4.24 1.32 o
2 -1 5 4.03 4.51 1.19 o
3 -1 5 0.02 0.14 0.89 o
4 -1 5 17.91 13.75 1.94 o
5 -1 5 0.19 1.71 1.42 o
6 -1 5 0.34 0.82 1.94 o
7 -1 5 4.77 0.44 2.35 o
-9 0 5 1.87 -1.65 3.46 o
-8 0 5 25.62 24.00 1.55 o
-7 0 5 5.33 7.84 3.30 o
-6 0 5 114.18 113.85 4.10 o
-5 0 5 79.80 79.75 2.64 o
-4 0 5 65.96 64.26 2.17 o
-3 0 5 2.79 2.70 0.92 o
-2 0 5 33.72 35.87 2.85 o
-1 0 5 463.91 423.02 13.31 o
0 0 5 170.93 165.64 6.83 o
1 0 5 21.47 22.55 1.66 o
2 0 5 1.67 1.76 1.28 o
3 0 5 75.16 85.75 3.62 o
4 0 5 0.01 0.78 0.87 o
5 0 5 0.10 -1.26 1.56 o
6 0 5 4.30 7.88 2.08 o
7 0 5 0.22 -0.93 2.16 o
-9 1 5 38.08 36.49 2.53 o
-8 1 5 0.56 -1.54 1.54 o
-7 1 5 5.94 5.70 2.17 o
-6 1 5 90.84 85.38 3.10 o
-5 1 5 152.81 141.21 4.45 o
-4 1 5 19.37 25.74 1.71 o
-3 1 5 19.18 21.70 3.31 o
-2 1 5 92.58 77.88 2.60 o
-1 1 5 227.13 227.70 8.37 o
0 1 5 120.51 146.92 5.95 o
1 1 5 23.65 23.62 1.97 o
2 1 5 2.32 2.93 1.22 o
3 1 5 71.12 68.37 2.89 o
4 1 5 143.98 150.03 7.35 o
5 1 5 10.88 9.57 2.03 o
6 1 5 4.42 5.31 2.16 o
-9 2 5 8.50 9.42 1.41 o
-8 2 5 0.02 0.39 1.15 o
-7 2 5 0.01 -1.18 1.22 o
-6 2 5 12.92 12.53 1.34 o
-5 2 5 102.62 94.36 3.01 o
-4 2 5 32.84 26.43 1.32 o
-3 2 5 43.15 31.79 2.43 o
-2 2 5 74.87 68.27 4.20 o
-1 2 5 118.74 108.20 4.32 o
0 2 5 2.94 1.40 3.43 o
1 2 5 110.74 120.97 6.14 o
2 2 5 3.07 2.15 1.13 o
3 2 5 99.79 99.03 3.61 o
4 2 5 95.25 87.30 4.57 o
5 2 5 2.78 4.04 1.38 o
6 2 5 2.30 2.88 2.20 o
-9 3 5 1.72 3.44 1.58 o
-8 3 5 13.73 16.54 3.90 o
-7 3 5 1.88 3.10 1.32 o
-6 3 5 1.23 3.16 1.08 o
-5 3 5 62.85 67.51 2.36 o
-4 3 5 7.57 4.46 2.75 o
-3 3 5 167.84 165.72 11.61 o
-2 3 5 154.06 164.40 4.84 o
-1 3 5 85.32 75.70 4.63 o
0 3 5 15.17 16.73 3.00 o
1 3 5 12.84 8.31 1.53 o
2 3 5 0.06 -0.39 1.17 o
3 3 5 72.14 76.69 3.18 o
4 3 5 4.25 4.54 1.37 o
5 3 5 0.37 2.23 1.57 o
6 3 5 0.30 0.10 1.96 o
-9 4 5 3.48 2.28 1.70 o
-8 4 5 4.93 4.38 1.47 o
-7 4 5 0.38 2.33 1.23 o
-6 4 5 7.08 5.56 3.24 o
-5 4 5 0.41 -0.01 1.95 o
-4 4 5 99.15 100.86 4.51 o
-3 4 5 172.40 184.62 8.11 o
-2 4 5 163.90 175.11 9.47 o
-1 4 5 5.00 6.43 1.56 o
0 4 5 0.80 1.52 1.37 o
1 4 5 2.38 0.71 1.62 o
2 4 5 33.71 34.49 1.97 o
3 4 5 7.46 5.47 1.67 o
4 4 5 0.03 -0.59 1.62 o
5 4 5 2.23 4.16 1.77 o
-9 5 5 4.06 3.11 1.89 o
-8 5 5 3.88 4.09 2.56 o
-7 5 5 1.89 5.17 3.27 o
-6 5 5 40.19 32.47 2.08 o
-5 5 5 0.02 0.10 2.45 o
-4 5 5 120.52 121.96 5.24 o
-3 5 5 157.75 168.98 7.10 o
-2 5 5 1.44 3.04 1.92 o
-1 5 5 111.24 101.04 13.70 o
0 5 5 1.52 3.49 2.10 o
1 5 5 0.38 -0.57 1.98 o
2 5 5 39.05 40.40 2.62 o
3 5 5 17.83 18.09 2.08 o
4 5 5 0.78 -1.65 1.65 o
5 5 5 0.01 0.15 2.00 o
-9 6 5 13.87 19.23 4.41 o
-8 6 5 0.06 -1.08 2.56 o
-7 6 5 4.03 4.49 1.09 o
-6 6 5 13.38 12.60 3.67 o
-5 6 5 39.79 34.71 2.87 o
-4 6 5 39.45 41.07 3.29 o
-3 6 5 11.67 15.21 2.49 o
-2 6 5 71.39 84.46 4.77 o
-1 6 5 59.18 60.36 2.60 o
0 6 5 173.07 141.90 15.42 o
1 6 5 7.22 6.00 4.20 o
2 6 5 9.25 13.37 1.92 o
3 6 5 4.64 2.49 1.96 o
4 6 5 6.99 7.27 2.30 o
-8 7 5 1.17 -0.54 4.10 o
-7 7 5 0.10 2.70 2.46 o
-6 7 5 1.84 -2.25 2.25 o
-5 7 5 0.32 0.97 3.10 o
-4 7 5 39.65 42.56 3.11 o
-3 7 5 11.63 11.13 2.08 o
-2 7 5 3.10 8.26 2.25 o
-1 7 5 85.91 82.13 10.45 o
0 7 5 0.39 0.13 1.22 o
1 7 5 0.00 3.08 1.24 o
2 7 5 0.05 1.54 1.50 o
3 7 5 2.50 7.90 1.79 o
4 7 5 10.42 6.45 2.08 o
-7 8 5 1.56 -0.82 2.92 o
-6 8 5 0.05 -0.10 4.17 o
-5 8 5 0.32 -1.03 2.28 o
-4 8 5 2.22 1.63 3.92 o
-3 8 5 1.91 4.82 1.74 o
-2 8 5 0.03 1.38 2.47 o
-1 8 5 2.00 2.73 3.61 o
0 8 5 15.51 8.87 1.72 o
1 8 5 10.52 12.99 1.86 o
2 8 5 1.76 2.77 2.85 o
3 8 5 0.68 -0.69 1.88 o
-7 9 5 11.47 7.50 5.16 o
-6 9 5 11.85 12.05 3.88 o
-5 9 5 1.41 -1.80 3.99 o
-4 9 5 23.54 28.54 5.00 o
-3 9 5 13.61 12.93 4.32 o
-2 9 5 0.29 -0.06 2.52 o
-1 9 5 3.86 -0.62 3.42 o
0 9 5 8.02 11.12 1.90 o
1 9 5 0.15 3.02 2.28 o
2 9 5 3.05 7.69 4.03 o
-5 10 5 0.17 -4.16 4.16 o
-4 10 5 0.05 1.46 4.00 o
-3 10 5 2.89 3.02 3.47 o
-2 10 5 1.22 -3.84 3.84 o
-1 10 5 2.20 1.76 3.82 o
0 10 5 0.30 0.05 3.70 o
-2 -12 6 1.61 -0.99 3.54 o
-1 -12 6 1.12 0.39 2.23 o
0 -12 6 2.22 3.70 2.43 o
1 -12 6 1.51 6.18 3.61 o
2 -12 6 0.03 -3.22 3.96 o
3 -12 6 0.54 -3.51 3.51 o
-3 -11 6 3.97 2.38 2.24 o
-2 -11 6 12.18 12.80 4.80 o
-1 -11 6 12.57 12.50 4.45 o
0 -11 6 4.36 2.37 2.07 o
1 -11 6 0.20 1.47 2.02 o
2 -11 6 16.00 18.26 3.28 o
3 -11 6 0.00 6.82 3.72 o
4 -11 6 0.09 2.69 4.24 o
-5 -10 6 1.00 0.15 3.23 o
-4 -10 6 2.07 2.38 1.75 o
-3 -10 6 1.56 0.83 1.26 o
-2 -10 6 0.80 4.16 1.78 o
-1 -10 6 4.48 4.14 1.68 o
0 -10 6 0.64 0.23 0.53 o
1 -10 6 6.08 7.22 1.72 o
2 -10 6 0.08 1.01 1.77 o
3 -10 6 1.06 4.24 2.45 o
4 -10 6 0.08 0.82 3.07 o
5 -10 6 1.02 8.40 3.73 o
-6 -9 6 2.27 5.80 2.79 o
-5 -9 6 0.59 1.51 2.34 o
-4 -9 6 19.76 18.40 1.53 o
-3 -9 6 9.84 7.49 1.14 o
-2 -9 6 19.52 17.12 1.68 o
-1 -9 6 3.88 2.75 1.27 o
0 -9 6 8.97 4.02 2.10 o
1 -9 6 1.39 0.68 3.20 o
2 -9 6 2.50 0.86 1.39 o
3 -9 6 1.56 2.08 1.90 o
4 -9 6 0.01 0.97 3.17 o
5 -9 6 1.80 -0.49 3.32 o
-7 -8 6 0.04 -3.35 3.35 o
-6 -8 6 0.08 -0.73 2.28 o
-5 -8 6 66.37 60.52 5.00 o
-4 -8 6 13.72 11.90 1.11 o
-3 -8 6 18.34 16.44 1.30 o
-2 -8 6 0.14 -0.20 0.80 o
-1 -8 6 101.46 102.41 4.39 o
0 -8 6 0.70 -1.47 2.43 o
1 -8 6 0.51 0.48 2.71 o
2 -8 6 0.06 2.73 1.56 o
3 -8 6 3.09 6.15 1.78 o
4 -8 6 2.54 0.07 1.80 o
5 -8 6 0.54 3.27 2.73 o
6 -8 6 0.20 -0.54 4.59 o
-7 -7 6 2.08 -1.71 2.54 o
-6 -7 6 7.58 7.42 2.70 o
-5 -7 6 0.05 1.71 1.66 o
-4 -7 6 6.57 6.42 1.11 o
-3 -7 6 51.82 52.78 2.16 o
-2 -7 6 5.06 5.31 0.95 o
-1 -7 6 55.19 60.74 2.45 o
0 -7 6 81.68 78.56 3.97 o
1 -7 6 61.29 56.84 7.33 o
2 -7 6 0.01 -1.60 1.67 o
3 -7 6 0.30 -0.03 1.92 o
4 -7 6 7.57 9.84 7.82 o
5 -7 6 2.90 -0.82 3.21 o
6 -7 6 0.27 1.51 4.05 o
-8 -6 6 7.65 12.19 3.56 o
-7 -6 6 2.24 0.39 2.86 o
-6 -6 6 7.29 1.26 2.34 o
-5 -6 6 56.96 52.04 4.13 o
-4 -6 6 77.88 72.06 2.49 o
-3 -6 6 0.06 0.68 0.72 o
-2 -6 6 8.73 8.80 0.95 o
-1 -6 6 26.10 24.05 2.99 o
0 -6 6 16.95 16.19 1.81 o
1 -6 6 150.04 173.81 9.40 o
2 -6 6 192.04 192.58 12.58 o
3 -6 6 11.53 11.35 1.86 o
4 -6 6 1.85 7.26 2.20 o
5 -6 6 0.14 0.32 1.79 o
6 -6 6 0.45 -2.93 3.75 o
-8 -5 6 10.23 10.50 3.03 o
-7 -5 6 0.41 -0.05 2.67 o
-6 -5 6 4.11 4.84 2.24 o
-5 -5 6 68.78 67.45 4.59 o
-4 -5 6 21.32 20.66 1.01 o
-3 -5 6 0.79 1.95 2.12 o
-2 -5 6 13.54 9.33 1.02 o
-1 -5 6 9.88 6.93 0.86 o
0 -5 6 0.46 0.12 0.66 o
1 -5 6 37.91 43.99 2.82 o
2 -5 6 57.06 58.53 3.89 o
3 -5 6 2.16 4.96 1.87 o
4 -5 6 0.89 0.57 2.63 o
5 -5 6 0.00 -0.86 1.84 o
6 -5 6 1.65 5.37 4.15 o
-8 -4 6 7.33 11.38 3.16 o
-7 -4 6 16.41 15.13 2.34 o
-6 -4 6 66.57 63.49 3.78 o
-5 -4 6 85.40 80.53 2.26 o
-4 -4 6 82.75 87.91 2.58 o
-3 -4 6 42.46 49.98 5.32 o
-2 -4 6 19.59 21.81 1.28 o
-1 -4 6 78.35 68.55 3.73 o
0 -4 6 82.35 81.25 3.78 o
1 -4 6 25.90 23.53 2.08 o
2 -4 6 18.27 16.65 2.11 o
3 -4 6 16.47 15.79 2.25 o
4 -4 6 67.84 69.14 4.96 o
5 -4 6 1.10 -0.12 2.36 o
6 -4 6 0.08 -2.15 3.52 o
-9 -3 6 2.75 4.24 2.45 o
-8 -3 6 1.96 2.49 2.20 o
-7 -3 6 0.06 -1.41 1.66 o
-6 -3 6 26.76 19.79 3.48 o
-5 -3 6 661.43 699.02 19.20 o
-4 -3 6 63.48 65.54 1.96 o
-3 -3 6 14.77 16.69 1.08 o
-2 -3 6 121.55 126.61 4.97 o
-1 -3 6 0.63 -0.57 1.47 o
0 -3 6 92.46 91.25 7.56 o
1 -3 6 65.32 77.75 4.56 o
2 -3 6 21.23 19.16 4.56 o
3 -3 6 86.59 82.32 6.04 o
4 -3 6 3.85 6.25 1.83 o
5 -3 6 3.43 3.35 1.90 o
6 -3 6 0.09 2.16 4.14 o
-9 -2 6 8.52 9.96 3.31 o
-8 -2 6 14.68 15.96 4.96 o
-7 -2 6 72.32 79.15 7.71 o
-6 -2 6 263.39 282.31 10.32 o
-5 -2 6 310.44 326.63 8.84 o
-4 -2 6 0.13 1.05 0.71 o
-3 -2 6 90.48 97.34 3.96 o
-2 -2 6 451.84 480.98 15.16 o
-1 -2 6 160.14 162.96 6.77 o
0 -2 6 0.61 -0.54 1.02 o
1 -2 6 151.75 170.74 10.12 o
2 -2 6 66.77 64.69 3.03 o
3 -2 6 8.63 6.42 1.82 o
4 -2 6 19.31 13.03 1.90 o
5 -2 6 2.57 5.34 1.27 o
6 -2 6 0.25 3.96 2.34 o
-9 -1 6 1.23 9.61 4.68 o
-8 -1 6 24.64 27.21 1.82 o
-7 -1 6 5.70 7.42 1.99 o
-6 -1 6 1.29 0.86 0.93 o
-5 -1 6 128.22 133.80 4.15 o
-4 -1 6 22.19 23.68 1.20 o
-3 -1 6 818.47 908.83 27.98 o
-2 -1 6 12.31 12.32 1.25 o
-1 -1 6 22.48 18.93 1.70 o
0 -1 6 2.19 4.18 1.60 o
1 -1 6 228.49 230.28 8.69 o
2 -1 6 121.40 123.29 4.50 o
3 -1 6 20.43 19.73 1.43 o
4 -1 6 1.98 4.04 1.40 o
5 -1 6 2.63 3.61 1.57 o
6 -1 6 1.61 -0.88 2.48 o
-9 0 6 0.31 4.87 3.33 o
-8 0 6 3.20 1.34 1.09 o
-7 0 6 1.71 3.63 2.85 o
-6 0 6 31.65 32.90 1.65 o
-5 0 6 54.53 61.39 2.18 o
-4 0 6 10.76 11.06 1.24 o
-3 0 6 11.37 11.18 1.14 o
-2 0 6 434.55 473.88 15.75 o
-1 0 6 116.80 111.93 4.58 o
0 0 6 28.37 30.51 2.08 o
1 0 6 355.73 340.66 11.86 o
2 0 6 238.65 250.85 8.85 o
3 0 6 36.80 46.36 2.38 o
4 0 6 2.17 6.11 1.41 o
5 0 6 4.16 0.73 1.89 o
6 0 6 6.47 7.65 2.39 o
-9 1 6 20.49 24.17 2.65 o
-8 1 6 19.25 15.75 1.51 o
-7 1 6 107.78 123.24 4.93 o
-6 1 6 107.12 111.72 3.86 o
-5 1 6 0.33 1.62 1.89 o
-4 1 6 128.16 136.43 5.29 o
-3 1 6 265.46 287.39 8.54 o
-2 1 6 183.52 177.36 5.94 o
-1 1 6 35.17 36.24 2.52 o
0 1 6 0.15 -1.07 1.31 o
1 1 6 63.78 68.60 3.70 o
2 1 6 8.55 8.04 1.46 o
3 1 6 14.57 14.64 1.60 o
4 1 6 74.22 83.18 5.10 o
5 1 6 4.37 3.50 2.19 o
6 1 6 0.20 1.80 2.19 o
-9 2 6 6.32 4.19 1.65 o
-8 2 6 4.15 3.37 1.39 o
-7 2 6 6.06 4.89 1.58 o
-6 2 6 19.77 20.99 4.08 o
-5 2 6 21.04 13.58 2.93 o
-4 2 6 1.52 2.12 1.19 o
-3 2 6 40.79 38.65 2.25 o
-2 2 6 6.44 10.98 2.63 o
-1 2 6 4.13 2.72 2.34 o
0 2 6 0.82 0.45 1.56 o
1 2 6 4.71 3.91 1.52 o
2 2 6 0.52 0.82 1.03 o
3 2 6 120.43 120.51 5.98 o
4 2 6 9.34 9.40 1.67 o
5 2 6 0.49 0.49 2.15 o
6 2 6 1.26 -0.54 2.15 o
-9 3 6 9.22 9.40 1.75 o
-8 3 6 4.15 6.56 1.52 o
-7 3 6 8.47 3.75 1.57 o
-6 3 6 63.61 57.80 4.14 o
-5 3 6 64.68 69.92 5.85 o
-4 3 6 86.49 75.43 7.10 o
-3 3 6 4.34 4.75 1.61 o
-2 3 6 125.54 134.51 6.13 o
-1 3 6 56.27 57.48 4.03 o
0 3 6 51.31 45.22 2.77 o
1 3 6 82.09 70.28 3.48 o
2 3 6 1.52 2.93 1.17 o
3 3 6 0.35 3.74 1.40 o
4 3 6 26.29 20.86 2.17 o
5 3 6 17.74 15.73 2.21 o
-9 4 6 5.37 1.72 1.67 o
-8 4 6 21.70 13.25 2.48 o
-7 4 6 7.58 9.01 1.28 o
-6 4 6 0.15 2.52 1.46 o
-5 4 6 49.61 55.36 3.34 o
-4 4 6 22.92 21.85 3.38 o
-3 4 6 1558.29 1690.21 58.48 o
-2 4 6 0.08 0.03 1.31 o
-1 4 6 38.23 34.25 2.43 o
0 4 6 48.80 51.13 3.31 o
1 4 6 1.58 2.51 1.23 o
2 4 6 0.81 1.80 1.46 o
3 4 6 1.41 2.93 1.46 o
4 4 6 4.76 4.59 1.86 o
5 4 6 6.58 1.95 1.85 o
-9 5 6 0.15 0.92 2.68 o
-8 5 6 2.44 0.30 3.12 o
-7 5 6 2.36 4.33 2.21 o
-6 5 6 0.96 4.28 5.21 o
-5 5 6 68.01 76.89 7.05 o
-4 5 6 209.89 235.78 11.14 o
-3 5 6 123.71 125.96 6.26 o
-2 5 6 104.30 99.75 10.68 o
-1 5 6 13.44 13.27 2.08 o
0 5 6 0.00 0.58 2.18 o
1 5 6 5.49 2.93 1.75 o
2 5 6 13.14 10.32 1.71 o
3 5 6 3.48 4.16 1.77 o
4 5 6 1.05 -1.46 2.19 o
-8 6 6 0.00 2.38 3.79 o
-7 6 6 12.74 11.49 4.02 o
-6 6 6 23.66 26.62 7.26 o
-5 6 6 9.33 12.35 2.23 o
-4 6 6 13.83 13.79 4.11 o
-3 6 6 127.18 124.99 7.71 o
-2 6 6 5.70 6.87 2.69 o
-1 6 6 22.93 17.28 2.79 o
0 6 6 27.33 37.78 5.73 o
1 6 6 4.92 7.00 5.08 o
2 6 6 0.03 0.06 1.54 o
3 6 6 1.26 -0.15 2.16 o
-8 7 6 0.47 3.66 3.85 o
-7 7 6 0.01 -1.56 3.80 o
-6 7 6 8.04 4.96 2.56 o
-5 7 6 4.91 4.48 2.26 o
-4 7 6 5.72 4.47 2.37 o
-3 7 6 0.77 3.26 2.35 o
-2 7 6 2.44 6.31 2.28 o
-1 7 6 3.66 4.52 1.06 o
0 7 6 35.11 31.14 1.98 o
1 7 6 0.60 0.29 1.27 o
2 7 6 0.61 3.22 1.76 o
3 7 6 31.74 34.72 3.77 o
-7 8 6 7.55 4.63 3.84 o
-6 8 6 7.13 10.01 4.59 o
-5 8 6 28.44 26.34 4.95 o
-4 8 6 9.59 13.26 2.47 o
-3 8 6 0.36 4.82 2.63 o
-2 8 6 1.43 -2.45 2.45 o
-1 8 6 5.57 3.26 1.34 o
0 8 6 12.63 14.96 6.98 o
1 8 6 2.57 9.33 6.83 o
2 8 6 0.43 -0.53 3.13 o
-6 9 6 0.83 5.77 4.36 o
-5 9 6 0.10 -1.65 3.36 o
-4 9 6 3.96 7.00 4.40 o
-3 9 6 10.53 7.23 3.08 o
-2 9 6 0.58 -2.93 4.25 o
-1 9 6 0.20 -0.93 2.88 o
0 9 6 0.01 2.30 2.92 o
1 9 6 0.56 8.69 4.32 o
-4 10 6 12.11 13.75 5.38 o
-3 10 6 8.29 9.23 4.67 o
-2 10 6 0.30 -4.59 4.59 o
-1 10 6 0.04 -4.53 4.53 o
-2 -12 7 0.01 -0.54 2.39 o
-1 -12 7 0.48 3.56 2.42 o
0 -12 7 2.79 2.05 3.80 o
1 -12 7 0.39 0.97 2.78 o
2 -12 7 0.89 -1.80 4.77 o
-3 -11 7 0.08 1.31 2.05 o
-2 -11 7 1.66 2.67 1.63 o
-1 -11 7 2.33 2.53 2.18 o
0 -11 7 0.64 2.57 2.32 o
1 -11 7 8.86 11.06 2.71 o
2 -11 7 1.56 -1.85 4.09 o
3 -11 7 0.35 2.54 2.94 o
-5 -10 7 3.64 5.60 4.73 o
-4 -10 7 0.70 1.06 3.17 o
-3 -10 7 0.14 1.69 2.34 o
-2 -10 7 0.03 4.19 1.68 o
-1 -10 7 0.49 -1.35 1.52 o
0 -10 7 1.00 1.84 2.70 o
1 -10 7 0.69 0.37 2.44 o
2 -10 7 3.37 4.69 2.87 o
3 -10 7 0.58 -3.60 3.60 o
4 -10 7 0.42 0.54 4.98 o
-6 -9 7 0.20 4.96 3.30 o
-5 -9 7 5.92 2.62 2.72 o
-4 -9 7 0.00 0.32 0.92 o
-3 -9 7 0.45 3.91 1.53 o
-2 -9 7 8.18 7.70 3.85 o
-1 -9 7 2.69 2.48 1.53 o
0 -9 7 0.02 1.28 1.62 o
1 -9 7 0.37 -1.75 2.34 o
2 -9 7 4.61 4.22 2.10 o
3 -9 7 0.16 2.83 3.67 o
4 -9 7 0.03 3.17 3.80 o
5 -9 7 0.70 1.56 4.00 o
-7 -8 7 0.29 2.49 3.51 o
-6 -8 7 1.14 -1.61 4.24 o
-5 -8 7 6.81 10.73 2.56 o
-4 -8 7 5.17 6.14 1.62 o
-3 -8 7 19.23 18.06 3.28 o
-2 -8 7 7.65 6.66 1.27 o
-1 -8 7 26.20 29.42 2.86 o
0 -8 7 22.53 22.91 2.09 o
1 -8 7 0.81 2.73 1.73 o
2 -8 7 15.31 18.54 2.37 o
3 -8 7 12.13 12.24 2.73 o
4 -8 7 0.01 1.07 3.41 o
5 -8 7 0.69 0.78 4.37 o
-7 -7 7 8.44 7.88 3.21 o
-6 -7 7 26.90 25.28 2.88 o
-5 -7 7 18.96 13.65 2.37 o
-4 -7 7 0.19 -0.34 0.72 o
-3 -7 7 0.15 0.52 2.19 o
-2 -7 7 2.41 2.89 2.01 o
-1 -7 7 30.37 35.92 1.73 o
0 -7 7 4.65 6.51 2.48 o
1 -7 7 1.58 -0.44 1.95 o
2 -7 7 6.48 4.71 3.37 o
3 -7 7 3.41 4.06 2.26 o
4 -7 7 0.84 5.59 2.20 o
5 -7 7 3.29 3.61 3.16 o
-8 -6 7 1.89 -1.95 3.02 o
-7 -6 7 4.60 4.93 2.55 o
-6 -6 7 0.52 0.20 1.70 o
-5 -6 7 3.32 3.61 0.53 o
-4 -6 7 5.21 4.46 0.81 o
-3 -6 7 9.69 8.15 0.90 o
-2 -6 7 1.46 2.59 0.88 o
-1 -6 7 0.13 0.48 1.46 o
0 -6 7 1.45 0.93 1.09 o
1 -6 7 203.06 211.55 13.81 o
2 -6 7 3.14 0.50 2.62 o
3 -6 7 0.34 -1.12 1.86 o
4 -6 7 0.12 2.32 3.02 o
5 -6 7 2.03 4.59 3.62 o
6 -6 7 0.51 -0.15 4.55 o
-8 -5 7 18.77 19.91 3.86 o
-7 -5 7 1.56 -1.76 2.00 o
-6 -5 7 8.35 10.96 1.99 o
-5 -5 7 23.41 22.02 1.18 o
-4 -5 7 38.02 39.77 1.72 o
-3 -5 7 5.51 7.97 1.84 o
-2 -5 7 23.16 21.92 1.58 o
-1 -5 7 29.50 27.85 1.34 o
0 -5 7 11.78 14.06 1.07 o
1 -5 7 31.67 38.83 3.13 o
2 -5 7 78.08 88.64 5.76 o
3 -5 7 8.95 12.32 1.86 o
4 -5 7 0.62 -0.12 2.13 o
5 -5 7 3.39 4.45 4.10 o
6 -5 7 0.00 0.97 2.82 o
-8 -4 7 2.33 2.38 2.33 o
-7 -4 7 67.99 67.10 4.57 o
-6 -4 7 15.03 12.93 3.21 o
-5 -4 7 34.41 35.23 1.58 o
-4 -4 7 4.16 5.86 1.27 o
-3 -4 7 65.84 65.15 2.74 o
-2 -4 7 6.36 4.33 2.07 o
-1 -4 7 0.03 -0.18 1.17 o
0 -4 7 67.47 77.50 6.50 o
1 -4 7 8.23 6.36 1.38 o
2 -4 7 0.00 -1.52 1.82 o
3 -4 7 10.55 9.08 2.25 o
4 -4 7 1.81 0.17 1.52 o
5 -4 7 0.06 3.26 1.83 o
6 -4 7 0.00 2.54 4.09 o
-9 -3 7 1.40 2.74 3.42 o
-8 -3 7 22.86 24.31 3.58 o
-7 -3 7 0.30 -0.35 2.84 o
-6 -3 7 170.99 166.91 6.32 o
-5 -3 7 18.07 15.35 1.20 o
-4 -3 7 19.66 18.05 1.27 o
-3 -3 7 6.40 7.43 1.11 o
-2 -3 7 227.82 252.98 8.11 o
-1 -3 7 2.43 0.59 1.13 o
0 -3 7 0.41 0.13 1.35 o
1 -3 7 48.38 36.78 4.10 o
2 -3 7 14.23 11.32 1.51 o
3 -3 7 0.18 0.76 1.68 o
4 -3 7 3.49 5.98 1.75 o
5 -3 7 0.00 1.59 2.41 o
6 -3 7 0.17 0.20 3.59 o
-9 -2 7 7.91 4.93 2.70 o
-8 -2 7 0.46 9.19 4.11 o
-7 -2 7 45.48 46.65 2.19 o
-6 -2 7 4.70 3.91 0.88 o
-5 -2 7 80.65 80.03 3.37 o
-4 -2 7 15.04 16.50 1.94 o
-3 -2 7 41.53 37.96 5.14 o
-2 -2 7 0.63 -1.07 1.07 o
-1 -2 7 44.41 52.24 2.83 o
0 -2 7 68.95 70.34 3.52 o
1 -2 7 7.01 8.24 1.52 o
2 -2 7 26.91 20.35 1.38 o
3 -2 7 0.01 -0.35 0.83 o
4 -2 7 5.70 7.08 2.08 o
5 -2 7 0.01 1.46 2.38 o
-9 -1 7 1.82 5.80 4.64 o
-8 -1 7 42.27 43.46 2.21 o
-7 -1 7 2.98 3.66 0.92 o
-6 -1 7 0.10 -0.28 1.85 o
-5 -1 7 0.05 -0.22 0.94 o
-4 -1 7 0.05 -0.82 1.00 o
-3 -1 7 29.66 31.44 3.69 o
-2 -1 7 6.55 5.24 1.02 o
-1 -1 7 40.26 48.57 2.92 o
0 -1 7 24.08 25.14 2.17 o
1 -1 7 111.33 118.38 5.01 o
2 -1 7 43.82 43.09 2.29 o
3 -1 7 0.26 0.93 1.08 o
4 -1 7 3.68 3.45 1.95 o
5 -1 7 10.12 10.77 2.75 o
6 -1 7 0.06 1.76 4.10 o
-9 0 7 20.94 33.11 5.47 o
-8 0 7 4.84 5.06 1.16 o
-7 0 7 12.08 12.98 3.06 o
-6 0 7 0.01 0.05 1.09 o
-5 0 7 41.24 37.06 3.37 o
-4 0 7 73.01 69.55 4.63 o
-3 0 7 23.36 28.06 3.06 o
-2 0 7 0.26 -0.38 1.07 o
-1 0 7 3.12 4.96 1.74 o
0 0 7 1.73 0.05 1.53 o
1 0 7 13.42 10.14 1.91 o
2 0 7 4.36 3.96 1.31 o
3 0 7 22.08 22.35 2.05 o
4 0 7 46.14 41.73 2.89 o
5 0 7 1.76 4.84 2.09 o
-9 1 7 0.59 -0.49 1.95 o
-8 1 7 0.36 0.15 2.48 o
-7 1 7 8.07 9.68 2.09 o
-6 1 7 14.42 13.46 2.08 o
-5 1 7 0.19 2.35 2.05 o
-4 1 7 45.34 43.05 2.31 o
-3 1 7 109.54 103.08 3.75 o
-2 1 7 5.90 4.06 1.74 o
-1 1 7 55.25 59.52 3.57 o
0 1 7 32.45 35.32 2.82 o
1 1 7 22.47 28.69 2.47 o
2 1 7 2.29 2.58 1.08 o
3 1 7 33.50 28.62 2.24 o
4 1 7 2.04 3.72 1.70 o
5 1 7 1.35 0.20 2.43 o
-9 2 7 0.24 0.62 1.52 o
-8 2 7 10.60 7.44 2.07 o
-7 2 7 0.31 2.43 2.73 o
-6 2 7 43.24 35.03 2.08 o
-5 2 7 0.07 -0.21 1.74 o
-4 2 7 90.23 94.72 4.16 o
-3 2 7 5.98 3.47 1.06 o
-2 2 7 436.82 453.07 18.85 o
-1 2 7 12.66 11.36 1.82 o
0 2 7 24.45 20.87 1.78 o
1 2 7 1.39 0.93 1.61 o
2 2 7 1.67 0.35 1.07 o
3 2 7 32.22 28.54 2.31 o
4 2 7 20.38 25.21 2.32 o
5 2 7 0.02 1.07 2.53 o
-9 3 7 5.74 3.01 1.77 o
-8 3 7 21.84 25.36 2.07 o
-7 3 7 11.27 13.99 3.73 o
-6 3 7 2.97 6.94 1.91 o
-5 3 7 122.42 129.27 5.44 o
-4 3 7 26.19 25.67 2.31 o
-3 3 7 84.85 77.10 12.52 o
-2 3 7 18.97 20.11 3.78 o
-1 3 7 4.72 5.65 2.11 o
0 3 7 32.58 35.05 5.95 o
1 3 7 0.42 0.10 1.82 o
2 3 7 7.70 8.24 1.84 o
3 3 7 0.08 2.34 1.37 o
4 3 7 2.08 -1.02 1.76 o
-9 4 7 4.21 4.08 2.29 o
-8 4 7 5.56 6.35 2.46 o
-7 4 7 1.33 1.75 2.00 o
-6 4 7 0.09 0.16 0.53 o
-5 4 7 23.05 25.22 2.50 o
-4 4 7 169.34 178.84 7.77 o
-3 4 7 24.20 23.28 2.55 o
-2 4 7 38.83 33.44 3.73 o
-1 4 7 11.53 15.20 2.44 o
0 4 7 79.89 67.76 3.42 o
1 4 7 16.54 20.04 2.13 o
2 4 7 1.33 3.22 1.36 o
3 4 7 7.85 5.80 1.98 o
4 4 7 0.96 1.80 3.11 o
-8 5 7 1.65 4.48 3.90 o
-7 5 7 0.01 2.49 1.92 o
-6 5 7 0.76 0.06 2.05 o
-5 5 7 13.80 19.40 3.49 o
-4 5 7 4.01 3.55 2.04 o
-3 5 7 32.64 33.17 3.01 o
-2 5 7 0.59 0.75 1.70 o
-1 5 7 40.19 43.29 3.18 o
0 5 7 14.81 11.68 3.67 o
1 5 7 4.53 3.55 1.77 o
2 5 7 3.89 -0.39 1.79 o
3 5 7 1.44 4.24 2.59 o
-8 6 7 0.05 13.70 4.50 o
-7 6 7 9.35 14.81 4.25 o
-6 6 7 6.29 8.18 3.63 o
-5 6 7 0.15 -2.24 2.24 o
-4 6 7 6.54 9.33 2.08 o
-3 6 7 5.41 7.05 1.75 o
-2 6 7 0.32 7.58 2.37 o
-1 6 7 6.53 5.69 1.16 o
0 6 7 4.95 3.74 3.05 o
1 6 7 1.23 3.26 2.02 o
2 6 7 0.48 0.93 2.00 o
3 6 7 2.22 -0.59 3.97 o
-7 7 7 11.17 16.52 4.77 o
-6 7 7 9.30 16.92 4.31 o
-5 7 7 15.30 17.79 3.95 o
-4 7 7 0.01 3.77 2.38 o
-3 7 7 0.78 -0.26 2.05 o
-2 7 7 0.01 0.99 1.80 o
-1 7 7 0.85 -0.17 2.13 o
0 7 7 1.28 -1.06 1.52 o
1 7 7 3.69 5.16 2.14 o
2 7 7 0.21 1.68 1.96 o
-7 8 7 7.64 1.46 4.96 o
-6 8 7 0.00 4.10 4.35 o
-5 8 7 0.01 -2.87 2.87 o
-4 8 7 3.93 4.84 3.75 o
-3 8 7 17.55 16.29 4.23 o
-2 8 7 7.24 12.48 3.95 o
-1 8 7 4.22 13.85 4.68 o
0 8 7 3.52 -0.59 4.01 o
1 8 7 4.40 8.28 4.78 o
-5 9 7 0.71 5.57 4.35 o
-4 9 7 5.67 7.96 5.04 o
-3 9 7 0.68 2.69 5.18 o
-2 9 7 0.00 0.00 0.49 o
-1 9 7 6.42 6.18 5.34 o
-1 -12 8 2.71 0.18 2.71 o
0 -12 8 0.30 0.44 3.76 o
-3 -11 8 0.99 3.61 1.91 o
-2 -11 8 0.05 0.16 1.71 o
-1 -11 8 3.07 1.23 2.16 o
0 -11 8 0.43 4.23 2.53 o
1 -11 8 0.84 3.79 3.84 o
2 -11 8 0.03 -3.96 3.96 o
-5 -10 8 2.36 10.54 4.44 o
-4 -10 8 12.22 9.94 1.98 o
-3 -10 8 1.94 1.54 1.97 o
-2 -10 8 0.30 -1.18 2.82 o
-1 -10 8 4.05 3.70 1.89 o
0 -10 8 9.51 9.81 3.29 o
1 -10 8 0.16 1.09 1.89 o
2 -10 8 0.50 8.16 3.07 o
3 -10 8 1.31 0.24 4.35 o
-6 -9 8 1.49 5.37 3.53 o
-5 -9 8 5.88 17.38 4.31 o
-4 -9 8 1.40 -0.10 1.13 o
-3 -9 8 2.37 3.37 1.12 o
-2 -9 8 2.63 0.69 1.24 o
-1 -9 8 0.02 -1.73 1.73 o
0 -9 8 0.00 -0.14 2.14 o
1 -9 8 0.50 1.19 2.27 o
2 -9 8 0.54 5.51 3.01 o
3 -9 8 0.55 5.31 3.76 o
4 -9 8 0.20 1.02 2.89 o
-6 -8 8 0.00 -2.78 3.03 o
-5 -8 8 0.29 -0.20 0.82 o
-4 -8 8 0.26 2.49 1.40 o
-3 -8 8 4.74 5.01 2.05 o
-2 -8 8 0.11 0.05 1.49 o
-1 -8 8 0.77 1.39 1.28 o
0 -8 8 5.08 5.97 1.71 o
1 -8 8 1.12 3.85 1.53 o
2 -8 8 54.31 63.81 4.40 o
3 -8 8 0.88 6.71 3.69 o
4 -8 8 0.40 8.04 4.00 o
-7 -7 8 11.11 8.08 3.14 o
-6 -7 8 0.67 4.84 2.98 o
-5 -7 8 0.35 0.44 0.78 o
-4 -7 8 12.72 14.74 2.21 o
-3 -7 8 13.29 8.61 1.09 o
-2 -7 8 8.62 8.97 1.17 o
-1 -7 8 0.21 1.52 0.82 o
0 -7 8 0.81 -0.65 1.44 o
1 -7 8 2.65 4.99 2.00 o
2 -7 8 5.73 5.67 1.76 o
3 -7 8 9.00 8.14 1.90 o
4 -7 8 3.34 4.96 4.20 o
5 -7 8 0.21 2.45 4.90 o
-7 -6 8 0.56 1.31 2.88 o
-6 -6 8 2.33 4.72 2.39 o
-5 -6 8 1.73 1.53 0.76 o
-4 -6 8 126.02 124.07 5.39 o
-3 -6 8 14.30 17.37 1.30 o
-2 -6 8 12.56 13.87 1.42 o
-1 -6 8 25.17 24.88 1.54 o
0 -6 8 6.44 4.40 1.97 o
1 -6 8 0.20 0.73 2.48 o
2 -6 8 0.12 5.57 2.87 o
3 -6 8 0.24 3.49 4.47 o
4 -6 8 2.47 12.53 4.20 o
5 -6 8 1.91 3.27 4.55 o
-8 -5 8 0.78 -1.26 2.29 o
-7 -5 8 1.71 -1.22 2.68 o
-6 -5 8 3.82 5.12 2.09 o
-5 -5 8 252.51 257.07 9.10 o
-4 -5 8 28.61 34.67 3.92 o
-3 -5 8 36.99 43.55 4.80 o
-2 -5 8 26.42 27.95 2.97 o
-1 -5 8 44.06 46.19 3.60 o
0 -5 8 0.73 -0.12 0.78 o
1 -5 8 7.38 4.72 1.87 o
2 -5 8 2.16 0.86 2.09 o
3 -5 8 2.47 -0.28 1.53 o
4 -5 8 11.72 12.73 4.09 o
5 -5 8 2.75 5.67 4.46 o
-8 -4 8 0.31 1.36 2.67 o
-7 -4 8 3.41 7.57 2.19 o
-6 -4 8 15.56 15.51 1.10 o
-5 -4 8 65.60 61.00 2.59 o
-4 -4 8 154.13 175.49 6.89 o
-3 -4 8 25.41 20.88 1.55 o
-2 -4 8 0.17 2.56 2.06 o
-1 -4 8 7.67 7.08 1.29 o
0 -4 8 4.35 7.04 1.53 o
1 -4 8 8.12 8.86 1.74 o
2 -4 8 1.94 6.21 2.49 o
3 -4 8 0.84 0.70 1.79 o
4 -4 8 0.38 0.11 2.33 o
5 -4 8 0.49 -4.40 4.40 o
-8 -3 8 9.85 12.93 3.82 o
-7 -3 8 2.81 2.74 0.69 o
-6 -3 8 7.05 7.08 0.97 o
-5 -3 8 60.57 57.86 2.68 o
-4 -3 8 13.19 15.23 2.15 o
-3 -3 8 47.12 50.25 3.26 o
-2 -3 8 174.72 200.82 11.16 o
-1 -3 8 24.83 30.36 2.31 o
0 -3 8 4.64 4.59 1.47 o
1 -3 8 23.22 25.49 2.04 o
2 -3 8 62.18 61.39 3.17 o
3 -3 8 2.44 3.61 1.97 o
4 -3 8 0.83 2.83 2.04 o
5 -3 8 0.27 -1.56 3.80 o
-9 -2 8 1.70 3.12 4.24 o
-8 -2 8 0.32 0.88 1.02 o
-7 -2 8 1.58 0.93 0.83 o
-6 -2 8 10.43 11.38 1.22 o
-5 -2 8 0.16 0.25 0.93 o
-4 -2 8 35.03 35.29 2.03 o
-3 -2 8 53.35 57.10 2.54 o
-2 -2 8 46.10 54.95 2.30 o
-1 -2 8 0.77 0.05 1.43 o
0 -2 8 8.09 9.53 1.47 o
1 -2 8 26.19 26.42 2.30 o
2 -2 8 0.76 2.05 1.08 o
3 -2 8 5.06 4.30 1.16 o
4 -2 8 5.87 10.23 2.50 o
5 -2 8 1.47 3.22 3.36 o
-9 -1 8 14.72 13.29 4.07 o
-8 -1 8 5.42 6.39 1.17 o
-7 -1 8 7.17 6.68 1.12 o
-6 -1 8 3.30 3.63 1.17 o
-5 -1 8 15.30 14.91 1.73 o
-4 -1 8 19.13 16.82 1.52 o
-3 -1 8 0.03 1.08 2.99 o
-2 -1 8 7.60 8.49 1.24 o
-1 -1 8 89.91 101.97 5.08 o
0 -1 8 3.88 5.67 1.37 o
1 -1 8 12.62 13.54 2.11 o
2 -1 8 38.22 36.49 2.28 o
3 -1 8 11.63 10.32 1.30 o
4 -1 8 34.14 48.08 3.97 o
5 -1 8 0.84 0.97 3.17 o
-9 0 8 49.82 61.94 6.27 o
-8 0 8 4.31 5.37 1.39 o
-7 0 8 8.34 6.99 1.22 o
-6 0 8 92.61 101.16 4.31 o
-5 0 8 247.53 255.76 9.74 o
-4 0 8 0.01 1.13 1.17 o
-3 0 8 32.94 27.38 3.66 o
-2 0 8 107.51 104.44 5.16 o
-1 0 8 17.78 14.91 1.89 o
0 0 8 0.69 2.93 1.46 o
1 0 8 3.29 4.39 1.67 o
2 0 8 1.56 4.16 1.37 o
3 0 8 5.82 7.84 1.45 o
4 0 8 26.51 22.29 2.18 o
5 0 8 7.05 0.68 4.18 o
-9 1 8 1.93 2.49 1.85 o
-8 1 8 5.27 7.01 2.36 o
-7 1 8 28.64 25.05 5.52 o
-6 1 8 8.50 8.25 1.96 o
-5 1 8 18.50 21.28 2.09 o
-4 1 8 17.23 15.61 1.40 o
-3 1 8 26.67 22.87 1.76 o
-2 1 8 38.28 37.09 2.92 o
-1 1 8 2.88 1.26 1.41 o
0 1 8 18.17 16.12 1.79 o
1 1 8 0.14 -1.17 1.47 o
2 1 8 7.69 7.69 1.62 o
3 1 8 0.79 3.27 1.46 o
4 1 8 1.08 -0.29 2.18 o
-9 2 8 6.93 8.40 2.39 o
-8 2 8 9.82 11.45 2.76 o
-7 2 8 0.84 2.61 1.95 o
-6 2 8 14.79 14.46 2.71 o
-5 2 8 50.70 51.08 3.43 o
-4 2 8 6.79 7.72 5.05 o
-3 2 8 480.94 494.81 17.73 o
-2 2 8 235.68 251.34 15.76 o
-1 2 8 32.12 31.92 2.53 o
0 2 8 0.35 -1.40 1.40 o
1 2 8 23.57 21.76 2.41 o
2 2 8 0.82 2.58 1.61 o
3 2 8 1.79 -0.88 2.05 o
4 2 8 0.15 0.24 2.50 o
-9 3 8 0.01 -1.36 3.36 o
-8 3 8 6.10 7.70 3.71 o
-7 3 8 23.07 18.19 2.76 o
-6 3 8 2.77 5.58 2.03 o
-5 3 8 0.51 3.61 1.73 o
-4 3 8 21.44 27.99 2.57 o
-3 3 8 114.57 111.30 4.47 o
-2 3 8 263.86 259.74 13.87 o
-1 3 8 1.45 -0.11 1.93 o
0 3 8 7.52 8.04 2.34 o
1 3 8 0.62 0.05 1.53 o
2 3 8 5.68 5.80 1.75 o
3 3 8 0.47 0.29 2.03 o
4 3 8 0.33 -1.65 1.99 o
-8 4 8 1.09 -1.19 2.18 o
-7 4 8 6.37 5.56 2.39 o
-6 4 8 1.11 4.94 2.32 o
-5 4 8 12.83 12.28 2.35 o
-4 4 8 0.08 2.61 2.23 o
-3 4 8 59.28 68.16 4.03 o
-2 4 8 2.13 4.94 2.16 o
-1 4 8 2.15 0.31 2.74 o
0 4 8 47.81 49.22 3.17 o
1 4 8 0.97 0.15 1.32 o
2 4 8 0.00 2.23 2.04 o
3 4 8 0.06 -1.07 3.45 o
-8 5 8 0.03 -2.05 2.92 o
-7 5 8 0.25 2.51 3.64 o
-6 5 8 7.41 9.00 5.21 o
-5 5 8 0.90 4.71 2.41 o
-4 5 8 1.13 4.05 2.85 o
-3 5 8 1.24 0.32 1.95 o
-2 5 8 33.88 32.61 4.32 o
-1 5 8 24.00 22.39 2.56 o
0 5 8 2.85 2.72 3.54 o
1 5 8 8.46 6.71 1.88 o
2 5 8 0.02 3.45 3.89 o
-8 6 8 1.99 4.54 4.52 o
-7 6 8 6.87 7.84 3.17 o
-6 6 8 3.72 3.45 3.71 o
-5 6 8 0.33 -2.40 2.40 o
-4 6 8 12.80 15.46 3.02 o
-3 6 8 16.22 13.32 2.57 o
-2 6 8 1.72 2.30 1.75 o
-1 6 8 5.71 4.73 1.71 o
0 6 8 5.38 13.60 4.33 o
1 6 8 8.80 15.13 3.86 o
2 6 8 0.00 -0.97 2.82 o
-7 7 8 30.60 34.49 5.00 o
-6 7 8 0.13 10.28 3.00 o
-4 7 8 15.97 16.41 3.11 o
-3 7 8 50.04 55.11 6.84 o
-2 7 8 5.63 15.73 4.60 o
-1 7 8 1.57 8.48 4.15 o
0 7 8 0.02 -3.17 4.15 o
1 7 8 0.01 -0.24 4.80 o
-6 8 8 10.12 0.15 4.70 o
-5 8 8 0.06 -4.30 4.30 o
-4 8 8 0.04 5.94 4.49 o
-3 8 8 7.36 7.65 3.28 o
-2 8 8 6.21 11.85 4.57 o
-1 8 8 0.07 11.47 4.92 o
-3 -11 9 0.81 4.24 2.24 o
-2 -11 9 0.08 2.30 2.25 o
-1 -11 9 0.85 2.61 2.35 o
0 -11 9 0.11 -2.05 3.36 o
1 -11 9 0.23 3.12 2.49 o
-4 -10 9 3.21 1.95 3.26 o
-3 -10 9 0.13 0.76 1.80 o
-2 -10 9 4.35 6.71 2.02 o
-1 -10 9 3.48 5.56 1.98 o
0 -10 9 0.37 1.43 2.34 o
1 -10 9 0.05 2.62 3.76 o
2 -10 9 0.78 -0.10 4.32 o
-5 -9 9 0.34 -3.80 3.80 o
-4 -9 9 7.63 5.18 1.27 o
-3 -9 9 1.62 2.53 2.78 o
-2 -9 9 0.49 -0.84 1.63 o
-1 -9 9 0.07 0.27 1.91 o
0 -9 9 6.86 5.06 2.27 o
1 -9 9 7.21 7.80 3.75 o
2 -9 9 0.00 1.22 3.47 o
3 -9 9 0.62 -3.27 3.27 o
-6 -8 9 4.12 4.87 4.62 o
-5 -8 9 17.63 15.84 1.83 o
-4 -8 9 3.52 3.61 1.22 o
-3 -8 9 8.43 7.96 1.02 o
-2 -8 9 0.06 -0.02 0.47 o
-1 -8 9 0.37 0.89 0.88 o
0 -8 9 1.34 1.16 2.78 o
1 -8 9 10.21 13.33 2.46 o
2 -8 9 9.84 3.02 2.53 o
3 -8 9 0.86 0.29 4.41 o
4 -8 9 0.01 4.54 4.40 o
-7 -7 9 0.52 0.68 2.49 o
-6 -7 9 1.37 2.58 3.90 o
-5 -7 9 0.08 0.36 0.88 o
-4 -7 9 20.07 23.34 1.86 o
-3 -7 9 10.25 13.75 1.40 o
-2 -7 9 6.99 6.55 1.25 o
-1 -7 9 0.19 1.76 1.58 o
0 -7 9 1.90 1.29 1.66 o
1 -7 9 7.05 10.02 2.34 o
2 -7 9 5.66 3.11 2.00 o
3 -7 9 0.06 0.05 3.75 o
4 -7 9 0.01 6.93 4.49 o
-7 -6 9 13.97 11.76 3.31 o
-6 -6 9 5.57 4.84 0.74 o
-5 -6 9 16.81 15.96 1.28 o
-4 -6 9 0.38 -0.06 2.98 o
-3 -6 9 0.84 2.30 3.73 o
-2 -6 9 5.30 3.34 1.76 o
-1 -6 9 0.11 0.47 0.86 o
0 -6 9 1.00 1.23 1.51 o
1 -6 9 3.42 1.75 2.07 o
2 -6 9 8.87 5.63 2.16 o
3 -6 9 0.63 0.29 3.59 o
4 -6 9 1.54 0.44 3.37 o
-8 -5 9 0.06 -1.41 2.39 o
-7 -5 9 20.79 28.09 3.63 o
-6 -5 9 1.97 1.51 0.93 o
-5 -5 9 35.02 27.70 1.93 o
-4 -5 9 18.07 20.25 1.69 o
-3 -5 9 2.33 2.70 1.68 o
-2 -5 9 11.79 11.64 2.03 o
-1 -5 9 12.11 14.66 1.77 o
0 -5 9 3.20 5.39 3.93 o
1 -5 9 0.38 2.42 1.95 o
2 -5 9 0.04 -1.66 1.66 o
3 -5 9 0.24 -3.38 3.38 o
4 -5 9 1.33 -4.35 4.35 o
-8 -4 9 0.12 3.91 2.98 o
-7 -4 9 14.33 12.05 0.92 o
-6 -4 9 5.66 5.71 1.23 o
-5 -4 9 53.29 51.94 5.97 o
-4 -4 9 1.27 0.81 1.78 o
-3 -4 9 0.04 0.76 1.32 o
-2 -4 9 1.19 0.00 0.49 o
-1 -4 9 1.69 2.30 1.31 o
0 -4 9 1.62 0.49 2.00 o
1 -4 9 1.62 0.68 0.68 o
2 -4 9 2.03 0.29 1.96 o
3 -4 9 0.49 -3.27 3.31 o
4 -4 9 1.03 5.57 4.09 o
-8 -3 9 21.54 23.49 4.67 o
-7 -3 9 3.96 3.79 0.98 o
-6 -3 9 19.88 17.73 1.59 o
-5 -3 9 19.21 15.82 1.54 o
-4 -3 9 8.44 11.60 2.34 o
-3 -3 9 23.42 24.71 1.77 o
-2 -3 9 3.13 1.97 1.35 o
-1 -3 9 11.93 14.17 2.16 o
0 -3 9 14.50 22.16 2.17 o
1 -3 9 0.58 2.15 0.84 o
2 -3 9 3.92 1.71 0.97 o
3 -3 9 0.51 -1.22 1.66 o
4 -3 9 0.20 -1.80 2.38 o
-8 -2 9 23.31 21.50 4.01 o
-7 -2 9 10.89 8.00 1.38 o
-6 -2 9 2.74 0.63 1.27 o
-5 -2 9 0.23 2.47 1.01 o
-4 -2 9 3.92 2.40 1.21 o
-3 -2 9 17.90 18.02 1.61 o
-2 -2 9 22.60 19.52 3.69 o
-1 -2 9 0.57 0.73 1.89 o
0 -2 9 4.36 1.71 2.04 o
1 -2 9 3.85 7.08 2.04 o
2 -2 9 9.04 10.28 1.34 o
3 -2 9 7.14 3.42 1.27 o
4 -2 9 2.35 4.10 3.65 o
-9 -1 9 0.14 5.06 3.30 o
-8 -1 9 5.17 4.39 1.32 o
-7 -1 9 18.79 18.93 1.88 o
-6 -1 9 0.02 3.96 1.42 o
-5 -1 9 9.19 5.44 1.55 o
-4 -1 9 15.47 11.69 1.55 o
-3 -1 9 22.90 25.31 4.88 o
-2 -1 9 13.23 15.19 1.69 o
-1 -1 9 9.84 4.16 1.57 o
0 -1 9 2.71 2.09 2.00 o
1 -1 9 4.35 3.72 1.70 o
2 -1 9 1.48 3.91 1.41 o
3 -1 9 1.95 3.02 1.70 o
4 -1 9 4.44 7.15 2.91 o
-9 0 9 0.00 -0.20 2.96 o
-8 0 9 0.01 -0.41 1.39 o
-7 0 9 19.59 18.12 4.23 o
-6 0 9 6.35 3.98 1.83 o
-5 0 9 0.24 2.42 1.76 o
-4 0 9 0.02 0.70 1.13 o
-3 0 9 30.83 30.48 1.93 o
-2 0 9 80.76 71.40 3.66 o
-1 0 9 120.03 124.22 6.23 o
0 0 9 15.44 15.63 2.32 o
1 0 9 0.14 4.18 1.66 o
2 0 9 1.86 2.23 1.57 o
3 0 9 11.89 12.29 2.45 o
4 0 9 1.95 6.39 4.45 o
-9 1 9 0.00 3.02 2.62 o
-8 1 9 0.20 0.14 1.43 o
-7 1 9 8.36 6.77 2.95 o
-6 1 9 0.28 3.07 1.92 o
-5 1 9 51.39 48.27 3.45 o
-4 1 9 4.94 5.21 1.25 o
-3 1 9 0.01 0.19 1.87 o
-2 1 9 60.99 62.16 4.18 o
-1 1 9 0.00 0.93 1.65 o
0 1 9 7.93 5.51 1.90 o
1 1 9 0.02 -1.80 1.80 o
2 1 9 4.67 9.70 1.70 o
3 1 9 0.98 2.19 2.30 o
4 1 9 6.20 8.69 4.45 o
-8 2 9 26.65 37.18 2.98 o
-7 2 9 3.27 0.34 1.27 o
-6 2 9 0.01 -2.75 2.75 o
-5 2 9 35.39 36.31 2.81 o
-4 2 9 3.16 2.05 1.85 o
-3 2 9 88.69 84.76 7.02 o
-2 2 9 0.43 -0.74 2.07 o
-1 2 9 0.87 1.31 1.95 o
0 2 9 5.49 8.77 2.44 o
1 2 9 17.81 12.44 1.97 o
2 2 9 0.02 3.85 2.30 o
3 2 9 0.47 0.93 2.05 o
-8 3 9 2.64 3.50 2.50 o
-7 3 9 0.24 1.95 2.12 o
-6 3 9 0.22 -0.56 3.17 o
-5 3 9 5.14 6.68 1.91 o
-4 3 9 0.01 0.96 2.51 o
-3 3 9 27.00 23.10 1.65 o
-2 3 9 0.01 0.45 1.83 o
-1 3 9 0.16 1.21 3.41 o
0 3 9 27.40 21.70 2.67 o
1 3 9 0.01 -0.29 1.79 o
2 3 9 0.04 -0.49 2.24 o
3 3 9 0.03 0.73 2.14 o
-8 4 9 0.52 -1.76 3.76 o
-7 4 9 16.86 19.74 3.57 o
-6 4 9 2.00 -0.28 1.90 o
-5 4 9 9.29 6.43 6.56 o
-4 4 9 35.20 38.37 3.41 o
-3 4 9 0.34 -0.83 2.28 o
-2 4 9 0.02 0.08 2.66 o
-1 4 9 1.92 4.75 3.80 o
0 4 9 4.68 4.24 2.10 o
1 4 9 0.25 0.97 2.53 o
2 4 9 2.87 5.31 4.35 o
-7 5 9 0.45 -3.76 3.76 o
-6 5 9 68.82 90.07 8.75 o
-5 5 9 0.52 4.24 3.77 o
-4 5 9 0.00 -0.13 2.07 o
-3 5 9 13.49 22.28 4.12 o
-2 5 9 0.61 0.37 0.99 o
-1 5 9 0.55 2.54 3.47 o
0 5 9 1.86 -2.62 3.80 o
1 5 9 1.78 6.35 4.40 o
-7 6 9 2.37 -0.20 4.95 o
-6 6 9 3.58 7.42 4.26 o
-5 6 9 0.02 -2.78 3.85 o
-4 6 9 0.63 2.19 3.70 o
-3 6 9 5.27 11.28 4.03 o
-2 6 9 9.42 20.86 5.04 o
-1 6 9 0.03 1.22 3.99 o
0 6 9 1.17 -0.05 4.05 o
-6 7 9 1.37 -4.44 4.44 o
-5 7 9 1.05 -4.39 4.68 o
-4 7 9 8.33 10.46 4.47 o
-3 7 9 0.04 -0.82 4.77 o
-2 7 9 0.04 -3.71 3.71 o
-1 7 9 5.03 4.33 4.24 o
-3 -10 10 0.68 1.46 2.48 o
-2 -10 10 0.46 -1.04 2.03 o
-1 -10 10 0.64 2.73 2.31 o
0 -10 10 0.00 4.18 2.77 o
1 -10 10 0.57 6.53 4.43 o
-5 -9 10 0.40 2.74 3.96 o
-4 -9 10 0.08 -1.65 1.99 o
-3 -9 10 2.27 2.69 1.21 o
-2 -9 10 0.12 0.84 1.14 o
-1 -9 10 0.01 0.45 1.80 o
0 -9 10 0.05 0.10 2.55 o
1 -9 10 0.08 -1.99 3.75 o
2 -9 10 3.00 1.07 4.87 o
-6 -8 10 1.25 3.22 4.09 o
-5 -8 10 0.12 4.72 3.76 o
-4 -8 10 3.80 3.17 1.52 o
-3 -8 10 4.91 4.18 1.37 o
-2 -8 10 3.12 3.29 1.29 o
-1 -8 10 0.15 -1.56 2.15 o
0 -8 10 1.66 2.21 2.04 o
1 -8 10 3.41 0.24 3.23 o
2 -8 10 2.48 8.72 4.33 o
3 -8 10 1.09 3.22 5.06 o
-6 -7 10 1.71 -1.07 4.15 o
-5 -7 10 13.65 11.85 1.49 o
-4 -7 10 43.02 42.13 4.12 o
-3 -7 10 6.60 7.36 1.33 o
-2 -7 10 3.40 4.77 1.18 o
-1 -7 10 2.50 2.05 0.82 o
0 -7 10 1.66 1.33 2.26 o
1 -7 10 0.01 1.13 2.54 o
2 -7 10 3.44 5.71 3.17 o
3 -7 10 1.12 -0.88 3.36 o
-7 -6 10 1.52 2.23 2.88 o
-6 -6 10 1.98 3.56 1.66 o
-5 -6 10 3.03 4.52 4.83 o
-4 -6 10 10.44 9.63 2.11 o
-3 -6 10 0.30 0.56 1.04 o
-2 -6 10 5.65 5.44 1.39 o
-1 -6 10 4.80 4.12 1.10 o
0 -6 10 0.43 0.44 1.69 o
1 -6 10 0.38 0.90 2.08 o
3 -6 10 0.02 4.16 4.44 o
-7 -5 10 5.96 6.29 3.82 o
-6 -5 10 6.78 6.50 1.42 o
-5 -5 10 3.89 4.87 1.98 o
-4 -5 10 23.03 23.14 4.32 o
-3 -5 10 14.47 15.84 1.84 o
-2 -5 10 70.10 66.32 3.68 o
-1 -5 10 4.13 4.44 1.73 o
0 -5 10 4.58 5.21 1.66 o
1 -5 10 0.08 1.41 2.09 o
2 -5 10 10.18 22.35 4.62 o
3 -5 10 0.58 -0.68 3.45 o
-8 -4 10 2.78 -0.68 4.13 o
-7 -4 10 1.12 2.69 1.81 o
-6 -4 10 2.69 4.59 1.47 o
-5 -4 10 0.18 0.08 1.34 o
-4 -4 10 21.98 23.34 2.88 o
-3 -4 10 4.34 6.55 4.44 o
-2 -4 10 10.36 9.92 2.82 o
-1 -4 10 29.88 27.29 2.26 o
0 -4 10 0.65 1.61 1.51 o
1 -4 10 3.31 4.48 2.39 o
2 -4 10 3.08 1.31 3.45 o
3 -4 10 2.92 -0.49 3.76 o
4 -4 10 0.81 1.65 3.27 o
-8 -3 10 14.14 17.97 4.03 o
-7 -3 10 0.30 2.74 1.41 o
-6 -3 10 6.99 5.84 1.52 o
-5 -3 10 17.31 12.58 1.73 o
-4 -3 10 0.64 1.54 1.31 o
-3 -3 10 27.25 31.04 6.02 o
-2 -3 10 5.94 4.70 1.64 o
-1 -3 10 0.01 -1.26 1.51 o
0 -3 10 7.20 4.10 1.81 o
1 -3 10 4.54 3.42 0.88 o
2 -3 10 0.01 -0.54 1.27 o
3 -3 10 1.48 -1.02 3.86 o
4 -3 10 0.00 -2.74 2.74 o
-7 -2 10 0.12 0.73 1.45 o
-6 -2 10 0.07 1.02 1.51 o
-5 -2 10 0.88 2.82 1.30 o
-4 -2 10 33.43 35.83 2.45 o
-3 -2 10 0.45 0.48 1.35 o
-2 -2 10 4.09 4.92 1.51 o
-1 -2 10 7.46 12.73 2.39 o
0 -2 10 1.75 3.32 1.81 o
1 -2 10 0.03 1.80 1.12 o
2 -2 10 0.50 0.93 1.38 o
3 -2 10 0.34 0.97 2.57 o
-8 -1 10 13.27 12.29 3.09 o
-7 -1 10 6.12 6.04 1.75 o
-6 -1 10 7.21 7.61 1.81 o
-5 -1 10 56.52 54.69 5.33 o
-4 -1 10 23.15 23.34 1.89 o
-3 -1 10 4.78 3.65 1.54 o
-2 -1 10 0.04 1.79 2.07 o
-1 -1 10 3.57 7.46 2.14 o
0 -1 10 19.12 18.87 2.67 o
1 -1 10 0.99 2.69 1.42 o
2 -1 10 0.21 -1.72 1.72 o
3 -1 10 0.14 5.02 4.35 o
-8 0 10 0.19 5.57 2.83 o
-7 0 10 8.78 9.21 2.11 o
-6 0 10 4.12 1.30 1.74 o
-5 0 10 0.24 -0.95 1.83 o
-4 0 10 27.21 24.03 2.01 o
-3 0 10 36.54 34.43 2.30 o
-2 0 10 232.92 262.14 15.93 o
-1 0 10 4.63 8.89 2.37 o
0 0 10 0.04 -2.29 2.29 o
1 0 10 2.16 3.27 1.41 o
2 0 10 0.50 3.27 1.77 o
3 0 10 0.02 6.64 4.28 o
-8 1 10 0.32 0.57 2.10 o
-7 1 10 3.97 8.79 3.84 o
-6 1 10 0.00 0.41 1.30 o
-5 1 10 0.65 2.46 2.22 o
-4 1 10 7.76 8.33 3.42 o
-3 1 10 27.77 24.83 2.16 o
-2 1 10 10.11 12.09 2.23 o
-1 1 10 35.81 43.09 3.67 o
0 1 10 19.41 25.28 3.09 o
1 1 10 0.41 2.78 2.05 o
2 1 10 0.06 -0.49 2.24 o
3 1 10 0.66 6.18 4.69 o
-8 2 10 10.51 15.33 4.84 o
-7 2 10 0.80 3.44 2.18 o
-6 2 10 29.53 35.11 4.37 o
-5 2 10 25.91 25.82 2.87 o
-4 2 10 24.16 21.21 1.69 o
-3 2 10 10.92 12.15 1.52 o
-2 2 10 67.98 67.45 4.70 o
-1 2 10 21.84 23.02 3.08 o
0 2 10 16.24 25.21 4.70 o
1 2 10 7.35 5.47 2.29 o
2 2 10 0.92 1.31 2.57 o
-8 3 10 4.85 4.69 3.75 o
-7 3 10 1.56 -2.64 2.64 o
-6 3 10 2.13 4.64 2.32 o
-5 3 10 7.22 3.42 5.13 o
-4 3 10 0.33 4.04 2.55 o
-3 3 10 0.39 -0.38 1.20 o
-2 3 10 3.50 0.73 3.83 o
-1 3 10 0.05 1.02 2.53 o
0 3 10 6.09 8.77 4.59 o
1 3 10 5.38 1.41 2.58 o
2 3 10 0.47 3.42 4.45 o
-7 4 10 1.68 1.07 3.98 o
-6 4 10 3.42 5.02 4.10 o
-5 4 10 0.13 -1.89 3.50 o
-4 4 10 4.63 7.96 3.90 o
-3 4 10 0.82 1.47 1.56 o
-2 4 10 1.05 0.25 1.32 o
-1 4 10 6.53 11.76 3.93 o
0 4 10 0.67 0.20 3.64 o
1 4 10 0.11 0.78 4.03 o
-7 5 10 9.92 9.66 4.55 o
-6 5 10 5.98 10.09 4.48 o
-5 5 10 0.02 1.13 4.06 o
-4 5 10 1.46 8.72 3.22 o
-3 5 10 0.18 -0.82 2.81 o
-2 5 10 29.47 36.07 5.20 o
-1 5 10 0.03 1.31 3.45 o
0 5 10 2.25 0.88 3.84 o
-5 6 10 0.08 -0.35 2.75 o
-4 6 10 1.26 3.74 4.67 o
-3 6 10 25.64 30.36 4.70 o
-2 6 10 8.86 20.16 5.46 o
-4 -9 11 4.08 6.50 3.38 o
-3 -9 11 1.71 0.73 1.60 o
-2 -9 11 0.18 1.36 1.96 o
-1 -9 11 0.86 2.69 3.18 o
0 -9 11 0.56 2.58 4.33 o
-5 -8 11 0.47 0.78 3.50 o
-4 -8 11 2.80 3.02 1.70 o
-3 -8 11 0.35 1.80 1.52 o
-2 -8 11 0.01 0.54 1.52 o
-1 -8 11 0.26 -0.31 1.51 o
0 -8 11 0.03 1.31 3.55 o
1 -8 11 0.29 -1.13 3.36 o
-6 -7 11 0.17 0.88 3.70 o
-5 -7 11 14.84 15.13 2.18 o
-4 -7 11 0.06 0.59 2.16 o
-3 -7 11 0.53 0.88 1.52 o
-2 -7 11 0.15 -0.10 1.13 o
-1 -7 11 6.47 6.57 1.07 o
0 -7 11 0.46 -1.89 1.89 o
1 -7 11 0.00 5.60 4.10 o
2 -7 11 0.86 2.58 4.98 o
-6 -6 11 7.80 4.87 3.42 o
-5 -6 11 7.61 7.69 1.66 o
-4 -6 11 15.40 11.53 2.05 o
-3 -6 11 0.54 -0.05 1.88 o
-2 -6 11 0.26 1.37 1.19 o
-1 -6 11 2.22 2.52 0.94 o
0 -6 11 0.12 -0.88 3.07 o
1 -6 11 0.01 0.10 2.45 o
2 -6 11 0.09 5.18 3.62 o
-6 -5 11 1.13 2.49 2.69 o
-5 -5 11 0.32 3.48 2.03 o
-4 -5 11 0.08 0.76 2.06 o
-3 -5 11 8.51 7.66 1.67 o
-2 -5 11 0.04 -1.17 1.69 o
-1 -5 11 1.32 1.31 3.63 o
0 -5 11 0.01 3.79 2.15 o
1 -5 11 2.50 1.99 2.25 o
2 -5 11 0.81 0.59 4.01 o
-6 -4 11 2.17 3.72 1.61 o
-5 -4 11 1.83 1.78 3.81 o
-4 -4 11 0.06 1.32 1.70 o
-3 -4 11 1.32 0.41 1.90 o
-2 -4 11 6.62 4.66 3.08 o
-1 -4 11 0.02 -0.50 1.87 o
0 -4 11 0.31 1.89 2.29 o
1 -4 11 0.07 -0.63 1.12 o
2 -4 11 0.00 2.45 3.87 o
-7 -3 11 2.13 1.31 2.19 o
-6 -3 11 6.47 8.44 2.15 o
-5 -3 11 4.02 4.05 3.13 o
-4 -3 11 1.05 -0.47 1.46 o
-3 -3 11 0.36 -0.41 1.60 o
-2 -3 11 9.79 8.25 1.91 o
-1 -3 11 3.62 0.20 2.19 o
0 -3 11 0.17 -1.80 1.80 o
1 -3 11 0.25 1.26 1.07 o
2 -3 11 0.44 -3.27 3.27 o
-7 -2 11 5.51 2.54 1.67 o
-6 -2 11 0.16 1.65 1.85 o
-5 -2 11 25.33 23.74 2.23 o
-4 -2 11 8.59 9.61 1.85 o
-3 -2 11 3.75 2.38 1.81 o
-2 -2 11 15.57 18.11 2.16 o
-1 -2 11 32.05 37.51 3.25 o
0 -2 11 0.22 2.19 2.48 o
1 -2 11 0.90 -0.49 1.46 o
-8 -1 11 1.04 -2.97 3.52 o
-7 -1 11 1.23 -1.31 1.71 o
-6 -1 11 5.02 9.96 2.38 o
-5 -1 11 0.70 2.09 1.75 o
-4 -1 11 18.69 17.20 2.07 o
-3 -1 11 0.22 -0.72 2.58 o
-2 -1 11 18.21 19.17 1.88 o
-1 -1 11 2.07 5.31 2.25 o
0 -1 11 1.83 2.69 2.84 o
1 -1 11 5.79 9.19 2.16 o
2 -1 11 0.00 6.25 3.42 o
-8 0 11 0.18 -0.73 3.40 o
-7 0 11 9.88 11.19 2.34 o
-6 0 11 1.53 2.19 2.23 o
-5 0 11 3.59 6.44 1.61 o
-4 0 11 5.78 4.41 1.41 o
-3 0 11 27.32 22.90 2.27 o
-2 0 11 4.21 4.07 3.03 o
-1 0 11 4.21 2.23 2.48 o
0 0 11 0.59 1.02 3.17 o
1 0 11 4.46 4.87 2.10 o
2 0 11 1.65 1.02 3.90 o
-7 1 11 1.04 -0.87 2.22 o
-6 1 11 0.38 0.64 2.39 o
-5 1 11 0.02 -0.10 1.71 o
-4 1 11 5.99 4.50 3.86 o
-3 1 11 4.75 6.99 1.73 o
-2 1 11 16.74 12.47 1.95 o
-1 1 11 1.37 0.05 2.76 o
0 1 11 0.00 1.51 4.24 o
1 1 11 7.14 2.78 1.65 o
-7 2 11 0.12 4.16 3.42 o
-6 2 11 1.37 -2.15 2.15 o
-5 2 11 1.99 1.89 1.88 o
-4 2 11 0.24 -0.25 1.49 o
-3 2 11 3.75 5.50 1.78 o
-2 2 11 0.17 3.52 1.75 o
-1 2 11 6.69 10.77 3.85 o
0 2 11 0.19 7.15 4.18 o
1 2 11 0.01 1.80 4.04 o
-7 3 11 0.20 1.22 3.56 o
-6 3 11 16.61 20.60 5.07 o
-5 3 11 9.37 6.82 4.34 o
-4 3 11 0.03 2.15 2.89 o
-3 3 11 3.13 7.42 3.92 o
-2 3 11 0.10 -1.57 1.57 o
-1 3 11 0.02 1.46 4.05 o
0 3 11 3.15 3.96 4.12 o
-6 4 11 6.00 7.69 3.25 o
-5 4 11 1.76 1.07 3.94 o
-4 4 11 2.75 7.69 4.03 o
-3 4 11 0.14 -0.54 4.25 o
-2 4 11 1.85 1.80 3.59 o
-1 4 11 0.27 -3.72 3.72 o
-5 5 11 0.15 2.34 3.31 o
-4 5 11 1.77 1.76 4.21 o
-3 5 11 6.56 5.47 4.64 o
-3 -8 12 3.94 9.44 2.79 o
-2 -8 12 1.10 1.07 3.45 o
-1 -8 12 0.00 -0.49 2.78 o
-5 -7 12 0.81 4.18 3.03 o
-4 -7 12 0.56 -1.62 1.62 o
-3 -7 12 1.02 -0.05 1.68 o
-2 -7 12 0.59 2.38 2.39 o
-1 -7 12 6.89 4.72 3.46 o
0 -7 12 0.04 5.31 4.44 o
-5 -6 12 3.26 9.57 2.94 o
-4 -6 12 0.13 1.61 1.95 o
-3 -6 12 1.47 0.93 2.34 o
-2 -6 12 4.68 2.74 2.54 o
-1 -6 12 0.83 4.18 2.55 o
0 -6 12 0.96 -0.10 2.26 o
1 -6 12 0.31 5.57 4.88 o
-6 -5 12 0.64 4.24 2.79 o
-5 -5 12 3.86 0.82 2.09 o
-4 -5 12 0.11 -1.92 1.92 o
-3 -5 12 1.37 4.04 1.70 o
-2 -5 12 0.01 2.89 2.28 o
-1 -5 12 1.45 7.76 3.77 o
0 -5 12 1.50 2.23 3.80 o
1 -5 12 0.22 -2.45 3.13 o
-6 -4 12 0.21 0.64 3.12 o
-5 -4 12 0.39 0.92 1.48 o
-4 -4 12 20.45 19.40 2.21 o
-3 -4 12 0.05 0.67 1.65 o
-2 -4 12 1.00 2.41 2.73 o
-1 -4 12 1.60 3.32 2.48 o
0 -4 12 1.24 0.00 0.49 o
1 -4 12 0.44 4.63 3.84 o
-6 -3 12 1.73 0.61 1.61 o
-5 -3 12 0.82 3.13 1.90 o
-4 -3 12 3.52 3.75 1.80 o
-3 -3 12 6.99 6.87 1.82 o
-2 -3 12 1.69 4.73 1.77 o
-1 -3 12 0.10 2.54 3.07 o
0 -3 12 0.02 -2.38 3.71 o
1 -3 12 0.56 -1.95 3.86 o
-7 -2 12 8.15 3.12 2.54 o
-6 -2 12 0.00 1.02 2.39 o
-5 -2 12 3.89 2.51 1.42 o
-4 -2 12 19.28 19.47 2.44 o
-3 -2 12 2.14 5.25 2.02 o
-2 -2 12 29.63 35.30 3.10 o
-1 -2 12 16.63 13.80 4.10 o
0 -2 12 2.30 2.34 4.18 o
1 -2 12 0.36 1.51 4.72 o
-7 -1 12 0.04 2.09 2.24 o
-6 -1 12 3.50 4.59 2.39 o
-5 -1 12 0.13 -1.69 1.69 o
-4 -1 12 1.95 2.30 3.37 o
-3 -1 12 3.23 1.57 1.48 o
-2 -1 12 7.53 6.52 3.13 o
-1 -1 12 9.97 14.22 4.16 o
0 -1 12 0.37 -0.35 4.46 o
1 -1 12 0.34 7.76 5.06 o
-7 0 12 0.30 0.49 2.54 o
-6 0 12 1.39 0.15 3.28 o
-5 0 12 0.04 -2.66 2.66 o
-4 0 12 10.31 6.57 1.92 o
-3 0 12 5.65 4.46 1.91 o
-2 0 12 0.02 -1.87 1.87 o
-1 0 12 0.76 2.09 3.94 o
0 0 12 0.00 1.65 4.43 o
-6 1 12 0.22 -1.26 3.31 o
-5 1 12 9.37 4.24 3.57 o
-4 1 12 0.60 0.10 2.07 o
-3 1 12 2.86 3.56 2.11 o
-2 1 12 0.02 0.44 4.63 o
-1 1 12 2.68 -1.26 3.94 o
0 1 12 8.72 11.66 5.20 o
-6 2 12 0.37 -1.17 3.70 o
-5 2 12 0.54 3.61 4.06 o
-4 2 12 1.23 3.72 3.90 o
-3 2 12 0.15 -0.97 2.48 o
-2 2 12 0.27 6.14 3.60 o
-1 2 12 1.08 -0.39 2.96 o
-5 3 12 0.04 3.12 4.19 o
-4 3 12 0.96 1.07 3.31 o
-3 3 12 0.37 1.31 2.81 o
-2 3 12 10.93 10.01 4.59 o
-3 -6 13 0.03 0.35 4.36 o
-2 -6 13 0.02 -2.23 4.17 o
-4 -5 13 0.01 -0.29 2.67 o
-3 -5 13 0.02 7.76 3.07 o
-2 -5 13 0.86 1.31 4.10 o
-1 -5 13 0.12 6.39 4.70 o
-5 -4 13 0.27 -0.20 2.62 o
-4 -4 13 0.00 2.54 2.29 o
-3 -4 13 0.02 3.45 3.71 o
-2 -4 13 0.05 -3.76 3.76 o
-1 -4 13 6.35 6.68 4.48 o
-5 -3 13 0.58 2.53 3.46 o
-4 -3 13 6.03 8.07 3.42 o
-3 -3 13 2.19 4.75 6.48 o
-2 -3 13 0.02 0.78 2.58 o
-1 -3 13 2.29 2.45 4.15 o
-5 -2 13 0.00 0.01 4.46 o
-4 -2 13 0.90 4.07 2.45 o
-3 -2 13 2.80 4.25 5.26 o
-2 -2 13 15.49 18.99 9.81 o
-1 -2 13 0.13 6.25 4.82 o
-5 -1 13 0.03 0.59 3.76 o
-4 -1 13 0.52 -0.70 4.24 o
-3 -1 13 3.26 2.51 2.62 o
-2 -1 13 0.85 0.26 2.78 o
-1 -1 13 2.03 4.84 4.09 o
-5 0 13 2.41 1.46 4.18 o
-4 0 13 0.10 5.41 4.15 o
-3 0 13 6.80 6.71 3.98 o
-2 0 13 4.48 5.71 3.20 o
