#------------------------------------------------------------------------------
#$Date: 2022-02-22 12:13:47 +0200 (Tue, 22 Feb 2022) $
#$Revision: 273100 $
#$URL: file:///home/coder/svn-repositories/cod/cif/8/10/45/8104596.cif $
#------------------------------------------------------------------------------
#
# This file is available in the Crystallography Open Database (COD),
# http://www.crystallography.net/
#
# All data on this site have been placed in the public domain by the
# contributors.
#
data_8104596
loop_
_publ_author_name
'Velcheva, Vyara'
'Hegetschweiler, Kaspar'
'Gencheva, Galina'
_publ_section_title
;
 Crystal structure of all-cis-2,4,6-trihydroxycyclohexane-
 1,3,5-triaminium chloride sulfate, C6H18ClN3O7S
;
_journal_issue                   6
_journal_name_full
'Zeitschrift f\"ur Kristallographie - New Crystal Structures'
_journal_page_first              1319
_journal_page_last               1321
_journal_paper_doi               10.1515/ncrs-2021-0324
_journal_volume                  236
_journal_year                    2021
_chemical_absolute_configuration ad
_chemical_formula_moiety         '1(Cl), O4 S1, C6 H18 N3 O3'
_chemical_formula_sum            'C6 H18 Cl N3 O7 S'
_chemical_formula_weight         311.74
_chemical_name_systematic
'all-<i>cis</i> -2,4,6-trihydroxycyclohexane-1,3,5-triaminium chloride sulfate'
_space_group_crystal_system      trigonal
_space_group_IT_number           159
_space_group_name_Hall           'P 3 -2c'
_space_group_name_H-M_alt        'P 3 1 c'
_atom_sites_solution_hydrogens   geom
_atom_sites_solution_primary     dual
_cell_angle_alpha                90
_cell_angle_beta                 90
_cell_angle_gamma                120
_cell_formula_units_Z            2
_cell_length_a                   8.3990(14)
_cell_length_b                   8.3990(14)
_cell_length_c                   9.6208(17)
_cell_measurement_reflns_used    1167
_cell_measurement_temperature    300.15
_cell_measurement_theta_max      25.03
_cell_measurement_theta_min      2.80
_cell_volume                     587.76(17)
_computing_cell_refinement       'SAINT v8.34A (Bruker, 2013)'
_computing_data_reduction        'SAINT v8.34A (Bruker, 2013)'
_computing_molecular_graphics    'Olex2 1.3 (Dolomanov et al., 2009)'
_computing_publication_material  'Olex2 1.3 (Dolomanov et al., 2009)'
_computing_structure_refinement  'SHELXL 2018/3 (Sheldrick, 2015)'
_computing_structure_solution    'SHELXT 2014/5 (Sheldrick, 2014)'
_diffrn_ambient_temperature      300.15
_diffrn_measured_fraction_theta_full 0.997
_diffrn_measured_fraction_theta_max 0.997
_diffrn_measurement_device_type  'Bruker APEX-II CCD'
_diffrn_measurement_method       '\f and \w scans'
_diffrn_radiation_type           MoK\a
_diffrn_radiation_wavelength     0.71073
_diffrn_reflns_av_R_equivalents  0.0455
_diffrn_reflns_av_unetI/netI     0.0580
_diffrn_reflns_Laue_measured_fraction_full 0.997
_diffrn_reflns_Laue_measured_fraction_max 0.997
_diffrn_reflns_limit_h_max       6
_diffrn_reflns_limit_h_min       -10
_diffrn_reflns_limit_k_max       7
_diffrn_reflns_limit_k_min       -8
_diffrn_reflns_limit_l_max       11
_diffrn_reflns_limit_l_min       -11
_diffrn_reflns_number            1923
_diffrn_reflns_point_group_measured_fraction_full 0.992
_diffrn_reflns_point_group_measured_fraction_max 0.991
_diffrn_reflns_theta_full        25.242
_diffrn_reflns_theta_max         25.737
_diffrn_reflns_theta_min         2.800
_diffrn_source_current           1.0
_diffrn_source_power             0.04971
_diffrn_source_voltage           49.71
_diffrn_standards_number         0
_exptl_absorpt_coefficient_mu    0.536
_exptl_absorpt_correction_T_max  0.7453
_exptl_absorpt_correction_T_min  0.4569
_exptl_absorpt_correction_type   multi-scan
_exptl_absorpt_process_details
'SADABS-2014/5 (Bruker,2014/5) was used for absorption correction. wR2(int) was 0.1885 before and 0.0803 after correction. The Ratio of minimum to maximum transmission is 0.6130. The \l/2 correction factor is 0.00150.'
_exptl_crystal_colour            'clear colourless'
_exptl_crystal_colour_lustre     clear
_exptl_crystal_colour_primary    colourless
_exptl_crystal_density_diffrn    1.761
_exptl_crystal_description       prism
_exptl_crystal_F_000             328
_exptl_crystal_size_max          0.45
_exptl_crystal_size_mid          0.07
_exptl_crystal_size_min          0.05
_refine_diff_density_max         0.762
_refine_diff_density_min         -0.392
_refine_diff_density_rms         0.086
_refine_ls_abs_structure_details
;
 Flack x determined using 265 quotients [(I+)-(I-)]/[(I+)+(I-)]
 (Parsons, Flack and Wagner, Acta Cryst. B69 (2013) 249-259).
;
_refine_ls_abs_structure_Flack   -0.08(11)
_refine_ls_extinction_coef       .
_refine_ls_extinction_method     none
_refine_ls_goodness_of_fit_ref   1.127
_refine_ls_hydrogen_treatment    constr
_refine_ls_matrix_type           full
_refine_ls_number_parameters     57
_refine_ls_number_reflns         753
_refine_ls_number_restraints     1
_refine_ls_restrained_S_all      1.126
_refine_ls_R_factor_all          0.0595
_refine_ls_R_factor_gt           0.0497
_refine_ls_shift/su_max          0.000
_refine_ls_shift/su_mean         0.000
_refine_ls_structure_factor_coef Fsqd
_refine_ls_weighting_details
'w=1/[\s^2^(Fo^2^)+(0.0614P)^2^+0.7962P] where P=(Fo^2^+2Fc^2^)/3'
_refine_ls_weighting_scheme      calc
_refine_ls_wR_factor_gt          0.1336
_refine_ls_wR_factor_ref         0.1404
_reflns_Friedel_coverage         0.966
_reflns_Friedel_fraction_full    0.986
_reflns_Friedel_fraction_max     0.984
_reflns_number_gt                648
_reflns_number_total             753
_reflns_threshold_expression     'I > 2\s(I)'
_iucr_refine_instructions_details
;
TITL taci2_a.res in P31c
    taci2.res
    created by SHELXL-2018/3 at 14:29:54 on 23-Jul-2021
REM Old TITL taci2 in P-31c
REM SHELXT solution in P31c
REM R1 0.104, Rweak 0.009, Alpha 0.003, Orientation as input
REM Flack x = -0.025 ( 0.102 ) from Parsons' quotients
REM Formula found by SHELXT: C6 N3 O7 Cl2
CELL 0.71073 8.399 8.399 9.6208 90 90 120
ZERR 2 0.0014 0.0014 0.0017 0 0 0
LATT -1
SYMM -Y,+X-Y,+Z
SYMM +Y-X,-X,+Z
SYMM +Y,+X,0.5+Z
SYMM -Y+X,-Y,0.5+Z
SYMM -X,-X+Y,0.5+Z
SFAC C H Cl N O S
UNIT 12 36 2 6 14 2
EQIV $1 +Y-X,1-X,+Z
EQIV $2 -1+Y,+X,-0.5+Z

L.S. 50
PLAN  1
TEMP 27
HTAB O1 O2S
HTAB N1 Cl1
CONF
HTAB N1 O2S_$1
HTAB N1 O3S_$2
HTAB
BOND $H
list 4
MORE -3
fmap 2
acta
REM <olex2.extras>
REM <HklSrc "%.\\taci2.hkl">
REM </olex2.extras>

WGHT    0.061400    0.796200
FVAR       0.96825
CL1   3    0.666667    0.333333    0.194900    10.33333    0.01500    0.01500 =
         0.06574    0.00000    0.00000    0.00750
S1    6    0.666667    1.333333    0.644390    10.33333    0.02106    0.02106 =
         0.02238    0.00000    0.00000    0.01053
O1    5    0.795449    0.996606    0.515279    11.00000    0.02766    0.02795 =
         0.02877    0.00286    0.00622    0.01605
AFIX 147
H1    2    0.743824    1.054749    0.534496    11.00000   -1.50000
AFIX   0

O2S   5    0.575316    1.140187    0.597064    11.00000    0.03010    0.02122 =
         0.03504   -0.00762   -0.00591    0.00882
O3S   5    0.666667    1.333333    0.802810    10.33333    0.02442    0.02442 =
         0.02824    0.00000    0.00000    0.01221
N1    4    0.659901    0.660835    0.370768    11.00000    0.01581    0.01735 =
         0.03335    0.00563   -0.00294    0.00491
AFIX 137
H1A   2    0.651569    0.563658    0.326896    11.00000   -1.20000
H1B   2    0.560576    0.669403    0.352483    11.00000   -1.20000
H1C   2    0.667730    0.648046    0.461927    11.00000   -1.20000
AFIX   0
C2    1    0.820177    0.999044    0.371367    11.00000    0.01883    0.02220 =
         0.02303    0.00501    0.00163    0.01176
AFIX  13
H2    2    0.716462    1.000265    0.325758    11.00000   -1.20000
AFIX   0
C1    1    0.826626    0.830181    0.322330    11.00000    0.02112    0.01751 =
         0.02111    0.00256    0.00057    0.00817
AFIX  13
H1D   2    0.825454    0.829876    0.220471    11.00000   -1.20000
AFIX   0
HKLF 4




REM  taci2_a.res in P31c
REM wR2 = 0.1404, GooF = S = 1.127, Restrained GooF = 1.126 for all data
REM R1 = 0.0497 for 648 Fo > 4sig(Fo) and 0.0595 for all 753 data
REM 57 parameters refined using 1 restraints

END  
     
WGHT      0.0614      0.7962 

REM Instructions for potential hydrogen bonds
HTAB O1 S1
HTAB O1 O2S
HTAB N1 Cl1
HTAB N1 S1_$2
HTAB N1 O3S_$2
HTAB N1 O2S_$1
EQIV $7 y, x, z-1/2
HTAB C1 O1_$7
EQIV $8 x-y+1, -y+2, z-1/2
HTAB C1 O1_$8

REM Highest difference peak  0.762,  deepest hole -0.392,  1-sigma level  0.086
Q1    1   0.6667  1.3333  0.9321  10.33333  0.05    0.45

  REM The information below was added by Olex2.
  REM
  REM R1 = 0.0497 for 648 Fo > 4sig(Fo) and 0.0595 for all 2054 data
  REM 57 parameters refined using n/a restraints
  REM Highest difference peak 0.76, deepest hole -0.39
  REM Mean Shift 0, Max Shift 0.000.

  REM +++ Tabular Listing of Refinement Information +++
  REM R1_all = 0.0595
  REM R1_gt = 0.0497
  REM wR_ref = 0.1404
  REM GOOF = 1.127
  REM Shift_max = 0.000
  REM Shift_mean = 0
  REM Reflections_all = 2054
  REM Reflections_gt = 648
  REM Parameters = 57
  REM Hole = -0.39
  REM Peak = 0.76
  REM Flack = -0.08(11)

  
;
_cod_data_source_file            suppl_j_ncrs-2021-0324_suppl.cif
_cod_data_source_block           taci2
_cod_original_cell_volume        587.8(2)
_cod_database_code               8104596
_shelx_space_group_comment
;
The symmetry employed for this shelxl refinement is uniquely defined
by the following loop, which should always be used as a source of
symmetry information in preference to the above space-group names.
They are only intended as comments.
;
_olex2_refinement_description
;
1.a Ternary CH refined with riding coordinates:
 C2(H2), C1(H1D)
1.b Idealised Me refined as rotating group:
 N1(H1A,H1B,H1C)
1.c Idealised tetrahedral OH refined as rotating group:
 O1(H1)
;
_olex2_submission_special_instructions 'No special instructions were received'
loop_
_space_group_symop_operation_xyz
'x, y, z'
'-y, x-y, z'
'-x+y, -x, z'
'y, x, z+1/2'
'x-y, -y, z+1/2'
'-x, -x+y, z+1/2'
loop_
_atom_site_label
_atom_site_type_symbol
_atom_site_fract_x
_atom_site_fract_y
_atom_site_fract_z
_atom_site_U_iso_or_equiv
_atom_site_adp_type
_atom_site_occupancy
_atom_site_site_symmetry_order
_atom_site_calc_flag
_atom_site_refinement_flags_posn
_atom_site_refinement_flags_adp
_atom_site_refinement_flags_occupancy
_atom_site_disorder_assembly
_atom_site_disorder_group
Cl1 Cl 0.666667 0.333333 0.1949(5) 0.0319(11) Uani 1 3 d S T P . .
S1 S 0.666667 1.333333 0.6444(3) 0.0215(8) Uani 1 3 d S T P . .
O1 O 0.7954(8) 0.9966(7) 0.5153(7) 0.0272(14) Uani 1 1 d . . . . .
H1 H 0.743824 1.054749 0.534496 0.041 Uiso 1 1 calc R U . . .
O2S O 0.5753(8) 1.1402(6) 0.5971(7) 0.0306(13) Uani 1 1 d . . . . .
O3S O 0.666667 1.333333 0.8028(10) 0.026(2) Uani 1 3 d S T P . .
N1 N 0.6599(8) 0.6608(8) 0.3708(7) 0.0237(15) Uani 1 1 d . . . . .
H1A H 0.651569 0.563658 0.326896 0.028 Uiso 1 1 calc R U . . .
H1B H 0.560576 0.669403 0.352483 0.028 Uiso 1 1 calc R U . . .
H1C H 0.667730 0.648046 0.461927 0.028 Uiso 1 1 calc R U . . .
C2 C 0.8202(10) 0.9990(11) 0.3714(10) 0.0207(15) Uani 1 1 d . . . . .
H2 H 0.716462 1.000265 0.325758 0.025 Uiso 1 1 calc R U . . .
C1 C 0.8266(11) 0.8302(11) 0.3223(8) 0.0206(16) Uani 1 1 d . . . . .
H1D H 0.825454 0.829876 0.220471 0.025 Uiso 1 1 calc R U . . .
loop_
_atom_site_aniso_label
_atom_site_aniso_U_11
_atom_site_aniso_U_22
_atom_site_aniso_U_33
_atom_site_aniso_U_23
_atom_site_aniso_U_13
_atom_site_aniso_U_12
Cl1 0.0150(9) 0.0150(9) 0.066(3) 0.000 0.000 0.0075(5)
S1 0.0211(11) 0.0211(11) 0.0224(16) 0.000 0.000 0.0105(5)
O1 0.028(3) 0.028(3) 0.029(3) 0.003(3) 0.006(3) 0.016(2)
O2S 0.030(3) 0.021(3) 0.035(3) -0.008(2) -0.006(2) 0.009(3)
O3S 0.024(4) 0.024(4) 0.028(5) 0.000 0.000 0.0122(19)
N1 0.016(3) 0.017(3) 0.033(4) 0.006(3) -0.003(3) 0.005(3)
C2 0.019(4) 0.022(4) 0.023(4) 0.005(3) 0.002(3) 0.012(3)
C1 0.021(4) 0.018(4) 0.021(4) 0.003(3) 0.001(3) 0.008(3)
loop_
_atom_type_symbol
_atom_type_description
_atom_type_scat_dispersion_real
_atom_type_scat_dispersion_imag
_atom_type_scat_source
C C 0.0033 0.0016 'International Tables Vol C Tables 4.2.6.8 and 6.1.1.4'
H H 0.0000 0.0000 'International Tables Vol C Tables 4.2.6.8 and 6.1.1.4'
Cl Cl 0.1484 0.1585 'International Tables Vol C Tables 4.2.6.8 and 6.1.1.4'
N N 0.0061 0.0033 'International Tables Vol C Tables 4.2.6.8 and 6.1.1.4'
O O 0.0106 0.0060 'International Tables Vol C Tables 4.2.6.8 and 6.1.1.4'
S S 0.1246 0.1234 'International Tables Vol C Tables 4.2.6.8 and 6.1.1.4'
loop_
_diffrn_refln_index_h
_diffrn_refln_index_k
_diffrn_refln_index_l
_diffrn_refln_intensity_net
_diffrn_refln_intensity_u
1 0 0 44.7 3.6
-1 1 0 40.6 2.8
1 -1 0 38.7 2.8
0 1 0 43.4 2.9
-2 1 0 3267.77 157.18
1 1 0 3177.78 157.18
-1 2 0 3309.27 155.58
-1 -1 0 3197.98 157.08
2 -1 0 3365.46 157.18
2 0 0 870.51 46.9
0 -2 0 947.71 45.7
-2 2 0 923.81 45.6
-2 0 0 944.31 47
0 2 0 940.91 45.7
2 -2 0 948.11 45.6
-3 1 0 4720.93 224.38
1 2 0 4575.34 223.88
3 -1 0 4683.93 224.48
-2 3 0 4711.23 221.78
-1 -2 0 4608.04 223.58
-2 3 0 4615.34 223.28
-3 2 0 4740.03 227.48
2 1 0 4684.23 228.28
1 -3 0 4717.73 225.98
3 -2 0 4896.11 227.48
-1 3 0 4772.82 225.58
-2 -1 0 4573.24 227.98
0 -3 0 2599.24 125.29
-3 3 0 2603.24 125.19
3 -3 0 2601.14 125.09
-3 0 0 2499.25 127.09
0 3 0 2629.14 125.39
1 3 0 356.16 19.2
-4 1 0 279.57 19.2
-3 4 0 312.57 16.4
-1 -3 0 316.97 18.5
-4 2 0 1022.9 54.89
-2 -2 0 1121.99 55.09
-4 3 0 308.17 18.3
1 -4 0 325.17 17.2
4 -3 0 297.67 18.2
-1 4 0 316.07 16.6
-3 -1 0 316.77 19.5
0 -4 0 288.07 16.6
-4 4 0 301.77 16.5
4 -4 0 286.37 16.4
0 4 0 276.77 16.7
-4 0 0 278.47 18.8
-5 1 0 2393.66 116.09
-1 -4 0 2255.57 113.59
-4 5 0 2285.57 111.39
-5 2 0 1351.16 68.99
-2 -3 0 1317.07 68.09
-5 3 0 1347.87 68.79
-3 -2 0 1344.07 69.39
-5 4 0 2332.67 113.89
1 -5 0 2316.87 112.59
-1 5 0 2325.17 112.09
-4 -1 0 2263.97 115.89
0 -5 0 432.36 25.3
-5 5 0 460.85 25
-5 0 0 479.55 28.6
5 -5 0 459.35 25.2
0 5 0 456.35 25.6
-6 1 0 47 8.3
-5 6 0 53.19 10.6
-1 -5 0 59.19 7.5
-5 6 0 58.29 5.4
-6 2 0 436.06 27.5
-2 -4 0 435.76 26.1
-6 3 0 2146.39 106.99
-3 -3 0 2088.39 106.69
-6 4 0 410.26 24.5
-4 -2 0 385.86 25.4
-6 5 0 54.39 7.1
1 -6 0 45.9 6.4
-1 6 0 50.69 5.9
-5 -1 0 79.29 10.4
-6 6 0 3334.27 162.58
0 -6 0 3276.67 163.68
-6 0 0 3444.86 167.78
-7 1 0 112.19 14.1
-1 -6 0 125.49 12.4
-7 2 0 684.13 40.9
-2 -5 0 688.23 38.9
-7 3 0 998.1 55.39
-3 -4 0 1013.9 54.79
-7 4 0 1002.2 55.29
-4 -3 0 1044.5 56.39
-7 5 0 687.53 38.5
-5 -2 0 677.23 40.7
-7 6 0 128.09 11.5
1 -7 0 143.69 12.2
-6 -1 0 164.58 16.9
0 -7 0 -2.6 4
-7 0 0 -0.5 4.3
-8 1 0 107.09 15.4
-1 -7 0 110.79 12.8
-8 2 0 240.48 21.2
-2 -6 0 245.18 18.7
-8 3 0 338.17 25.6
-3 -5 0 364.06 24.6
-8 4 0 493.35 31.1
-4 -4 0 461.25 30.6
-8 5 0 373.26 25.4
-5 -3 0 379.56 26.9
-8 6 0 268.77 19.2
-6 -2 0 253.17 21.9
-7 -1 0 117.19 15.7
-8 0 0 250.57 24.8
-9 1 0 201.08 23
-9 2 0 208.38 21.9
-2 -7 0 210.68 19
-9 3 0 401.26 30
-3 -6 0 429.86 28.8
-9 4 0 64.89 11.5
-4 -5 0 64.19 11
-9 5 0 71.99 11.7
-5 -4 0 77.39 12.5
-9 6 0 444.96 28.8
-6 -3 0 401.46 30.6
-7 -2 0 285.47 25
-8 -1 0 162.88 19.8
-3 -7 0 253.27 25.3
-10 4 0 -1.2 6.7
-4 -6 0 -1.7 6.5
-10 5 0 517.75 36.2
-5 -5 0 570.84 37.1
-10 6 0 2.1 6.2
-6 -4 0 13.1 7.9
0 0 -1 0.9 1.8
0 0 1 -0.2 1.2
1 -1 -1 534.25 24.9
-1 0 -1 505.45 25.4
0 1 -1 498.15 25.5
0 -1 1 406.86 25.4
-1 1 1 506.65 25
1 0 1 544.75 25.6
-1 1 -1 524.25 27.2
0 -1 -1 533.85 26.8
1 0 -1 531.25 27.4
-1 0 1 553.74 27.6
0 1 1 552.04 26.9
1 -1 1 558.84 27.3
-1 2 -1 -0.4 2.4
-1 -1 -1 -3.3 1.5
2 -1 -1 -5.2 1.4
1 -2 1 -0.9 3.6
-2 1 1 -2 1.5
1 1 1 -2.4 1.7
-1 3 -1 198.88 11.4
3 -2 -1 191.48 11.9
-2 -1 -1 194.08 12.7
1 -3 1 195.08 12.9
2 1 1 197.08 13
-3 2 1 188.58 11.9
-2 0 -1 50.89 5.9
2 -2 -1 64.59 4.6
-2 2 1 70.19 4.7
2 0 1 77.19 6.4
0 -2 1 58.89 5.6
1 -2 -1 -8.2 0.7
-2 1 -1 -7.4 1.6
1 1 -1 -9.5 1.5
1 -2 -1 -6.2 1.3
-1 -1 1 -7 1.7
2 -1 1 -5.6 1.8
-2 2 -1 62.69 5.2
0 -2 -1 58.29 4.7
2 -2 1 74.59 5.6
-2 0 1 75.29 6.1
0 2 1 63.19 4.8
-2 3 -1 201.48 14.4
3 -1 -1 208.78 12.6
-1 -2 -1 198.18 12
-2 3 -1 188.88 11.1
1 2 1 182.28 12.1
-3 1 1 175.38 12.3
-2 -2 -1 -1.7 2.4
-2 4 -1 -1.2 2.1
-4 2 1 1 2.5
-2 5 -1 2.7 1.7
-3 -2 -1 5 3.2
-5 3 1 3.3 2.9
2 -5 1 5.6 5.9
-3 -1 -1 6 3.3
4 -3 -1 9.8 2.9
-1 4 -1 5.2 2.2
-4 3 1 12.6 3.2
1 -4 1 14.2 4.1
3 -3 -1 459.35 23.7
-3 0 -1 425.36 25.7
0 3 -1 452.95 24.4
-3 3 1 484.65 23.8
0 -3 1 452.45 24.9
1 2 -1 195.68 12
-3 1 -1 181.18 12.3
-1 -2 1 167.28 11.7
3 -1 1 197.08 12.6
-3 2 -1 180.78 11.5
2 1 -1 176.48 11.9
1 -3 -1 188.48 9.1
3 -2 1 168.68 11.3
-2 -1 1 155.68 11.7
-1 3 1 170.98 9.2
0 -3 -1 461.25 25.1
-3 3 -1 484.05 25.7
3 -3 1 487.85 25.9
0 3 1 476.95 25.3
-3 0 1 540.35 27.8
-3 4 -1 11.7 6.5
-3 4 -1 8.3 2.2
-1 -3 -1 5.2 2.7
1 3 1 9.8 3.5
-4 1 1 13.2 3.9
-3 5 -1 4.6 2
-3 5 -1 0 2.6
-2 -3 -1 3.8 2.6
-5 2 1 10.1 3.7
-3 -3 -1 -2 2.6
-3 6 -1 1 1.7
-3 6 -1 2 2
-6 3 1 -1 3
-4 -3 -1 127.99 13.7
-7 4 1 116.99 12.6
-4 -2 -1 37.1 7.1
-2 6 -1 47.8 4.8
-6 4 1 61.39 8
2 -6 1 61.69 9.4
-1 5 -1 62.89 6
-4 -1 -1 60.19 8.4
-5 4 1 59.79 6.7
1 -5 1 47.1 6.8
-4 0 -1 238.28 16.3
0 4 -1 210.28 13.8
4 -4 -1 226.68 13.2
0 -4 1 236.08 14.8
-4 4 1 215.98 13.1
3 -4 -1 10.9 1.6
-4 1 -1 14 4.1
-1 -3 1 12.2 3.5
-3 4 1 5.8 1.5
-4 2 -1 -3.8 2.4
-2 -2 1 -2 2.1
1 -4 -1 10.3 2.1
-4 3 -1 6.2 2.8
4 -3 1 12.1 3.7
-1 4 1 10.2 1.8
-3 -1 1 13.6 4
0 -4 -1 234.08 13.4
-4 4 -1 226.08 14
4 -4 1 211.98 14
-4 0 1 239.58 16.3
0 4 1 217.08 13.6
-4 5 -1 59.99 5.8
-1 -4 -1 64.39 6.9
-4 5 -1 68.59 11.5
-5 1 1 56.89 8.2
-4 6 -1 55.19 5.1
-4 6 -1 44.2 6.2
-2 -4 -1 60.99 7.8
-6 2 1 72.29 9.7
-3 -4 -1 111.79 12.1
-7 3 1 113.79 13
-4 -4 -1 2.9 5.1
-8 4 1 3.2 5.1
-5 -4 -1 3.6 6.6
-9 5 1 15.7 6.5
-5 -3 -1 26.8 7.6
-8 5 1 14.4 5.9
-5 -2 -1 8.6 5.4
2 -7 1 12.6 7
-7 5 1 5.9 4.1
-5 -1 -1 13.4 5.1
-1 6 -1 9.3 3.6
1 -6 1 6.6 4.3
-6 5 1 10.3 3.8
5 -5 -1 1.8 2.7
-5 0 -1 8.4 4
-5 5 1 4.6 2.5
0 -5 1 5.2 3.8
-5 1 -1 47.5 7.3
4 -5 -1 48 4.2
-4 5 1 50.29 4.1
-1 -4 1 49.9 6.9
-5 2 -1 3.7 3.3
-2 -3 1 2.8 2.9
-5 3 -1 0.3 2.7
-3 -2 1 13.1 4.4
-5 4 -1 44.2 6.2
1 -5 -1 50.49 4.7
-4 -1 1 37.2 6.8
-1 5 1 50.29 4.5
0 -5 -1 4.4 2.7
-5 5 -1 5.7 2.8
-5 0 1 5 4.1
0 5 1 6.2 3.2
-5 6 -1 10 3.2
-5 6 -1 16 9.1
-1 -5 -1 15.3 4.5
-6 1 1 15 5.2
-2 -5 -1 5.1 4.1
-5 7 -1 6.3 2.4
-7 2 1 13.8 5.7
-3 -5 -1 22.4 6.5
-8 3 1 17.4 7
-4 -5 -1 6.8 5.4
-9 4 1 3.3 5.8
-5 -5 -1 0.4 6.1
-10 5 1 2.3 6.5
-6 -4 -1 3 7.1
-10 6 1 8.7 7.4
-6 -3 -1 21.2 8.3
-9 6 1 2.7 5.3
-6 -2 -1 8.3 6.1
-8 6 1 4.1 4.3
-6 -1 -1 8.7 5.9
1 -7 1 7.6 5.6
-7 6 1 7.8 3.8
6 -6 -1 48 8.4
-6 0 -1 51.39 9.4
0 -6 1 40.9 7.2
-6 6 1 43.2 5.6
-6 1 -1 14.8 5.3
5 -6 -1 5.7 2.4
-1 -5 1 9.4 4.2
-5 6 1 4.8 2.1
-6 2 -1 49.6 8.2
-2 -4 1 44.9 7.3
-6 3 -1 3.5 3.9
-3 -3 1 4 3.6
-6 4 -1 56.89 7.9
-4 -2 1 66.69 9.6
1 -6 -1 10.7 3.2
-6 5 -1 4.4 3.5
-1 6 1 5.1 2.7
-5 -1 1 5.4 4.5
-6 6 -1 45.3 6.4
0 -6 -1 40 6.1
-6 0 1 49.2 9.4
-1 -6 -1 11.3 4.3
-6 7 -1 5.1 3.2
-7 1 1 7.8 6.2
-2 -6 -1 7.4 4.6
-8 2 1 0.3 5.8
-3 -6 -1 8.9 6.2
-9 3 1 11.2 7
-4 -6 -1 4.2 6.4
-10 4 1 5 7.1
-7 -2 -1 -0.6 6.4
-7 -1 -1 9.9 7.1
-7 0 -1 4.3 5
0 -7 1 6.9 5.5
-7 1 -1 15.3 6.6
-1 -6 1 9.3 5.5
-7 2 -1 1.7 4.9
-2 -5 1 4.2 4.6
-7 3 -1 100.89 12.3
-3 -4 1 114.39 12.4
-7 4 -1 120.59 13.2
-4 -3 1 117.79 13.2
-7 5 -1 -2.2 3.2
-5 -2 1 5.2 4.4
1 -7 -1 12.8 4.9
-7 6 -1 13.6 4.8
-6 -1 1 13.6 6.4
-7 7 -1 3.3 3.8
0 -7 -1 4.7 4.1
-7 0 1 3.4 5.4
-1 -7 -1 16.1 6
-8 1 1 20.8 8.2
-2 -7 -1 -2.2 5.9
-9 2 1 0 5.9
-8 -1 -1 5 7.8
-8 0 -1 -1.8 5.8
-8 1 -1 15.7 7.3
-1 -7 1 22.7 7.4
-8 2 -1 9.4 6.3
-2 -6 1 5.6 5.6
-8 3 -1 10.8 6
-3 -5 1 25.2 6.8
-8 4 -1 -1 5.3
-4 -4 1 -3.8 4.2
-8 5 -1 17.6 6.3
-5 -3 1 24.4 7.4
-8 6 -1 1.9 4.7
-6 -2 1 3.1 5.4
-8 7 -1 9.5 5.8
-7 -1 1 19.9 8.3
-8 0 1 12.3 7.6
-9 1 1 7.4 7.1
-9 1 -1 -4.5 6.6
-9 2 -1 4 6.5
-2 -7 1 3.5 6.9
-9 3 -1 18.1 8
-3 -6 1 15.9 7.7
-9 4 -1 3 6.1
-4 -5 1 8.6 6.2
-9 5 -1 -6.3 4.7
-5 -4 1 8.9 5.9
-9 6 -1 5.2 5.5
-6 -3 1 20.5 8.5
-7 -2 1 1.6 6.6
-8 -1 1 5.5 7.3
-10 4 -1 -6.7 6.4
-4 -6 1 -5.4 6.2
-10 5 -1 6.5 7
-5 -5 1 -6.5 6.2
-10 6 -1 3.2 6.3
-6 -4 1 3.6 7.1
0 0 2 261.17 18.2
-1 0 -2 3055.89 153.68
1 -1 -2 3313.97 154.08
0 1 -2 3328.67 154.88
1 0 2 3240.38 153.98
-1 1 2 3170.28 154.48
0 -1 2 3009.3 155.08
1 0 -2 3233.78 152.48
0 -1 -2 3086.39 156.08
0 -1 -2 3128.99 151.68
-1 -1 -2 885.01 45.3
-1 2 -2 1010.1 48.1
2 -1 -2 926.91 45.4
1 -2 2 875.71 49.4
1 1 2 839.72 45.3
-2 1 2 867.11 45.6
-2 -1 -2 1222.98 63.29
3 -2 -2 1310.27 62.59
-1 3 -2 1262.07 63.29
1 -3 2 1274.77 65.49
-3 2 2 1193.78 62.59
2 -2 -2 199.88 12
-2 0 -2 216.48 13.3
0 2 -2 208.58 13.2
-2 2 2 211.78 12.7
0 -2 2 202.18 14
2 0 2 218.88 13.6
-2 1 -2 8976.5 436.06
1 -2 -2 9999 436.36
1 1 -2 9166.38 436.16
-1 2 2 8284.97 437.66
-1 -1 2 9026.2 436.66
2 -1 2 9247.07 436.26
2 0 -2 216.78 13.1
-2 2 -2 204.38 19.7
-2 2 -2 173.58 12.2
0 -2 -2 189.18 11.5
0 2 2 209.48 11.9
-2 0 2 212.88 13.2
-2 3 -2 1219.38 61.39
-2 3 -2 1372.76 66.09
-1 -2 -2 1255.87 61.69
3 -1 -2 1133.99 62.59
-3 1 2 1224.58 62.29
1 2 2 1208.38 61.69
-2 4 -2 2276.97 107.29
-2 -2 -2 2160.08 106.99
-4 2 2 2223.28 107.09
2 -4 2 1928.51 111.19
-3 -2 -2 285.87 18.6
-2 5 -2 278.87 16.7
2 -5 2 242.58 21.7
-5 3 2 262.47 17.7
-1 4 -2 512.15 27.9
-3 -1 -2 483.75 29.3
4 -3 -2 529.85 27.9
1 -4 2 492.55 30.2
-4 3 2 536.25 28.2
0 3 -2 963.8 52.49
3 -3 -2 1029.6 51.39
-3 0 -2 1048.4 53.99
-3 3 2 1054.29 51.99
0 -3 2 1098.59 54.19
2 -3 -2 448.76 22.4
-3 1 -2 431.56 24.9
-2 3 2 425.36 24.4
-1 -2 2 456.45 25.3
1 -3 -2 396.16 21.4
-3 2 -2 422.36 23.7
1 -3 -2 408.16 24.7
3 -2 2 454.45 24.1
-2 -1 2 451.85 24.5
0 -3 -2 968.8 51.49
-3 3 -2 1008.9 52.49
3 -3 2 1026 52.59
0 3 2 1095.89 51.79
-3 0 2 1076.89 53.89
-3 4 -2 483.65 32.7
-3 4 -2 502.25 27.5
-1 -3 -2 501.85 27.8
-4 1 2 498.35 29.2
1 3 2 548.75 29.5
-2 -3 -2 276.07 18.4
-3 5 -2 272.97 16.9
-3 5 -2 299.07 19.6
-5 2 2 300.47 19.5
-3 6 -2 1506.65 74.09
-3 6 -2 1508.65 74.49
-3 -3 -2 1499.75 76.99
-6 3 2 1424.66 76.99
-3 7 -2 25.3 4.6
-4 -3 -2 15.3 5.8
-7 4 2 37 7.7
-4 -2 -2 94.59 11
-6 4 2 84.19 9.7
2 -6 2 68.19 12.1
-4 -1 -2 378.96 24.1
-5 4 2 376.36 21.8
1 -5 2 357.06 24.1
4 -4 -2 687.03 35.1
-4 0 -2 697.53 38.4
0 -4 2 688.23 37.9
-4 4 2 659.93 35.3
-4 1 -2 1077.39 57.39
3 -4 -2 1102.79 53.39
-3 4 2 1081.69 54.69
-1 -3 2 1123.59 57.29
-4 2 -2 4698.13 227.68
-2 -2 2 4683.03 227.78
1 -4 -2 1107.39 54.09
-4 3 -2 1047.4 56.69
-3 -1 2 1168.38 58.09
-4 4 -2 646.44 36
0 -4 -2 676.73 35
-4 0 2 682.23 38
0 4 2 699.93 35.3
-4 5 -2 384.06 21.7
-4 5 -2 341.77 28.8
-1 -4 -2 394.96 22.2
-5 1 2 365.26 24.3
-4 6 -2 81.39 7.4
-4 6 -2 92.19 11.3
-2 -4 -2 69.79 8.9
-6 2 2 85.09 10.9
-3 -4 -2 26.7 6.4
-4 7 -2 26 4.2
-7 3 2 18 6.5
-4 -4 -2 1166.98 64.29
-8 4 2 1176.58 64.39
-5 -4 -2 88.99 13.3
-9 5 2 71.89 12
-5 -3 -2 57.59 10.2
-8 5 2 50.49 9
-5 -2 -2 1113.89 58.79
2 -7 2 960.2 58.99
-7 5 2 1053.19 55.69
-5 -1 -2 301.97 21.6
1 -6 2 291.27 22
-6 5 2 287.67 18.5
-5 0 -2 661.83 39
5 -5 -2 678.93 35.1
0 -5 2 674.53 38.3
-5 5 2 663.03 35.3
-5 1 -2 1248.08 66.19
4 -5 -2 1246.58 60.99
-4 5 2 1281.77 61.99
-1 -4 2 1220.88 65.19
-5 2 -2 121.79 12.6
-2 -3 2 140.79 11.8
-5 3 -2 99.09 10.8
-3 -2 2 133.89 11.5
1 -5 -2 1238.88 60.19
-5 4 -2 1201.88 63.39
-4 -1 2 1227.78 64.99
-1 5 2 1237.78 60.59
0 -5 -2 696.33 36.1
-5 5 -2 686.73 37.5
-5 0 2 726.13 40.5
0 5 2 669.73 36.4
-1 -5 -2 321.77 19.3
-5 6 -2 303.47 18.7
-6 1 2 285.07 22
-2 -5 -2 1089.09 59.59
-5 7 -2 1147.99 57.19
-7 2 2 1145.39 62.79
-3 -5 -2 70.69 10.3
-8 3 2 56.59 11
-4 -5 -2 69.89 11.5
-9 4 2 70.89 12.6
-5 -5 -2 184.48 21.6
-10 5 2 151.58 19
-6 -4 -2 83.69 14
-10 6 2 55.59 11.6
-6 -3 -2 111.89 15.5
-9 6 2 125.99 14.6
-6 -2 -2 131.99 16.3
-8 6 2 129.59 13.5
-6 -1 -2 472.55 31.2
1 -7 2 412.46 30.1
-7 6 2 490.95 27.4
-6 0 -2 341.77 25.9
0 -6 2 395.96 26.2
-6 6 2 402.66 22.4
-6 1 -2 454.55 30.1
5 -6 -2 475.85 24.2
-1 -5 2 480.15 29.4
-5 6 2 471.85 25.3
-6 2 -2 383.76 24.5
-2 -4 2 321.47 22.9
-6 3 -2 454.35 27.4
-3 -3 2 403.06 26.7
-6 4 -2 412.46 26.1
-4 -2 2 430.16 27.3
-6 5 -2 478.75 28.3
1 -6 -2 470.35 24.7
-5 -1 2 468.85 30.4
-6 6 -2 373.86 23.6
0 -6 -2 386.16 22.4
-6 0 2 409.16 27.4
-1 -6 -2 508.95 30.7
-6 7 -2 548.45 30.2
-7 1 2 560.54 35.4
-2 -6 -2 153.58 14
-8 2 2 138.39 17.3
-3 -6 -2 120.59 14.7
-9 3 2 126.09 16.7
-4 -6 -2 72.59 12.1
-10 4 2 42.1 11.9
-7 -2 -2 32.9 9.6
-7 -1 -2 154.78 17.6
-7 0 -2 37.2 9.3
0 -7 2 12.9 7.1
-7 1 -2 171.38 18
-1 -6 2 165.18 17
-7 2 -2 541.95 34.3
-2 -5 2 530.75 33.3
-7 3 -2 366.16 24.9
-3 -4 2 316.07 23.4
-7 4 -2 341.57 23.5
-4 -3 2 326.47 23.7
-7 5 -2 537.65 31.5
-5 -2 2 479.15 32.5
-7 6 -2 145.99 13.3
-6 -1 2 157.18 16.6
-7 7 -2 31.5 6.4
-7 0 2 47.2 10
-8 1 2 169.98 19.3
-9 2 2 43.3 11.7
-8 -1 -2 61.39 13.3
-8 0 -2 60.99 12.4
-8 1 -2 733.93 47.5
-1 -7 2 804.12 46.7
-8 2 -2 6.7 6.6
-2 -6 2 15.7 7.2
-8 3 -2 49.3 10.1
-3 -5 2 65.19 10.6
-8 4 -2 661.13 40.9
-4 -4 2 690.13 41.6
-8 5 -2 56.79 10.1
-5 -3 2 64.39 11.5
-8 6 -2 2.2 5
-6 -2 2 3.4 5.4
-8 7 -2 813.72 45
-7 -1 2 780.42 49.1
-8 0 2 69.69 13.1
-9 1 2 44.6 11.9
-9 1 -2 73.59 14.4
-9 2 -2 93.09 15
-2 -7 2 86.49 14.3
-9 3 -2 198.18 21.5
-3 -6 2 176.18 19.6
-9 4 -2 226.88 22.2
-4 -5 2 177.18 19.8
-9 5 -2 216.48 19.1
-5 -4 2 183.08 20.4
-9 6 -2 166.38 17.9
-6 -3 2 177.98 20.3
-9 7 -2 83.39 14
-7 -2 2 86.89 14.6
-8 -1 2 45.9 11.9
-10 4 -2 91.69 15.6
-4 -6 2 99.29 16.1
-10 5 -2 55.99 11.9
-5 -5 2 68.29 13.6
-10 6 -2 80.39 13.5
-6 -4 2 55.69 13.7
0 0 -3 -1.4 4.3
0 0 3 -4 5.2
1 -1 -3 1103.89 53.19
0 1 -3 1012.3 53.69
-1 0 -3 992.4 51.69
0 -1 3 983.8 54.69
-1 1 3 994 53.99
1 0 -3 1023.3 51.89
0 -1 -3 1103.79 57.19
1 -1 3 886.31 57.49
-1 0 3 975.6 52.39
-1 2 -3 -3.7 4.3
2 -1 -3 -1.5 2.7
-1 -1 -3 -1.8 2.1
1 1 3 -0.5 2.6
1 -2 3 0.8 6.4
-2 1 3 2.8 3.3
-2 -1 -3 118.39 9.9
3 -2 -3 129.69 10.2
1 -3 3 136.69 15.1
-3 2 3 115.79 10.1
0 2 -3 230.58 21.5
2 -2 -3 358.66 19
-2 0 -3 342.37 19.5
-2 2 3 348.97 20.3
0 -2 3 292.47 21
-2 1 -3 2.4 3
1 -2 -3 4 4.2
-1 2 3 -0.2 5.2
-1 -1 3 0.9 3.5
-2 2 -3 342.07 19.1
0 -2 -3 311.17 17.8
0 -2 -3 289.47 24.4
-2 2 -3 170.28 30.5
-2 0 3 345.27 20.2
-1 -2 -3 107.29 8.7
-2 3 -3 116.69 20.3
-3 1 3 112.49 10.1
-2 -2 -3 1.7 3.1
2 -4 3 -5.3 6.6
-4 2 3 0.8 3
-3 -2 -3 103.19 11.2
2 -5 3 90.59 15.3
-5 3 3 120.39 11.7
-3 -1 -3 145.99 12.2
1 -4 3 157.28 16.4
-4 3 3 147.59 11.5
-3 0 -3 350.26 20.8
0 -3 3 313.07 22.1
-3 3 3 315.97 19.8
2 -3 -3 88.49 7.6
-3 1 -3 97.39 9.6
-1 -2 3 80.09 9.6
-2 3 3 86.89 10.7
1 -3 -3 83.69 6.4
1 -3 -3 131.99 12.6
-3 2 -3 90.09 8.8
-2 -1 3 59.09 8.1
0 -3 -3 294.07 18
-3 3 -3 336.97 19.7
0 3 3 323.17 18.8
-3 0 3 320.47 20.7
-1 -3 -3 138.19 10.5
-3 4 -3 129.69 10.7
-4 1 3 136.89 11.9
-2 -3 -3 104.59 10.6
-3 5 -3 107.49 9.5
-5 2 3 81.99 10.7
-3 -3 -3 -2.2 3
-3 6 -3 -0.9 3.2
-6 3 3 -0.4 3.1
-3 7 -3 207.68 15.1
-4 -3 -3 202.48 17.5
-7 4 3 216.88 17.5
-4 -2 -3 137.59 14.1
-6 4 3 150.18 12.7
2 -6 3 115.59 17.5
-4 -1 -3 39.5 7.4
1 -5 3 51.19 10.4
-5 4 3 53.69 7.3
4 -4 -3 82.19 6.9
-4 0 -3 61.69 8.8
-4 4 3 64.69 7.8
0 -4 3 80.99 11
-4 1 -3 151.38 12.5
3 -4 -3 139.09 9.2
-1 -3 3 146.09 13.2
-3 4 3 153.68 12.7
2 -4 -3 0.2 1.6
-4 2 -3 -2.3 3.1
2 -4 -3 -3.4 2.3
-2 -2 3 2.6 4.1
1 -4 -3 118.29 8.1
-4 3 -3 126.69 10.6
1 -4 -3 109.99 13.4
-3 -1 3 118.89 12.4
0 -4 -3 78.29 7.1
-4 4 -3 76.19 8.5
-4 0 3 84.69 10.6
0 4 3 71.49 7.6
-4 5 -3 48 6.8
-1 -4 -3 49.99 6.8
-5 1 3 45.7 8.2
-2 -4 -3 134.49 12.2
-4 6 -3 135.39 11.3
-6 2 3 164.08 16.2
-4 7 -3 207.88 15
-3 -4 -3 241.78 17.9
-7 3 3 212.58 18.5
-4 -4 -3 -0.2 5.2
-8 4 3 -2.8 4
-5 -4 -3 26.3 8.6
-9 5 3 22.4 8
-5 -3 -3 76.49 12.2
-8 5 3 66.59 10.5
-5 -2 -3 11.5 6.3
-7 5 3 9.6 5.3
2 -7 3 7.1 9.3
-5 -1 -3 58.59 10.1
1 -6 3 81.69 12.8
-6 5 3 86.39 9.6
-5 0 -3 41.4 8.2
5 -5 -3 36.8 5.5
-5 5 3 49.7 6.7
0 -5 3 30.8 7.6
4 -5 -3 30.1 3.8
-5 1 -3 33.3 7
-4 5 3 29.9 6
-1 -4 3 22.6 6.4
-5 2 -3 57.99 8.7
3 -5 -3 62.29 4.6
-2 -3 3 73.69 10.2
2 -5 -3 62.09 5.7
2 -5 -3 62.69 4.9
-5 3 -3 42.9 7.4
-3 -2 3 78.89 10.6
1 -5 -3 31 4.5
1 -5 -3 14.4 8.3
-5 4 -3 36.6 6.7
-4 -1 3 30 6.7
-5 5 -3 46 7.2
0 -5 -3 54.09 6.4
-5 0 3 49.3 9.2
-1 -5 -3 80.29 8.7
-5 6 -3 63.69 8.5
-6 1 3 89.59 12.5
-5 7 -3 4.4 3.8
-2 -5 -3 13 5.1
-7 2 3 0.8 5
-3 -5 -3 72.89 11.3
-8 3 3 70.99 12.3
-4 -5 -3 27 9.8
-9 4 3 22.8 8.5
-6 -3 -3 6.1 6.4
-9 6 3 4.5 6.5
-6 -2 -3 17.1 8.1
-8 6 3 21.7 6.6
-6 -1 -3 24 8.2
-7 6 3 14.4 5.4
1 -7 3 19.4 9.6
-6 0 -3 25.6 7.4
0 -6 3 23.3 8.1
-6 6 3 36.2 6.5
5 -6 -3 69.89 8.9
-6 1 -3 75.29 11.5
-5 6 3 73.49 9
-1 -5 3 88.09 12.1
-6 2 -3 222.68 17.6
-2 -4 3 187.58 16.8
-6 3 -3 3.3 4.2
-3 -3 3 -0.9 4.6
-6 4 -3 206.78 16.9
-4 -2 3 229.48 18.4
1 -6 -3 79.29 6.6
-6 5 -3 64.49 9.1
-5 -1 3 85.99 12.1
0 -6 -3 34 5.4
-6 6 -3 29 6.3
-6 0 3 34.4 9.2
-1 -6 -3 11.9 4.7
-6 7 -3 15.7 5.3
-7 1 3 15.9 7.1
-2 -6 -3 47.3 8.3
-8 2 3 27.3 8.9
-3 -6 -3 10.1 6.4
-9 3 3 12.9 7.9
-7 -2 -3 22.2 8.9
-7 -1 -3 7.2 7.1
-7 0 -3 37.7 9.3
0 -7 3 25.3 9.5
-7 1 -3 15.9 7.4
-1 -6 3 19.3 8.4
-7 2 -3 9.5 5.6
-2 -5 3 -1.5 5.6
-7 3 -3 221.98 19
-3 -4 3 218.48 18.8
-7 4 -3 207.18 17.7
-4 -3 3 190.58 19.2
-7 5 -3 3.4 4.7
-5 -2 3 8.4 6.3
-7 6 -3 18.5 6.1
-6 -1 3 18 7.6
-7 7 -3 32.1 7
-7 0 3 37.6 10
-8 1 3 8 7.4
-9 2 3 1.8 7.6
-8 -1 -3 7.9 8.7
-8 0 -3 -1.5 6.6
-8 1 -3 16.7 7.9
-1 -7 3 -2.2 7.7
-8 2 -3 33.2 9.7
-2 -6 3 38.2 11.4
-8 3 -3 45.1 10.1
-3 -5 3 54.39 11.1
-8 4 -3 0.2 5.2
-4 -4 3 5.8 5.4
-8 5 -3 67.79 11
-5 -3 3 46.8 10.4
-8 6 -3 30.3 8.2
-6 -2 3 27.7 8.9
-8 7 -3 12.3 6.1
-7 -1 3 15.9 8.4
-8 0 3 7.1 7.8
-9 1 3 37.2 11.8
-9 1 -3 17 9.1
-9 2 -3 24.5 10
-2 -7 3 18.3 9.9
-9 3 -3 28.4 9.1
-3 -6 3 -3.5 8.2
-9 4 -3 20.8 8.8
-4 -5 3 23.6 9.5
-9 5 -3 41.2 10
-5 -4 3 27.5 9.4
-9 6 -3 10.3 7.7
-6 -3 3 24.7 9.6
-9 7 -3 14.3 8
-7 -2 3 19.4 9
-8 -1 3 20.2 10.9
0 0 4 3020.9 154.58
-1 0 -4 580.74 32.2
0 -1 4 583.34 36.9
-1 1 4 599.44 36.5
1 -1 4 476.95 37.3
-1 0 4 595.44 33.4
0 1 4 496.55 37.1
-1 -1 -4 1448.16 76.69
1 -2 4 1449.76 84.79
-2 1 4 1687.23 79.89
-2 -1 -4 115.79 9.5
-3 2 4 79.19 9.8
1 -3 4 48.8 12.2
2 -2 -4 188.58 16.1
-2 0 -4 160.48 12.5
-2 2 4 156.38 14.5
0 -2 4 176.68 17.3
1 -2 -4 165.38 15.7
-2 1 -4 144.19 11.2
-1 -1 4 113.69 13.5
-1 2 4 88.49 14.7
0 -2 -4 164.38 11.6
-2 2 -4 148.49 12.1
-2 0 4 178.58 14.3
-1 -2 -4 114.59 9.2
2 -3 4 83.39 17.1
-3 1 4 84.79 10.1
-2 -2 -4 381.16 23.4
-4 2 4 375.66 24.4
2 -4 4 377.16 33
-3 -2 -4 7.1 4.3
-5 3 4 4.8 4.6
2 -5 4 24.6 10.9
-3 -1 -4 130.59 11.7
-4 3 4 134.79 12.1
1 -4 4 103.59 15.5
-3 0 -4 848.12 45.8
0 -3 4 851.81 49.2
-3 3 4 833.82 46.7
-3 1 -4 14.7 4.1
2 -3 -4 17.6 5
-1 -2 4 12.6 6
-2 3 4 24.4 9
1 -3 -4 11.3 3.3
1 -3 -4 43 9
-3 2 -4 16.6 5
-2 -1 4 22.9 6.4
-3 3 -4 817.82 44.5
0 -3 -4 831.42 43
-3 0 4 810.62 45.9
-3 4 -4 122.39 10.9
-1 -3 -4 113.19 10.2
-4 1 4 123.29 12.8
-3 5 -4 12.1 4.7
-2 -3 -4 3.4 3.9
-5 2 4 18.7 6.1
-3 -3 -4 738.63 41.1
-3 6 -4 689.63 39.3
-6 3 4 680.33 41.3
-3 7 -4 45.6 7.9
-4 -3 -4 44.3 8.9
-7 4 4 29.6 7.9
-4 -2 -4 105.59 12.9
-6 4 4 117.69 12.9
2 -6 4 91.29 17.1
-4 -1 -4 275.97 21
-5 4 4 299.47 20.6
1 -5 4 332.27 26.2
-4 0 -4 387.16 24
0 -4 4 343.07 26.2
-4 4 4 335.37 23
3 -4 -4 199.78 13.5
-4 1 -4 183.38 14.9
-1 -3 4 173.28 17.9
-3 4 4 211.58 17.8
-4 2 -4 1453.55 80.79
2 -4 -4 1742.83 79.99
2 -4 -4 1504.75 78.09
-2 -2 4 1632.24 83.29
1 -4 -4 246.28 21.6
-4 3 -4 208.98 15.6
1 -4 -4 194.08 13.2
-3 -1 4 236.98 18
0 -4 -4 387.96 22.1
-4 4 -4 382.96 23.7
-4 0 4 345.87 24.8
-1 -4 -4 301.47 19.5
-4 5 -4 308.77 20.2
-5 1 4 282.47 22.1
-4 6 -4 130.29 11.6
-2 -4 -4 104.99 11.8
-6 2 4 100.39 13.4
-3 -4 -4 50.89 9
-4 7 -4 46.8 7.8
-7 3 4 50.09 10.4
-4 -4 -4 298.97 23
-8 4 4 285.77 23.8
-5 -4 -4 78.69 13.4
-9 5 4 120.99 16.5
-5 -3 -4 71.09 11.7
-8 5 4 51.99 10.3
-5 -2 -4 57.69 10.1
2 -7 4 56.99 15.1
-7 5 4 53.49 9.3
-5 -1 -4 218.18 19
1 -6 4 263.67 26
-6 5 4 220.68 17.6
-5 0 -4 453.45 27.9
-5 5 4 382.56 25.5
0 -5 4 364.06 28.6
4 -5 -4 19.4 4.4
-5 1 -4 23.1 6.1
-1 -4 4 37.1 8.8
-4 5 4 31.1 8.4
3 -5 -4 150.68 10.3
-5 2 -4 171.88 14.4
3 -5 -4 165.08 10.6
-2 -3 4 114.79 14.1
-5 3 -4 174.88 14.3
2 -5 -4 156.58 10.3
2 -5 -4 150.08 12.2
-3 -2 4 163.78 17.3
-5 4 -4 26.3 6.1
1 -5 -4 11.2 9.3
1 -5 -4 25.5 4.4
-4 -1 4 33.3 7.8
-5 5 -4 447.06 26.9
0 -5 -4 435.46 25.1
-5 0 4 381.06 28.4
-5 6 -4 219.68 16.6
-1 -5 -4 212.58 16.4
-6 1 4 205.38 19
-2 -5 -4 44.4 8.5
-5 7 -4 65.39 9
-7 2 4 51.69 11
-3 -5 -4 75.49 10.9
-8 3 4 43.7 11
-4 -5 -4 104.79 14.3
-9 4 4 84.79 14.7
-6 -3 -4 174.68 20.5
-6 -2 -4 0.7 6
-8 6 4 6 5.8
-6 -1 -4 31.9 8.5
1 -7 4 41.2 13.9
-7 6 4 25 7.4
-6 0 -4 245.18 20.7
-6 6 4 230.38 18.8
0 -6 4 254.67 25.1
-6 1 -4 204.68 18.1
-5 6 4 203.98 18.6
-1 -5 4 212.68 19.5
4 -6 -4 25.1 3.6
-6 2 -4 27.6 7.5
-2 -4 4 17.1 7.6
-6 3 -4 833.82 48.3
-3 -3 4 848.32 49.6
2 -6 -4 29.7 3.8
-6 4 -4 28.1 7.3
-4 -2 4 5.3 6.3
-6 5 -4 238.78 18.2
1 -6 -4 222.58 14.3
-5 -1 4 218.28 22.2
0 -6 -4 289.37 18.5
-6 6 -4 299.07 21
-6 0 4 277.97 23.7
-6 7 -4 25.7 6.4
-1 -6 -4 24.9 6.1
-7 1 4 41.3 10.6
-2 -6 -4 5 4.9
-8 2 4 1.4 6.8
-3 -6 -4 171.38 17.8
-9 3 4 164.48 21.6
-7 -2 -4 6.4 7.5
-7 -1 -4 386.56 29.8
-7 0 -4 236.78 21.4
0 -7 4 196.88 24.2
-7 1 -4 86.09 13.4
-1 -6 4 107.09 16.2
-7 2 -4 232.78 20.7
-2 -5 4 242.28 22
-7 3 -4 37.9 9
-3 -4 4 32 8.7
-7 4 -4 36.2 8.5
-4 -3 4 28.1 8.8
-7 5 -4 260.77 20.6
-5 -2 4 249.68 24.9
-7 6 -4 82.69 11.6
-6 -1 4 109.29 15.7
-7 7 -4 176.98 16.9
-7 0 4 171.68 20.2
-8 1 4 326.87 28.4
-9 2 4 19.3 10.4
-8 0 -4 15.8 8.7
-8 1 -4 23.9 9.1
-1 -7 4 24.8 11.1
-8 2 -4 71.89 12.9
-2 -6 4 61.39 12.9
-8 3 -4 16.5 7.7
-3 -5 4 10.9 8.2
-8 4 -4 46 10.4
-4 -4 4 39.8 9.9
-8 5 -4 15.6 7.3
-5 -3 4 8.5 7.2
-8 6 -4 65.29 11.3
-6 -2 4 81.19 14.8
-8 7 -4 16.1 7.2
-7 -1 4 15.9 9.3
-8 0 4 40.6 12.8
-9 2 -4 28 10.7
-2 -7 4 12.6 10.1
-9 3 -4 154.58 19.6
-3 -6 4 145.59 21.4
-9 4 -4 29.1 9.9
-4 -5 4 22.2 10
-9 5 -4 30.6 9.6
-5 -4 4 38.8 12.1
-9 6 -4 135.29 17.6
-6 -3 4 206.58 24.2
-9 7 -4 15.2 7.6
-7 -2 4 8.4 9.7
0 0 5 -8.1 6.9
-1 0 -5 1160.08 59.09
-1 1 5 1191.38 65.99
0 -1 5 1028.4 65.09
0 1 5 1023.7 63.69
1 -1 5 899.61 62.79
-1 0 5 1086.09 58.69
-1 -1 -5 0.8 3
-2 1 5 19.9 6.7
1 -2 5 -6.8 7.8
-2 -1 -5 189.78 15.2
1 -3 5 220.68 25.6
-3 2 5 243.58 18.8
-2 0 -5 696.63 37.6
0 -2 5 604.94 42.4
-2 2 5 685.73 42
-2 1 -5 5.8 3.6
-1 -1 5 -1.3 5
-1 2 5 1.3 7.8
0 -2 -5 613.04 35.3
-2 2 -5 655.53 36.5
-2 0 5 679.53 40
-1 -2 -5 239.58 16
-3 1 5 235.88 18.9
2 -3 5 159.18 25.5
-2 -2 -5 7.5 4.6
-4 2 5 -3.5 4.2
2 -4 5 3.7 10.2
-3 -2 -5 340.07 22.4
2 -5 5 281.37 32.8
-5 3 5 298.97 23.1
-3 -1 -5 331.97 22
-4 3 5 326.17 23.6
1 -4 5 305.57 30.5
-3 0 -5 192.08 14.4
0 -3 5 162.18 19.3
-3 3 5 162.38 18
-3 1 -5 309.97 21
-1 -2 5 356.86 25.7
-2 3 5 289.47 26.6
-3 2 -5 312.27 21.1
1 -3 -5 305.37 19.4
-2 -1 5 345.67 24.5
-3 3 -5 168.28 14.1
0 -3 -5 180.88 13.1
-3 0 5 158.78 16.9
-1 -3 -5 324.87 21.3
-3 4 -5 360.66 23.1
-4 1 5 329.97 24.6
-2 -3 -5 284.97 20.4
-3 5 -5 300.07 20.8
-5 2 5 305.27 23
-3 6 -5 0.5 4.8
-3 -3 -5 -0.2 4.2
-6 3 5 1.5 5.4
-4 -3 -5 315.57 23.7
-3 7 -5 300.77 22.1
-7 4 5 308.07 24.2
-4 -2 -5 369.96 24.7
-6 4 5 314.27 24.1
2 -6 5 276.87 33.3
-4 -1 -5 19.1 6.2
-5 4 5 13 5.8
1 -5 5 16.7 10.9
-4 0 -5 123.49 13.2
-4 4 5 113.29 14.3
0 -4 5 135.19 17.6
-4 1 -5 347.67 22.9
-3 4 5 311.77 27.1
-1 -3 5 338.47 26.3
2 -4 -5 -3.4 2.5
-4 2 -5 0.2 3.6
-2 -2 5 5.7 5.3
1 -4 -5 355.96 20.8
-4 3 -5 352.36 23.4
-3 -1 5 315.57 25.2
-4 4 -5 127.29 13.2
0 -4 -5 126.59 11.1
-4 0 5 160.08 16.8
-4 5 -5 22 6
-1 -4 -5 19.7 5.4
-5 1 5 25.7 8
-4 6 -5 372.06 24.7
-2 -4 -5 369.06 24.6
-6 2 5 350.56 27
-3 -4 -5 329.87 23.8
-4 7 -5 321.07 22.9
-7 3 5 318.07 25.7
-4 -4 -5 3.8 6.3
-8 4 5 -1.7 6.5
-5 -4 -5 74.69 13.5
-9 5 5 81.89 14.9
-5 -3 -5 142.19 17.8
-8 5 5 173.28 19.1
-5 -2 -5 8.2 6.8
2 -7 5 21.6 13.7
-7 5 5 13.9 6.8
-5 -1 -5 209.58 20.1
1 -6 5 192.98 25.5
-6 5 5 177.28 18.1
-5 0 -5 207.78 18.3
-5 5 5 232.48 20.4
0 -5 5 209.08 24.4
-5 1 -5 27.3 7.1
-4 5 5 31.3 10.6
-1 -4 5 33.5 9.8
-5 2 -5 349.47 24.1
3 -5 -5 307.07 20.1
3 -5 -5 399.06 23.5
-2 -3 5 347.27 26.5
-5 3 -5 342.57 23.9
2 -5 -5 351.56 20.6
-3 -2 5 357.16 26.8
-5 4 -5 15.1 5.6
1 -5 -5 23.6 5
-4 -1 5 25.8 8
-5 5 -5 209.08 17.5
0 -5 -5 220.68 15.8
-5 0 5 236.38 20.9
-5 6 -5 211.08 17.2
-1 -5 -5 206.08 16.5
-6 1 5 206.58 22.1
-2 -5 -5 15.3 6
-5 7 -5 13.2 6.3
-7 2 5 6.7 7.2
-3 -5 -5 219.68 19.7
-8 3 5 224.48 24.2
-4 -5 -5 62.69 12.1
-9 4 5 91.49 15.9
-6 -3 -5 -2.3 6.6
-6 -2 -5 109.99 15.8
-6 -1 -5 125.29 16.2
-7 6 5 83.79 18.5
1 -7 5 76.79 18
-6 0 -5 20.6 7.9
-6 6 5 21.2 8.4
0 -6 5 5.2 8.8
-6 1 -5 252.57 20.5
-1 -5 5 211.38 23.5
-5 6 5 182.48 21.6
-6 2 -5 355.06 26.1
4 -6 -5 383.26 21.1
-2 -4 5 321.77 27.4
-6 3 -5 0.1 4.6
3 -6 -5 -2.7 2.4
-3 -3 5 1 6.1
-6 4 -5 361.56 25.5
2 -6 -5 355.86 20.6
-4 -2 5 363.06 27.9
1 -6 -5 230.78 15.4
-6 5 -5 217.48 19
-5 -1 5 226.58 23.3
0 -6 -5 29.3 6.3
-6 6 -5 14.9 7.1
-6 0 5 33.4 10.6
-1 -6 -5 89.69 11.2
-6 7 -5 80.29 11.7
-7 1 5 86.69 15.1
-2 -6 -5 136.99 14.6
-8 2 5 128.59 19.7
-3 -6 -5 2 6.8
-9 3 5 7.1 8.8
-7 -1 -5 -3.2 6.7
-7 0 -5 162.68 19.7
0 -7 5 98.19 19.3
-7 1 -5 63.49 11.9
-1 -6 5 53.89 13.1
-7 2 -5 -0.9 6.5
-2 -5 5 2.7 7.2
-7 3 -5 276.47 23.1
-3 -4 5 265.27 24.4
-7 4 -5 289.97 23.7
-4 -3 5 307.67 26.2
-7 5 -5 0.6 5.8
-5 -2 5 4.2 6.9
-7 6 -5 72.09 11.6
-6 -1 5 56.49 12.8
-7 7 -5 162.08 17
-7 0 5 124.59 18.9
-8 1 5 10.4 8.9
-8 0 -5 40.6 11.3
-8 1 -5 7.8 8
-1 -7 5 11.8 10.9
-8 2 -5 114.49 17.4
-2 -6 5 84.39 16.6
-8 3 -5 209.58 22.8
-3 -5 5 190.88 23.1
-8 4 -5 -4.1 6
-4 -4 5 -1.7 7.3
-8 5 -5 212.08 22.1
-5 -3 5 236.08 25.5
-8 6 -5 106.29 15
-6 -2 5 66.59 14.7
-8 7 -5 -3.5 6.7
-7 -1 5 20.6 10
-8 0 5 72.59 16.4
-9 3 -5 12.1 8.6
-3 -6 5 0.4 8.3
-9 4 -5 63.99 13.3
-4 -5 5 51.09 13.8
-9 5 -5 82.89 14.6
-5 -4 5 73.29 15.4
-9 6 -5 4.8 8.1
-6 -3 5 8.6 10
0 0 6 1494.25 88.29
-1 0 -6 420.86 24.9
0 -1 6 372.96 32.3
-1 1 6 335.87 31.4
-1 0 6 436.66 32.4
1 -1 6 348.57 38.9
-1 -1 -6 309.27 21.2
1 -2 6 362.16 36.8
-2 1 6 333.97 26.9
-2 -1 -6 74.99 9.5
-3 2 6 86.19 13.6
1 -3 6 66.89 16.4
-2 0 -6 222.58 17.2
0 -2 6 255.57 27.6
-2 2 6 249.97 26.1
-2 1 -6 265.27 19
-1 -1 6 311.47 25.6
-1 2 6 197.28 27.7
0 -2 -6 244.58 17.4
-2 2 -6 239.48 18.2
-2 0 6 258.67 22.6
-1 -2 -6 104.49 11.2
-3 1 6 88.29 13.7
-2 -2 -6 1038.7 53.19
-4 2 6 975.2 56.79
2 -4 6 804.02 64.29
-3 -2 -6 51.79 8.9
2 -5 6 40.7 16.1
-5 3 6 30.5 8.7
-3 -1 -6 103.49 12
-4 3 6 88.09 14.1
1 -4 6 79.19 17.4
-3 0 -6 252.97 19.2
-3 3 6 266.47 24.5
0 -3 6 271.27 28.1
-3 1 -6 862.51 46.9
-2 3 6 802.42 55.09
-1 -2 6 809.42 52.19
1 -3 -6 864.81 46.9
-3 2 -6 913.91 48.7
-2 -1 6 803.02 51.99
0 -3 -6 266.27 19.2
-3 3 -6 312.77 21.5
-3 0 6 327.47 25.3
-3 4 -6 78.49 10.9
-1 -3 -6 113.09 11.4
-4 1 6 96.79 13.9
-2 -3 -6 51.59 8.5
-3 5 -6 35.3 7.8
-5 2 6 53.39 11.4
-3 6 -6 26.5 7.9
-3 -3 -6 13.9 6
-6 3 6 13.3 7.5
-4 -3 -6 268.47 22
-3 7 -6 256.47 21.4
-7 4 6 243.28 25.1
-4 -2 -6 125.39 15.4
2 -6 6 139.19 25.8
-6 4 6 107.69 16
-4 -1 -6 216.78 18.9
-5 4 6 245.88 23.7
1 -5 6 283.67 32.2
-4 0 -6 68.09 10.2
-4 4 6 57.89 12.7
0 -4 6 65.39 15.3
-4 1 -6 717.23 40.2
-3 4 6 596.04 45.9
-1 -3 6 683.93 45.4
-4 2 -6 406.36 27.7
2 -4 -6 467.65 26.2
-2 -2 6 390.26 31.3
1 -4 -6 764.72 39.6
-4 3 -6 699.23 41.5
-3 -1 6 643.24 44.6
-4 4 -6 97.39 12.1
0 -4 -6 89.29 10.2
-4 0 6 98.79 15.3
-1 -4 -6 243.78 18
-4 5 -6 213.48 18.9
-5 1 6 238.18 24.2
-2 -4 -6 116.69 13.5
-4 6 -6 105.59 13.3
-6 2 6 90.89 15.3
-3 -4 -6 244.68 21.2
-4 7 -6 305.77 22.3
-7 3 6 243.48 25.9
-4 -4 -6 221.88 21.7
-8 4 6 174.78 22.2
-5 -3 -6 74.09 13.2
-8 5 6 90.59 15.7
-5 -2 -6 193.58 20.8
-7 5 6 208.18 22.3
2 -7 6 179.78 29.9
-5 -1 -6 15.8 7
1 -6 6 21.7 12.7
-6 5 6 18.5 9.6
-5 0 -6 134.69 15.3
-5 5 6 143.89 19
0 -5 6 155.68 23.1
-5 1 -6 655.13 39
-1 -4 6 633.14 44.4
-4 5 6 576.04 44.2
-5 2 -6 148.19 15.5
3 -5 -6 152.48 12.7
-2 -3 6 146.09 18.9
-5 3 -6 192.58 16.6
2 -5 -6 167.18 13.4
-3 -2 6 155.28 19.2
1 -5 -6 672.23 36.9
-5 4 -6 677.33 40.2
-4 -1 6 631.24 43.4
-5 5 -6 153.48 16.3
0 -5 -6 147.29 13.3
-5 0 6 178.58 21
-5 6 -6 28.4 7.7
-1 -5 -6 37.8 7.9
-6 1 6 19.1 9.6
-5 7 -6 232.38 19.2
-2 -5 -6 201.68 19.7
-7 2 6 204.78 24
-3 -5 -6 123.69 15.8
-8 3 6 106.39 17.3
-6 -2 -6 37 10.8
2 -8 6 25.7 21
-6 -1 -6 0.8 6.3
1 -7 6 13.2 14.2
-6 0 -6 598.04 39.6
0 -6 6 612.94 46.7
-6 1 -6 95.49 14.1
-1 -5 6 40.2 13.7
4 -6 -6 8.4 4.8
-6 2 -6 4.1 5.7
-2 -4 6 1.3 8.2
-6 3 -6 142.69 16.2
3 -6 -6 134.19 11.1
-3 -3 6 112.09 18.5
-6 4 -6 1.1 4.9
2 -6 -6 5.6 4.1
-4 -2 6 -6.3 5.5
-6 5 -6 73.89 11.8
1 -6 -6 58.99 8.3
-5 -1 6 63.49 13.9
0 -6 -6 665.03 37.9
-6 6 -6 649.54 40.3
-6 0 6 658.43 45.2
-6 7 -6 5.5 5.9
-1 -6 -6 1 5.7
-7 1 6 3.3 7.5
-2 -6 -6 41.9 9.7
-8 2 6 71.09 15.9
-7 -1 -6 122.19 17.4
1 -8 6 147.39 35.7
-7 0 -6 43.3 11.2
0 -7 6 52.39 18.4
-7 1 -6 35.7 10.9
-1 -6 6 20.7 12.7
-7 2 -6 43.1 10.5
-2 -5 6 20 10.7
-7 3 -6 3.5 5.9
-3 -4 6 7 8.1
-7 4 -6 16.6 7.7
-4 -3 6 12.9 8.8
-7 5 -6 61.59 11.9
-5 -2 6 54.79 13.7
-7 6 -6 32.7 9.2
-6 -1 6 12.7 10.2
-7 7 -6 87.19 13.4
-7 0 6 72.79 16.2
-8 1 6 132.99 21
-8 1 -6 57.49 13.6
-1 -7 6 48.8 17.2
-8 2 -6 124.39 17.8
-2 -6 6 116.99 21
-8 3 -6 11.1 8.3
-3 -5 6 4.3 9.4
-8 4 -6 310.37 27
-4 -4 6 331.27 33.3
-8 5 -6 11.5 8.2
-5 -3 6 -3.4 8
-8 6 -6 165.08 18.9
-6 -2 6 106.59 19.1
-8 7 -6 57.89 12.4
-7 -1 6 71.09 16.4
0 0 7 -23.3 9
-1 0 -7 315.07 22.4
0 -1 7 310.97 34.4
-1 1 7 370.86 37.5
-1 0 7 297.67 30.9
1 -1 7 256.57 34.5
-1 -1 -7 1.8 4.2
-2 1 7 -7.3 8.9
1 -2 7 0.2 10.2
-2 -1 -7 355.26 23.7
1 -3 7 285.67 35.9
-3 2 7 354.36 30.7
-2 0 -7 327.87 22.9
0 -2 7 400.16 39.2
-2 2 7 280.17 32
-2 1 -7 -3.2 3.8
-1 2 7 -3.9 11.3
-1 -1 7 13.7 10.3
0 -2 -7 351.16 23.1
-2 2 -7 345.37 24.1
-2 0 7 313.87 29.1
-1 -2 -7 327.07 23
-3 1 7 369.16 30.2
-2 -2 -7 0.1 4.1
-4 2 7 8.2 7.9
2 -4 7 1.9 12.9
-3 -2 -7 221.18 17.9
-5 3 7 183.58 21.9
2 -5 7 110.09 25.1
-3 -1 -7 243.88 19.5
1 -4 7 256.27 33.6
-4 3 7 238.08 26
-3 0 -7 58.79 9.6
-3 3 7 70.69 16.1
0 -3 7 87.19 19.8
-3 1 -7 331.47 23.3
-2 3 7 281.67 33.5
-1 -2 7 344.17 30.9
-3 2 -7 372.56 25.6
1 -3 -7 379.96 24.5
-2 -1 7 340.27 30.6
0 -3 -7 61.69 8.9
-3 3 -7 49.4 9.4
-3 0 7 48.5 12.8
-3 4 -7 249.88 20.9
-1 -3 -7 244.28 18.8
-4 1 7 268.87 27.9
-3 5 -7 225.38 20.4
-2 -3 -7 235.08 19
-5 2 7 262.17 26.7
-3 -3 -7 -2.9 4.9
-3 6 -7 -5.4 5.7
-6 3 7 13.7 9.3
-4 -3 -7 132.59 16.7
-3 7 -7 179.58 18.9
-7 4 7 123.09 19.4
-4 -2 -7 168.18 18.7
-6 4 7 146.89 21
2 -6 7 164.08 29.2
-4 -1 -7 7.1 5.2
-5 4 7 9.6 9.2
1 -5 7 4.5 11.8
-4 0 -7 360.96 24.9
-4 4 7 315.57 32.2
0 -4 7 298.57 34.9
-4 1 -7 252.17 20.6
-3 4 7 245.08 30.7
-1 -3 7 364.36 35
2 -4 -7 4.3 4.5
-4 2 -7 4.3 4.9
-2 -2 7 10.4 8.9
1 -4 -7 306.97 20.9
-4 3 -7 295.37 22.8
-3 -1 7 293.07 30.4
-4 4 -7 357.56 24.9
0 -4 -7 322.17 22.4
-4 0 7 307.07 28.7
-4 5 -7 8.3 6.5
-1 -4 -7 7.3 5.3
-5 1 7 7 7.9
-4 6 -7 174.48 18.4
-2 -4 -7 145.79 16.2
-6 2 7 189.88 22.6
-4 7 -7 138.29 17
-3 -4 -7 188.18 19.1
-7 3 7 122.19 19.8
-4 -4 -7 6.6 7.2
-8 4 7 -4.3 8.4
-5 -3 -7 53.49 12.3
-8 5 7 49.99 13.9
-5 -2 -7 1.2 5.9
-7 5 7 -11.7 8.7
2 -7 7 9.8 15.6
-5 -1 -7 175.98 19.4
1 -6 7 142.59 27.4
-6 5 7 204.78 24.3
-5 0 -7 194.98 19.5
-5 5 7 135.19 21.4
0 -5 7 133.09 23.6
-5 1 -7 15.7 7
-1 -4 7 13.5 10.2
-4 5 7 15.3 13.6
-5 2 -7 289.97 22.8
3 -5 -7 290.47 20.6
-2 -3 7 284.87 31.4
-5 3 -7 276.47 22
2 -5 -7 284.27 19.5
-3 -2 7 246.78 28.8
-5 4 -7 9.6 6.2
1 -5 -7 15.1 5.8
-4 -1 7 2.5 8.3
0 -5 -7 183.38 15.5
-5 5 -7 156.38 17.3
-5 0 7 132.99 20.6
-5 6 -7 193.88 19.8
-1 -5 -7 215.08 17.5
-6 1 7 120.79 20.4
-2 -5 -7 12.1 7.7
-5 7 -7 -2 6.4
-7 2 7 1.9 9
-3 -5 -7 80.09 13.6
-8 3 7 54.29 15.8
-6 -1 -7 108.49 15.7
1 -7 7 79.49 23.9
-6 0 -7 20.6 8.8
0 -6 7 6.8 12.6
-6 1 -7 142.69 16.7
-1 -5 7 102.79 20.2
-6 2 -7 128.99 17.1
-2 -4 7 151.28 22.7
-6 3 -7 0.2 6
3 -6 -7 -7.5 6.8
-3 -3 7 5.5 9.9
-6 4 -7 143.59 17
2 -6 -7 137.89 15.1
-4 -2 7 152.38 21.9
1 -6 -7 151.98 15.6
-6 5 -7 173.98 18.5
-5 -1 7 118.79 19.6
-6 6 -7 13 7.8
0 -6 -7 10.1 8.5
-6 0 7 6.9 9
-6 7 -7 174.68 18.6
-7 1 7 142.29 22.4
-7 0 -7 123.89 18.2
0 -7 7 42 19.7
-7 1 -7 127.79 17.4
-1 -6 7 192.88 28.1
-7 2 -7 0.2 7
-2 -5 7 23.4 12
-7 3 -7 190.28 21.3
-3 -4 7 126.69 21.8
-7 4 -7 146.99 18.7
-4 -3 7 140.29 21.4
-7 5 -7 10.4 7.6
-5 -2 7 13.4 10.3
-7 6 -7 146.99 18.3
-6 -1 7 159.38 23.7
-7 7 -7 67.69 13.4
-7 0 7 131.89 22.2
-8 3 -7 77.09 15.2
-3 -5 7 74.69 18.5
-8 4 -7 -5.3 7
-4 -4 7 8.2 12.2
-8 5 -7 84.89 16
-5 -3 7 72.49 18
0 0 8 191.28 29.9
-1 0 -8 27.9 7.5
-1 1 8 34 16.3
0 -1 8 42.3 17.1
0 -1 -8 25.6 7.2
-1 0 8 15.5 12.8
-1 -1 -8 26.1 7.3
1 -2 8 36.1 17.4
-2 1 8 34.4 14.2
-2 -1 -8 293.47 21.2
-3 2 8 275.77 31.9
1 -3 8 174.48 31.1
-2 0 -8 53.99 9.6
-2 2 8 77.19 19.3
0 -2 8 31.4 14.9
-2 1 -8 206.08 18.3
-1 -1 8 231.18 31.7
0 -2 -8 70.19 10.7
-2 2 -8 66.29 11.3
-2 0 8 96.19 19
-2 3 -8 276.17 22.6
-1 -2 -8 289.67 21.5
-3 1 8 285.17 31
-2 -2 -8 116.09 13.9
-4 2 8 95.09 18.3
2 -4 8 86.89 23.4
-3 -2 -8 46.9 10
-5 3 8 18.1 12.4
2 -5 8 15.8 18.3
-3 -1 -8 297.07 22.9
1 -4 8 273.87 38.6
-4 3 8 313.87 33.7
-3 0 -8 119.59 14.6
-3 3 8 109.89 21.7
0 -3 8 89.69 22.5
-3 1 -8 199.58 18.8
-2 3 8 105.69 24.7
-1 -2 8 158.08 24.5
-3 2 -8 170.88 17.9
1 -3 -8 184.68 16.3
-2 -1 8 148.39 24.4
0 -3 -8 110.69 13.2
-3 3 -8 132.79 15.8
-3 0 8 132.99 21.3
-1 -3 -8 360.06 24.3
-3 4 -8 284.17 25
-4 1 8 348.07 34.9
-3 5 -8 36.7 10.2
-2 -3 -8 32.2 8.5
-5 2 8 52.09 14.3
-3 -3 -8 28.7 9
-3 6 -8 26.8 10
-6 3 8 47.8 14.7
-3 7 -8 149.79 19.8
-4 -3 -8 126.09 17.4
-7 4 8 130.09 23
-4 -2 -8 7.9 6.6
2 -6 8 -1.9 13.9
-6 4 8 12 12.5
-4 -1 -8 157.28 17.9
1 -5 8 158.48 29.7
-5 4 8 187.08 25.4
-4 0 -8 23.4 7.7
-4 4 8 -5.6 11.6
0 -4 8 7.5 12.8
-4 1 -8 8.6 6.1
-1 -3 8 -0.3 10.6
-3 4 8 16.9 15.3
2 -4 -8 1202.28 66.29
-4 2 -8 1221.78 67.89
-2 -2 8 1259.27 77.49
1 -4 -8 5.2 5
-4 3 -8 10.8 6.6
-3 -1 8 2.8 9
0 -4 -8 21.9 6.9
-4 4 -8 26.4 8.8
-4 0 8 21 11.6
-4 5 -8 155.98 18.6
-1 -4 -8 211.78 18.6
-5 1 8 180.58 24.9
-2 -4 -8 12.6 7.9
-4 6 -8 13.9 8.6
-6 2 8 20.2 11.7
-3 -4 -8 121.69 17.8
-4 7 -8 134.79 18.1
-7 3 8 132.69 22.7
-5 -2 -8 38.3 10.7
-7 5 8 43.9 15.7
2 -7 8 22.9 20.9
-5 -1 -8 37.9 9.8
-6 5 8 30.2 15.5
1 -6 8 38.6 20
-5 0 -8 69.29 12.6
0 -5 8 70.29 20.8
-5 5 8 34 16.7
-5 1 -8 27.1 8.8
-1 -4 8 68.29 18.8
-4 5 8 9.2 17.4
3 -5 -8 2.1 5.6
-5 2 -8 15.8 7.3
-2 -3 8 -1.7 10
2 -5 -8 25.9 6.9
-5 3 -8 4.8 6.1
-3 -2 8 -4.8 9.1
1 -5 -8 50.29 8.9
-5 4 -8 62.19 11.7
-4 -1 8 32.7 12.6
0 -5 -8 63.69 10.8
-5 5 -8 63.69 12
-5 0 8 49 14.7
-5 6 -8 47.1 11.1
-1 -5 -8 44.6 10
-6 1 8 42.3 15.4
-2 -5 -8 26.6 9.4
-5 7 -8 44.3 11.9
-7 2 8 27 13.8
-6 0 -8 39.5 11
0 -6 8 54.59 21.1
-6 1 -8 21 8.2
-1 -5 8 22.6 17.1
-6 2 -8 37.6 10.4
-2 -4 8 27 15.2
-6 3 -8 87.49 14.5
-3 -3 8 69.79 18.5
-6 4 -8 50.69 11.2
-4 -2 8 54.09 16.1
-6 5 -8 26.5 9.1
-5 -1 8 20.9 13
-6 6 -8 61.39 13.2
-6 0 8 85.69 19.5
-7 2 -8 7.9 7.8
-2 -5 8 38.1 16.2
-7 3 -8 150.48 20.1
-3 -4 8 186.08 28.4
-7 4 -8 114.99 17.3
-4 -3 8 110.09 21.6
-7 5 -8 34.7 10.8
-5 -2 8 38.1 15.1
0 0 9 -9.2 14.3
-1 0 -9 44.3 9.5
0 -1 9 4.1 12.8
-1 1 9 30.8 19.2
0 -1 -9 42.4 10
-1 1 -9 31.6 9
-1 0 9 17.3 16.7
-1 -1 -9 4.6 5.3
-2 1 9 1.8 13.7
1 -2 9 -0.1 14.5
-2 -1 -9 113.49 14.6
-3 2 9 129.39 24.7
1 -3 9 91.49 25.1
-2 0 -9 71.89 11.9
0 -2 9 68.19 22.4
-2 2 9 79.09 23.6
1 -2 -9 1.6 5.6
-2 1 -9 1.5 5.4
-1 -1 9 1.4 13.7
0 -2 -9 69.09 11.8
-2 2 -9 48.2 10.4
-2 0 9 46.6 17.4
-1 -2 -9 154.68 16.5
-2 3 -9 132.39 17
-3 1 9 91.59 21.3
-2 -2 -9 10 6.6
-4 2 9 3.7 11.1
-3 -2 -9 85.79 13.5
-5 3 9 47.1 17.5
2 -5 9 53.89 25.8
-3 -1 -9 90.69 13.6
-4 3 9 59.39 19.5
1 -4 9 103.79 28
-3 0 -9 13.8 7
-3 3 9 22.8 16.7
0 -3 9 29 16.6
-3 1 -9 166.78 18.8
-1 -2 9 153.68 27.3
-3 2 -9 123.49 16.1
1 -3 -9 176.28 17.5
-2 -1 9 127.99 24.1
0 -3 -9 29.7 8.5
-3 3 -9 29.5 9
-3 0 9 10.7 13.5
-1 -3 -9 66.39 11.2
-3 4 -9 74.79 13.2
-4 1 9 88.19 20.3
-2 -3 -9 104.39 14.1
-3 5 -9 85.89 15.1
-5 2 9 50.09 16.5
-3 -3 -9 -0.2 6.4
-3 6 -9 9.4 9.5
-6 3 9 -2.5 11.5
-4 -2 -9 23.9 9.4
2 -6 9 7.7 19.8
-6 4 9 27.7 15.8
-4 -1 -9 4.4 7
-5 4 9 23.6 15.8
1 -5 9 6.7 17.1
-4 0 -9 203.08 20.1
0 -4 9 155.08 30.2
-4 4 9 56.89 22.8
-4 1 -9 83.19 12.5
-1 -3 9 54.29 18.3
-3 4 9 36.5 20.2
-4 2 -9 10 6.7
2 -4 -9 6.7 6.2
-2 -2 9 1.9 12.4
-4 3 -9 66.09 12.7
1 -4 -9 110.19 13.6
-3 -1 9 85.99 21.1
0 -4 -9 158.08 16.9
-4 4 -9 173.28 19.7
-4 0 9 122.99 23.2
-1 -4 -9 14.2 7.4
-4 5 -9 9.4 8.3
-5 1 9 5.6 10.7
-2 -4 -9 33.9 9.3
-4 6 -9 17.2 10.1
-6 2 9 8.7 12.6
-5 -1 -9 52.29 12.5
1 -6 9 49.5 24.2
-6 5 9 13.6 18.6
-5 0 -9 54.39 12.2
0 -5 9 83.59 24.5
-5 5 9 36.2 19.1
-5 1 -9 -1.4 6
-1 -4 9 12.4 15.5
-4 5 9 -0.1 18
-5 2 -9 57.89 12.1
3 -5 -9 60.29 11.5
-2 -3 9 61.09 20.4
-5 3 -9 40 10.7
2 -5 -9 55.99 10.7
-3 -2 9 58.69 17.5
1 -5 -9 8.8 6.6
-5 4 -9 13.6 8.3
-4 -1 9 15.8 14.5
0 -5 -9 92.09 13.7
-5 5 -9 89.39 15
-5 0 9 57.99 18.5
-5 6 -9 48.4 12.9
-1 -5 -9 64.19 12.1
-6 1 9 36.8 16
-6 1 -9 44.4 11.7
-1 -5 9 61.19 23.3
-6 2 -9 47.6 11.7
-2 -4 9 26.1 17.3
-6 3 -9 9.6 7.8
-3 -3 9 -8.6 12
-6 4 -9 53.59 12.2
-4 -2 9 43 18.2
-6 5 -9 43.4 11.5
-5 -1 9 80.09 21.4
-1 0 -10 8.9 7.6
-1 1 10 14.2 17.9
0 -1 10 9 16.2
0 -1 -10 3.3 7.2
-1 1 -10 9.1 7.3
-1 0 10 5.9 16.4
-1 -1 -10 15.2 7.8
-2 1 10 9.4 16.5
-2 -1 -10 39.4 10.2
-3 2 10 33.6 19.1
1 -3 10 36.5 21.4
-2 0 -10 6.5 6.6
0 -2 10 26 19.4
-2 2 10 2.9 16.1
1 -2 -10 85.19 14.1
-2 1 -10 119.59 16.2
-1 -1 10 30.3 19
-2 2 -10 13.3 8.1
0 -2 -10 8.6 6.9
-2 0 10 1 15
-1 -2 -10 26.5 9.1
-2 3 -10 39.6 11.6
-3 1 10 46.6 18.8
-2 -2 -10 177.78 19.9
-2 4 -10 209.88 23.6
-4 2 10 184.98 32.2
-3 -2 -10 25.9 9.4
-5 3 10 31.4 17.5
-3 -1 -10 6 7.1
-4 3 10 -3.8 16.5
1 -4 10 10.4 18.3
-3 0 -10 75.19 13.5
0 -3 10 89.09 27.6
-3 3 10 38.2 19.6
2 -3 -10 15 8.2
-3 1 -10 10 7.8
-1 -2 10 8.2 15.3
-3 2 -10 10.8 8.2
1 -3 -10 12.8 7.7
-2 -1 10 6.6 15.8
0 -3 -10 59.69 11.5
-3 3 -10 46.3 12
-3 0 10 71.59 21.6
-1 -3 -10 6.1 6.8
-3 4 -10 21.9 11
-4 1 10 7.3 14.1
-3 5 -10 37.9 12.4
-2 -3 -10 27.1 10.2
-5 2 10 11.9 16.4
-4 -1 -10 40.8 11.3
1 -5 10 17.7 21.7
-5 4 10 29.4 20.9
-4 0 -10 16.2 9
0 -4 10 3.2 16.5
-4 4 10 8.6 17.9
-4 1 -10 84.79 14.5
-1 -3 10 89.99 27.9
-4 2 -10 35.1 10.2
2 -4 -10 42.3 11
-2 -2 10 24.3 18.2
-4 3 -10 74.79 13.7
1 -4 -10 102.19 14.3
-3 -1 10 102.89 24.5
-4 4 -10 18.3 9
0 -4 -10 7.4 7.2
-4 0 10 25.2 16
-1 -4 -10 35.8 10.1
-4 5 -10 39.9 12.3
-5 1 10 33.6 17.6
-5 1 -10 53.99 12.2
-1 -4 10 7.7 19.6
-5 2 -10 31.1 10.5
3 -5 -10 42.2 11.5
-2 -3 10 20.6 18.4
2 -5 -10 34.9 10.3
-5 3 -10 15.3 9
-3 -2 10 37.7 18.6
-5 4 -10 75.29 14.9
1 -5 -10 75.19 13.4
-4 -1 10 26.1 17.4
0 0 -11 1.4 7.6
-1 0 -11 20.2 9.7
0 -1 11 25.7 22.1
0 -1 -11 16.6 8.6
-1 1 -11 16.7 9.5
-1 0 11 9.9 17
-1 2 -11 0.1 8.4
-1 -1 -11 -0.7 6.9
-2 1 11 -16.7 14.4
-2 -1 -11 75.89 14.1
-3 2 11 66.49 27.3
-2 0 -11 40.6 11.3
-2 2 11 33.4 23.5
0 -2 11 17.1 22.9
1 -2 -11 14.3 9
-2 1 -11 5.3 8.2
-1 -1 11 36.4 21.2
0 -2 -11 42 11.6
-2 2 -11 37.5 12.2
-2 0 11 23.5 21.8
-1 -2 -11 98.29 15.8
-2 3 -11 147.39 20.7
-3 1 11 82.99 27
-3 0 -11 12.7 9
0 -3 11 0.2 20.2
-3 3 11 -9.7 19.1
2 -3 -11 120.29 17.4
-3 1 -11 67.59 14
-1 -2 11 65.29 26.1
1 -3 -11 75.99 14
-3 2 -11 99.19 16.2
-2 -1 11 106.49 30.2
0 -3 -11 12.3 8.3
-3 3 -11 7.4 8.8
-3 0 11 -11.1 15.4
loop_
_geom_angle_atom_site_label_1
_geom_angle_atom_site_label_2
_geom_angle_atom_site_label_3
_geom_angle
_geom_angle_site_symmetry_1
_geom_angle_site_symmetry_3
O2S S1 O2S 110.9(3) 2_775 .
O2S S1 O2S 110.9(3) 2_775 3_575
O2S S1 O2S 111.0(3) . 3_575
O2S S1 O3S 107.9(3) 2_775 .
O2S S1 O3S 107.9(3) 3_575 .
O2S S1 O3S 107.9(3) . .
C2 O1 H1 109.5 . .
H1A N1 H1B 109.5 . .
H1A N1 H1C 109.5 . .
H1B N1 H1C 109.5 . .
C1 N1 H1A 109.5 . .
C1 N1 H1B 109.5 . .
C1 N1 H1C 109.5 . .
O1 C2 H2 108.5 . .
O1 C2 C1 111.6(6) . .
O1 C2 C1 112.3(7) . 3_675
C1 C2 H2 108.5 3_675 .
C1 C2 H2 108.5 . .
C1 C2 C1 107.4(7) . 3_675
N1 C1 C2 109.8(6) . .
N1 C1 C2 108.3(5) . 2_765
N1 C1 H1D 107.9 . .
C2 C1 C2 114.8(7) . 2_765
C2 C1 H1D 107.9 2_765 .
C2 C1 H1D 107.9 . .
loop_
_geom_bond_atom_site_label_1
_geom_bond_atom_site_label_2
_geom_bond_distance
_geom_bond_site_symmetry_2
S1 O2S 1.477(5) 2_775
S1 O2S 1.477(5) 3_575
S1 O2S 1.477(5) .
S1 O3S 1.524(10) .
O1 H1 0.8200 .
O1 C2 1.399(9) .
N1 H1A 0.8900 .
N1 H1B 0.8900 .
N1 H1C 0.8900 .
N1 C1 1.486(10) .
C2 H2 0.9800 .
C2 C1 1.576(13) 3_675
C2 C1 1.521(13) .
C1 H1D 0.9800 .
loop_
_geom_hbond_atom_site_label_D
_geom_hbond_atom_site_label_H
_geom_hbond_atom_site_label_A
_geom_hbond_distance_DH
_geom_hbond_distance_HA
_geom_hbond_distance_DA
_geom_hbond_angle_DHA
_geom_hbond_site_symmetry_A
_geom_hbond_publ_flag
O1 H1 O2S 0.82 1.97 2.779(9) 166.9 . yes
N1 H1A Cl1 0.89 2.37 3.254(7) 172.3 . yes
N1 H1B O3S 0.89 1.96 2.844(6) 174.7 4_454 yes
N1 H1C O2S 0.89 2.08 2.780(9) 134.6 3_565 yes
loop_
_geom_torsion_atom_site_label_1
_geom_torsion_atom_site_label_2
_geom_torsion_atom_site_label_3
_geom_torsion_atom_site_label_4
_geom_torsion
_geom_torsion_site_symmetry_1
_geom_torsion_site_symmetry_2
_geom_torsion_site_symmetry_3
_geom_torsion_site_symmetry_4
O1 C2 C1 N1 54.3(7) . . . .
O1 C2 C1 C2 -68.0(8) . . . 2_765
C1 C2 C1 N1 177.7(5) 3_675 . . .
C1 C2 C1 C2 55.5(10) 3_675 . . 2_765
