#------------------------------------------------------------------------------
#$Date: 2022-04-04 11:21:21 +0300 (Mon, 04 Apr 2022) $
#$Revision: 274305 $
#$URL: file:///home/coder/svn-repositories/cod/cif/8/10/50/8105004.cif $
#------------------------------------------------------------------------------
#
# This file is available in the Crystallography Open Database (COD),
# http://www.crystallography.net/
#
# All data on this site have been placed in the public domain by the
# contributors.
#
data_8105004
loop_
_publ_author_name
'Li, Zhuang-Yu'
'Liu, E.'
'Jian, Fang-fang'
'Liang, Tong-ling'
_publ_section_title
;
 Crystal structure of
 Bis(acetato-\k2O,O&#x2032;)-bis[4-(dimethylamino)pyridine-\kN]nickel(II),
 C18H26N4NiO4
;
_journal_issue                   1
_journal_name_full
'Zeitschrift f\"ur Kristallographie - New Crystal Structures'
_journal_page_first              27
_journal_page_last               28
_journal_paper_doi               10.1515/ncrs-2019-0443
_journal_volume                  235
_journal_year                    2019
_chemical_formula_moiety         'C18 H26 N4 Ni O4'
_chemical_formula_sum            'C18 H26 N4 Ni O4'
_chemical_formula_weight         421.12
_space_group_crystal_system      triclinic
_space_group_IT_number           2
_space_group_name_Hall           '-P 1'
_space_group_name_H-M_alt        'P -1'
_symmetry_Int_Tables_number      2
_atom_sites_solution_primary     direct
_cell_angle_alpha                90.46(3)
_cell_angle_beta                 96.24(3)
_cell_angle_gamma                93.25(3)
_cell_formula_units_Z            1
_cell_length_a                   7.7547(16)
_cell_length_b                   7.8666(16)
_cell_length_c                   8.2798(17)
_cell_measurement_reflns_used    25
_cell_measurement_temperature    310
_cell_measurement_theta_max      14
_cell_measurement_theta_min      3.5
_cell_volume                     501.24(18)
_computing_cell_refinement       'CAD-4 Software (Enraf-Nonius, 1989)'
_computing_data_collection       'CAD-4 Software (Enraf-Nonius, 1989)'
_computing_data_reduction        'NRCVAX (Gabe et al., 1989)'
_computing_molecular_graphics    'Olex2 (Dolomanov et al., 2009)'
_computing_publication_material  'Olex2 (Dolomanov et al., 2009)'
_computing_structure_refinement  'olex2.refine (Bourhis et al., 2015)'
_computing_structure_solution    'SIR2004 (Burla et al., 2007)'
_diffrn_ambient_temperature      310.0
_diffrn_measured_fraction_theta_full 0.9769
_diffrn_measured_fraction_theta_max 0.9770
_diffrn_measurement_device_type  'Enraf-Nonius CAD-4 diffractometer'
_diffrn_measurement_method       'omega scans'
_diffrn_radiation_type           'Mo K\a'
_diffrn_radiation_wavelength     0.71073
_diffrn_reflns_av_R_equivalents  0.0105
_diffrn_reflns_av_unetI/netI     0.0288
_diffrn_reflns_limit_h_max       9
_diffrn_reflns_limit_h_min       -7
_diffrn_reflns_limit_k_max       9
_diffrn_reflns_limit_k_min       -9
_diffrn_reflns_limit_l_max       10
_diffrn_reflns_limit_l_min       -10
_diffrn_reflns_number            2365
_diffrn_reflns_theta_full        24.9970
_diffrn_reflns_theta_max         25.00
_diffrn_reflns_theta_min         2.47
_exptl_absorpt_coefficient_mu    0.998
_exptl_absorpt_correction_T_max  0.9546
_exptl_absorpt_correction_T_min  0.9402
_exptl_absorpt_correction_type   analytical
_exptl_absorpt_process_details   SADABS
_exptl_crystal_colour            'clear dark green'
_exptl_crystal_colour_lustre     clear
_exptl_crystal_colour_modifier   dark
_exptl_crystal_colour_primary    green
_exptl_crystal_density_diffrn    1.3950
_exptl_crystal_description       block
_exptl_crystal_F_000             222.4425
_exptl_crystal_size_max          0.43
_exptl_crystal_size_mid          0.32
_exptl_crystal_size_min          0.16
_refine_diff_density_max         0.2883
_refine_diff_density_min         -0.2119
_refine_diff_density_rms         0.0466
_refine_ls_d_res_high            0.8410
_refine_ls_d_res_low             8.2299
_refine_ls_extinction_expression Fc^*^=kFc[1+0.001xFc^2^\l^3^/sin(2\q)]^-1/4^
_refine_ls_goodness_of_fit_ref   1.0643
_refine_ls_hydrogen_treatment    constr
_refine_ls_matrix_type           full
_refine_ls_number_constraints    20
_refine_ls_number_parameters     124
_refine_ls_number_reflns         1738
_refine_ls_number_restraints     2
_refine_ls_restrained_S_all      1.0636
_refine_ls_R_factor_all          0.0301
_refine_ls_R_factor_gt           0.0294
_refine_ls_shift/su_max          0.0006
_refine_ls_shift/su_mean         0.0001
_refine_ls_structure_factor_coef Fsqd
_refine_ls_weighting_details
'w=1/[\s^2^(Fo^2^)+(0.0534P)^2^+0.1245P] where P=(Fo^2^+2Fc^2^)/3'
_refine_ls_weighting_scheme      calc
_refine_ls_wR_factor_gt          0.0867
_refine_ls_wR_factor_ref         0.0873
_reflns_Friedel_coverage         0.0
_reflns_limit_h_max              9
_reflns_limit_h_min              -9
_reflns_limit_k_max              9
_reflns_limit_k_min              -9
_reflns_limit_l_max              9
_reflns_limit_l_min              0
_reflns_number_gt                1688
_reflns_number_total             1738
_reflns_threshold_expression     I>=2u(I)
_iucr_refine_instructions_details
;
TITL B in P-1
CELL 0.71073 7.7547 7.8666 8.2798 90.46 96.24 93.25
ZERR 1 0.0016 0.0016 0.0017 0.03 0.03 0.03
LATT 1
SFAC C H N Ni O
UNIT 18 26 4 1 4
DELU 0.0005 0.00025 Ni1 O2
DELU 0.001 0.002 Ni1 N1

L.S. 10
PLAN  20
TEMP 36.85
BOND 
fmap 2
acta 
EXTI 0.020(5)
OMIT 0 50
WGHT 0.053435 0.124535
FVAR 0.32664
REM <olex2.extras>
REM <HklSrc "%.\\QJ0679.hkl">
REM </olex2.extras>

Ni1   4     0.50000  0.50000  0.00000  10.50000  0.04355  0.03353  0.04599 =
 0.00728  0.00843 -0.00167 
O1    5     0.67518  0.48553  0.28408  11.00000  0.06116  0.06432  0.07172 =
 -0.00182  0.01122 -0.01209 
O2    5     0.45084  0.33073  0.16609  11.00000  0.05399  0.04175  0.04969 =
 0.01096  0.00944 -0.00180 
N1    3     0.33188  0.65232  0.08696  11.00000  0.04652  0.03704  0.05262 =
 0.00631  0.00864 -0.00257 
N2    3    -0.02132  0.97303  0.26040  11.00000  0.05295  0.04908  0.08307 =
 0.00202  0.01776  0.00057 
C1    1     0.54435  0.27162  0.44123  11.00000  0.08495  0.06855  0.05132 =
 0.01059  0.01194  0.01354 
AFIX 33
H1a   2     0.44942  0.18763  0.42192  11.00000 -1.50000 
H1b   2     0.64984  0.21621  0.47221  11.00000 -1.50000 
H1c   2     0.52244  0.34777  0.52688  11.00000 -1.50000 
AFIX 0
C2    1     0.56216  0.37091  0.28846  11.00000  0.05019  0.04070  0.05342 =
 0.00240  0.01413  0.00716 
C3    1     0.18327  0.59193  0.14093  11.00000  0.05049  0.03682  0.06266 =
 0.00688  0.00804 -0.00622 
AFIX 43
H3    2     0.16072  0.47452  0.13988  11.00000 -1.20000 
AFIX 0
C4    1     0.06315  0.69108  0.19718  11.00000  0.04504  0.04542  0.06525 =
 0.00900  0.00959 -0.00613 
AFIX 43
H4    2    -0.03814  0.64066  0.23065  11.00000 -1.20000 
AFIX 0
C5    1     0.09202  0.86875  0.20464  11.00000  0.04592  0.04510  0.04727 =
 0.00553  0.00083 -0.00195 
C6    1     0.24883  0.93256  0.14998  11.00000  0.04966  0.03710  0.05611 =
 0.00532  0.00647 -0.00477 
AFIX 43
H6    2     0.27705  1.04910  0.15246  11.00000 -1.20000 
AFIX 0
C7    1     0.35939  0.82204  0.09321  11.00000  0.04856  0.04008  0.05316 =
 0.00600  0.00862 -0.00681 
AFIX 43
H7    2     0.46081  0.86816  0.05637  11.00000 -1.20000 
AFIX 0
C8    1     0.00665  1.15628  0.26036  11.00000  0.06787  0.04966  0.08660 =
 -0.00116  0.00954  0.00842 
AFIX 33
H8a   2    -0.08786  1.20738  0.30450  11.00000 -1.50000 
H8b   2     0.11357  1.18915  0.32551  11.00000 -1.50000 
H8c   2     0.01280  1.19399  0.15104  11.00000 -1.50000 
AFIX 0
C9    1    -0.18925  0.90839  0.30242  11.00000  0.05383  0.07725  0.11246 =
 0.00741  0.02753  0.00282 
AFIX 33
H9a   2    -0.25125  1.00079  0.33947  11.00000 -1.50000 
H9b   2    -0.25464  0.85526  0.20851  11.00000 -1.50000 
H9c   2    -0.17306  0.82634  0.38713  11.00000 -1.50000 
AFIX 0
Q1    1     0.41667  0.29167  0.48000  11.00000  0.06000  0.290
Q2    1     0.54167  0.12500  0.40000  11.00000  0.06000  0.270
Q3    1     0.66667  0.29167  0.52000  11.00000  0.06000  0.240
Q5    1     0.62500  0.54167  0.00000  11.00000  0.06000  0.230
Q6    1    -0.29167  1.00000  0.24000  11.00000  0.06000  0.210
Q7    1    -0.20833  0.95833  0.44000  11.00000  0.06000  0.210
Q8    1    -0.20833  0.79167  0.32000  11.00000  0.06000  0.200
Q9    1     0.12500  1.20833  0.24000  11.00000  0.06000  0.180
Q10   1     0.00000  1.20833  0.36000  11.00000  0.06000  0.170
Q11   1     0.04167  1.41667  0.48000  11.00000  0.06000  0.160
Q12   1    -0.08333  1.20833  0.16000  11.00000  0.06000  0.160
Q13   1     0.41667  0.62500  0.08000  11.00000  0.06000  0.150
Q14   1    -0.08333  0.95833  0.28000  11.00000  0.06000  0.130
Q15   1     0.70833  0.37500  0.28000  11.00000  0.06000  0.130
Q16   1     0.66667  0.50000  0.28000  11.00000  0.06000  0.110
Q17   1     0.29167  0.87500  0.16000  11.00000  0.06000  0.110
Q18   1     0.16667  0.87500  0.20000  11.00000  0.06000  0.110
Q19   1     0.12500  0.45833  0.04000  11.00000  0.06000  0.110
Q20   1     0.20833  0.45833  0.20000  11.00000  0.06000  0.100
HKLF 4

END

  REM The information below was added by Olex2.
  REM
  REM R1 = 0.0294 for 1688 Fo > 4sig(Fo) and 0.0301 for all 1738 data
  REM 124 parameters refined using 2 restraints
  REM Highest difference peak 0.2883, deepest hole -0.2119
  REM Mean Shift 0.0001, Max Shift 0.0006.
  
  REM +++ Tabular Listing of Refinement Information +++
  REM R1_all = 0.0301
  REM R1_gt = 0.0294
  REM wR_ref = 0.0873
  REM GOOF = 1.0643
  REM Shift_max = 0.0006
  REM Shift_mean = 0.0001
  REM Reflections_all = 1738
  REM Reflections_gt = 1688
  REM Parameters = 124
  REM Hole = -0.2119
  REM Peak = 0.2883
  REM Flack = n/a
  
  
;
_cod_data_source_file            suppl_ncrs-2019-0443_suppl.cif
_cod_data_source_block           QJ0679
_cod_database_code               8105004
_olex2_refinement_description
;
1. Fixed Uiso
 At 1.2 times of:
  All C(H) groups
 At 1.5 times of:
  All C(H,H,H) groups
2. Rigid bond restraints
 Ni1, O2
 with sigma for 1-2 distances of 0.0005 and sigma for 1-3 distances of 0.00025
 Ni1, N1
 with sigma for 1-2 distances of 0.001 and sigma for 1-3 distances of 0.002
3.a Me refined with riding coordinates:
 C1(H1a,H1b,H1c), C8(H8a,H8b,H8c), C9(H9a,H9b,H9c)
3.b Aromatic/amide H refined with riding coordinates:
 C3(H3), C4(H4), C6(H6), C7(H7)
;
_olex2_submission_special_instructions 'No special instructions were received'
loop_
_space_group_symop_id
_space_group_symop_operation_xyz
1 x,y,z
2 -x,-y,-z
loop_
_atom_site_label
_atom_site_type_symbol
_atom_site_fract_x
_atom_site_fract_y
_atom_site_fract_z
_atom_site_U_iso_or_equiv
_atom_site_adp_type
_atom_site_occupancy
_atom_site_site_symmetry_order
_atom_site_refinement_flags_posn
_atom_site_refinement_flags_adp
_atom_site_refinement_flags_occupancy
Ni1 Ni 0.5 0.5 0.0 0.04087(17) Uani 1.000000 2 S TU P
O1 O 0.6752(2) 0.4855(2) 0.2841(2) 0.0661(5) Uani 1.000000 1 . . .
O2 O 0.45084(19) 0.33073(18) 0.16609(18) 0.0483(4) Uani 1.000000 1 . U .
N1 N 0.3319(2) 0.6523(2) 0.0870(2) 0.0453(4) Uani 1.000000 1 . U .
N2 N -0.0213(3) 0.9730(3) 0.2604(3) 0.0610(5) Uani 1.000000 1 . . .
C1 C 0.5444(4) 0.2716(4) 0.4412(3) 0.0675(7) Uani 1.000000 1 . . .
H1a H 0.4494(4) 0.1876(4) 0.4219(3) 0.1013(10) Uiso 1.000000 1 R . .
H1b H 0.6498(4) 0.2162(4) 0.4722(3) 0.1013(10) Uiso 1.000000 1 R . .
H1c H 0.5224(4) 0.3478(4) 0.5269(3) 0.1013(10) Uiso 1.000000 1 R . .
C2 C 0.5622(3) 0.3709(3) 0.2885(3) 0.0473(5) Uani 1.000000 1 . . .
C3 C 0.1833(3) 0.5919(3) 0.1409(3) 0.0502(5) Uani 1.000000 1 . . .
H3 H 0.1607(3) 0.4745(3) 0.1399(3) 0.0602(6) Uiso 1.000000 1 R . .
C4 C 0.0632(3) 0.6911(3) 0.1972(3) 0.0519(5) Uani 1.000000 1 . . .
H4 H -0.0381(3) 0.6407(3) 0.2307(3) 0.0623(6) Uiso 1.000000 1 R . .
C5 C 0.0920(3) 0.8688(3) 0.2046(3) 0.0466(5) Uani 1.000000 1 . . .
C6 C 0.2488(3) 0.9326(3) 0.1500(3) 0.0478(5) Uani 1.000000 1 . . .
H6 H 0.2771(3) 1.0491(3) 0.1525(3) 0.0574(6) Uiso 1.000000 1 R . .
C7 C 0.3594(3) 0.8220(3) 0.0932(3) 0.0474(5) Uani 1.000000 1 . . .
H7 H 0.4608(3) 0.8682(3) 0.0564(3) 0.0568(6) Uiso 1.000000 1 R . .
C8 C 0.0066(4) 1.1563(3) 0.2604(4) 0.0678(7) Uani 1.000000 1 . . .
H8a H -0.0879(4) 1.2074(3) 0.3045(4) 0.1017(10) Uiso 1.000000 1 R . .
H8b H 0.1136(4) 1.1891(3) 0.3255(4) 0.1017(10) Uiso 1.000000 1 R . .
H8c H 0.0128(4) 1.1940(3) 0.1510(4) 0.1017(10) Uiso 1.000000 1 R . .
C9 C -0.1892(4) 0.9084(4) 0.3024(4) 0.0798(8) Uani 1.000000 1 . . .
H9a H -0.2512(4) 1.0008(4) 0.3395(4) 0.1197(13) Uiso 1.000000 1 R . .
H9b H -0.2546(4) 0.8553(4) 0.2085(4) 0.1197(13) Uiso 1.000000 1 R . .
H9c H -0.1731(4) 0.8263(4) 0.3871(4) 0.1197(13) Uiso 1.000000 1 R . .
loop_
_atom_site_aniso_label
_atom_site_aniso_U_11
_atom_site_aniso_U_22
_atom_site_aniso_U_33
_atom_site_aniso_U_12
_atom_site_aniso_U_13
_atom_site_aniso_U_23
Ni1 0.0435(2) 0.0335(2) 0.0460(2) -0.00167(14) 0.00843(15) 0.00728(14)
O1 0.0612(10) 0.0643(11) 0.0717(11) -0.0121(8) 0.0112(8) -0.0018(8)
O2 0.0540(8) 0.0418(8) 0.0497(8) -0.0018(6) 0.0094(6) 0.0110(5)
N1 0.0465(9) 0.0370(9) 0.0526(10) -0.0026(6) 0.0086(7) 0.0063(7)
N2 0.0529(11) 0.0491(11) 0.0831(14) 0.0006(8) 0.0178(10) 0.0020(10)
C1 0.0849(19) 0.0685(16) 0.0513(14) 0.0135(13) 0.0119(12) 0.0106(11)
C2 0.0502(12) 0.0407(11) 0.0534(12) 0.0072(9) 0.0141(9) 0.0024(9)
C3 0.0505(12) 0.0368(10) 0.0627(13) -0.0062(9) 0.0080(10) 0.0069(9)
C4 0.0450(11) 0.0454(11) 0.0652(13) -0.0061(9) 0.0096(10) 0.0090(10)
C5 0.0459(11) 0.0451(11) 0.0473(11) -0.0020(9) 0.0008(8) 0.0055(8)
C6 0.0497(11) 0.0371(10) 0.0561(12) -0.0048(8) 0.0065(9) 0.0053(9)
C7 0.0486(11) 0.0401(10) 0.0532(12) -0.0068(8) 0.0086(9) 0.0060(9)
C8 0.0679(16) 0.0497(13) 0.0866(19) 0.0084(11) 0.0095(13) -0.0012(12)
C9 0.0538(15) 0.0772(19) 0.112(2) 0.0028(13) 0.0275(15) 0.0074(17)
loop_
_atom_type_symbol
_atom_type_scat_dispersion_real
_atom_type_scat_dispersion_imag
_atom_type_scat_Cromer_Mann_a1
_atom_type_scat_Cromer_Mann_a2
_atom_type_scat_Cromer_Mann_a3
_atom_type_scat_Cromer_Mann_a4
_atom_type_scat_Cromer_Mann_b1
_atom_type_scat_Cromer_Mann_b2
_atom_type_scat_Cromer_Mann_b3
_atom_type_scat_Cromer_Mann_b4
_atom_type_scat_Cromer_Mann_c
_atom_type_scat_source
_atom_type_scat_dispersion_source
H 0.00000 0.00000 0.49300 0.32291 0.14019 0.04081 10.51090 26.12570 3.14236
57.79970 0.0030380000826
'International Tables Volume C Table 6.1.1.4 (pp. 500-502)'
'Henke, Gullikson and Davis, At. Data and Nucl. Data Tables, 1993, 54, 2'
C 0.00347 0.00161 2.31000 1.02000 1.58860 0.86500 20.84390 10.20750 0.56870
51.65120 0.215599998832
'International Tables Volume C Table 6.1.1.4 (pp. 500-502)'
'Henke, Gullikson and Davis, At. Data and Nucl. Data Tables, 1993, 54, 2'
N 0.00653 0.00323 12.21260 3.13220 2.01250 1.16630 0.00570 9.89330 28.99750
0.58260 -11.5290002823
'International Tables Volume C Table 6.1.1.4 (pp. 500-502)'
'Henke, Gullikson and Davis, At. Data and Nucl. Data Tables, 1993, 54, 2'
O 0.01158 0.00611 3.04850 2.28680 1.54630 0.86700 13.27710 5.70110 0.32390
32.90890 0.250800013542
'International Tables Volume C Table 6.1.1.4 (pp. 500-502)'
'Henke, Gullikson and Davis, At. Data and Nucl. Data Tables, 1993, 54, 2'
Ni 0.35663 1.12491 12.83760 7.29200 4.44380 2.38000 3.87850 0.25650 12.17630
66.34210 1.03410005569
'International Tables Volume C Table 6.1.1.4 (pp. 500-502)'
'Henke, Gullikson and Davis, At. Data and Nucl. Data Tables, 1993, 54, 2'
loop_
_geom_angle_atom_site_label_1
_geom_angle_atom_site_label_2
_geom_angle_atom_site_label_3
_geom_angle
_geom_angle_site_symmetry_1
_geom_angle_site_symmetry_3
O2 Ni1 O2 180.0 2_665 .
N1 Ni1 O2 90.55(6) . 2_665
N1 Ni1 O2 89.45(6) . .
N1 Ni1 O2 89.45(6) 2_665 2_665
N1 Ni1 O2 90.55(6) 2_665 .
N1 Ni1 N1 180.0 2_665 .
C2 O2 Ni1 104.54(12) . .
C3 N1 Ni1 122.55(14) . .
C7 N1 Ni1 122.05(14) . .
C7 N1 C3 115.40(18) . .
C8 N2 C5 122.1(2) . .
C9 N2 C5 121.5(2) . .
C9 N2 C8 115.9(2) . .
O2 C2 O1 122.5(2) . .
C1 C2 O1 121.2(2) . .
C1 C2 O2 116.3(2) . .
C4 C3 N1 124.51(19) . .
C5 C4 C3 120.21(19) . .
C4 C5 N2 122.83(19) . .
C6 C5 N2 121.71(19) . .
C6 C5 C4 115.46(19) . .
C7 C6 C5 119.70(19) . .
C6 C7 N1 124.70(19) . .
loop_
_geom_bond_atom_site_label_1
_geom_bond_atom_site_label_2
_geom_bond_distance
_geom_bond_site_symmetry_2
Ni1 O2 1.9737(14) .
Ni1 O2 1.9737(14) 2_665
Ni1 N1 2.0052(18) 2_665
Ni1 N1 2.0052(18) .
O1 C2 1.225(3) .
O2 C2 1.283(3) .
N1 C3 1.344(3) .
N1 C7 1.340(3) .
N2 C5 1.350(3) .
N2 C8 1.446(3) .
N2 C9 1.450(3) .
C1 C2 1.507(3) .
C3 C4 1.365(3) .
C4 C5 1.403(3) .
C5 C6 1.411(3) .
C6 C7 1.370(3) .
loop_
_refln_index_h
_refln_index_k
_refln_index_l
_refln_F_squared_meas
_refln_F_squared_sigma
1 0 -10 0.81 0.09
2 0 -10 1.69 0.12
3 0 -10 0.21 0.07
1 1 -10 1.73 0.13
2 1 -10 1.68 0.13
3 1 -10 2.39 0.16
1 2 -10 2.55 0.16
2 2 -10 2.67 0.16
1 3 -10 0.86 0.11
2 3 -10 1.42 0.13
2 -1 -9 1.49 0.11
3 -1 -9 0.33 0.06
4 -1 -9 0.69 0.08
5 -1 -9 0.76 0.09
0 0 -9 0.7 0.08
1 0 -9 1.32 0.1
2 0 -9 2.07 0.13
3 0 -9 4.77 0.22
4 0 -9 0.28 0.06
5 0 -9 1.05 0.1
0 1 -9 0.13 0.05
1 1 -9 2.14 0.13
2 1 -9 2.32 0.14
3 1 -9 4.9 0.22
4 1 -9 4.42 0.21
5 1 -9 0.89 0.1
1 2 -9 0.3 0.06
2 2 -9 3.63 0.18
3 2 -9 4.36 0.21
4 2 -9 1.7 0.13
1 3 -9 2.1 0.13
2 3 -9 1.71 0.12
3 3 -9 3.19 0.18
4 3 -9 2.6 0.17
1 4 -9 2.56 0.15
2 4 -9 1.94 0.13
3 4 -9 2.34 0.16
1 5 -9 0.2 0.07
2 5 -9 0.85 0.1
6 -2 -8 1.12 0.11
1 -1 -8 10.29 0.36
2 -1 -8 8.07 0.3
3 -1 -8 3.9 0.18
4 -1 -8 0.18 0.05
5 -1 -8 4.7 0.22
6 -1 -8 2.54 0.11
7 -1 -8 2.2 0.11
0 0 -8 0.99 0.08
1 0 -8 3.25 0.15
2 0 -8 4.56 0.2
3 0 -8 5.05 0.22
4 0 -8 0.28 0.06
5 0 -8 0.06 0.05
6 0 -8 2.09 0.14
7 0 -8 0.79 0.1
0 1 -8 0.03 0.04
1 1 -8 1.91 0.11
2 1 -8 1.97 0.12
3 1 -8 3.42 0.17
4 1 -8 3.02 0.16
5 1 -8 0.79 0.09
6 1 -8 2.3 0.15
0 2 -8 4.84 0.2
1 2 -8 0.46 0.06
2 2 -8 5.61 0.23
3 2 -8 5.68 0.24
4 2 -8 2.78 0.15
5 2 -8 2.3 0.15
6 2 -8 3.32 0.18
0 3 -8 6.22 0.25
1 3 -8 8.04 0.3
2 3 -8 3.93 0.19
3 3 -8 4.07 0.19
4 3 -8 7.78 0.31
5 3 -8 0.97 0.1
0 4 -8 3.57 0.17
1 4 -8 2.78 0.15
2 4 -8 3.46 0.17
3 4 -8 2.87 0.16
4 4 -8 0.85 0.1
5 4 -8 2.92 0.18
1 5 -8 7.26 0.29
2 5 -8 0.18 0.06
3 5 -8 0.48 0.08
4 5 -8 0.17 0.07
1 6 -8 7.72 0.31
2 6 -8 5.09 0.24
6 -4 -7 2.89 0.18
5 -3 -7 4.85 0.23
6 -3 -7 3.43 0.19
7 -3 -7 2.36 0.17
5 -2 -7 3.72 0.13
6 -2 -7 4.37 0.22
7 -2 -7 1.01 0.11
1 -1 -7 34.44 1.05
2 -1 -7 6.12 0.23
3 -1 -7 9.97 0.35
4 -1 -7 1 0.09
5 -1 -7 2.9 0.11
6 -1 -7 1.91 0.09
7 -1 -7 0.97 0.07
8 -1 -7 0.24 0.05
-1 0 -7 12.85 0.42
0 0 -7 21.43 0.67
1 0 -7 20.14 0.64
2 0 -7 12.29 0.42
3 0 -7 8.87 0.32
4 0 -7 13.91 0.47
5 0 -7 0.46 0.05
6 0 -7 2.17 0.1
7 0 -7 0.14 0.04
8 0 -7 0.58 0.09
-1 1 -7 2.87 0.13
0 1 -7 6.47 0.24
1 1 -7 1.33 0.09
2 1 -7 7.24 0.27
3 1 -7 4.19 0.18
4 1 -7 6.03 0.24
5 1 -7 7.83 0.3
6 1 -7 3.1 0.16
7 1 -7 1.01 0.1
-1 2 -7 1.71 0.1
0 2 -7 7.14 0.25
1 2 -7 2.14 0.12
2 2 -7 0.06 0.04
3 2 -7 2.55 0.13
4 2 -7 7.29 0.28
5 2 -7 3.73 0.18
6 2 -7 3.88 0.19
7 2 -7 4.87 0.23
0 3 -7 5.32 0.21
1 3 -7 10.85 0.37
2 3 -7 2.83 0.14
3 3 -7 3.2 0.16
4 3 -7 5.99 0.25
5 3 -7 10.54 0.39
6 3 -7 2.73 0.16
7 3 -7 3.73 0.2
0 4 -7 10.71 0.37
1 4 -7 7.24 0.28
2 4 -7 6.06 0.25
3 4 -7 3.59 0.18
4 4 -7 6.28 0.26
5 4 -7 9.36 0.36
6 4 -7 5.6 0.26
0 5 -7 4.93 0.21
1 5 -7 25.26 0.8
2 5 -7 0.83 0.09
3 5 -7 1.27 0.1
4 5 -7 1.06 0.1
5 5 -7 2.66 0.17
0 6 -7 1.8 0.12
1 6 -7 1.53 0.11
2 6 -7 13.16 0.47
3 6 -7 0.02 0.05
4 6 -7 0.31 0.08
0 7 -7 1.56 0.12
1 7 -7 0.34 0.07
2 7 -7 0.86 0.1
6 -5 -6 0.73 0.1
5 -4 -6 4.43 0.22
6 -4 -6 0.73 0.09
7 -4 -6 0.06 0.06
4 -3 -6 9 0.35
5 -3 -6 3 0.17
6 -3 -6 4.2 0.21
7 -3 -6 2.72 0.17
4 -2 -6 5.12 0.15
5 -2 -6 21.48 0.51
6 -2 -6 9.3 0.25
7 -2 -6 3.76 0.2
8 -2 -6 3.71 0.22
0 -1 -6 3.99 0.16
1 -1 -6 10.62 0.35
2 -1 -6 11.72 0.39
3 -1 -6 17.11 0.55
4 -1 -6 18.08 0.43
5 -1 -6 0.04 0.03
6 -1 -6 10.78 0.42
7 -1 -6 4.19 0.14
8 -1 -6 5.23 0.26
-1 0 -6 17.24 0.54
0 0 -6 6.86 0.24
1 0 -6 6.8 0.24
2 0 -6 6.09 0.23
3 0 -6 15.63 0.51
4 0 -6 15.11 0.36
5 0 -6 1.82 0.08
6 0 -6 0.13 0.03
7 0 -6 0.57 0.05
8 0 -6 0.1 0.04
-1 1 -6 16.96 0.53
0 1 -6 34.24 1.03
1 1 -6 1.36 0.08
2 1 -6 8.91 0.31
3 1 -6 4.96 0.2
4 1 -6 10.94 0.27
5 1 -6 4.17 0.13
6 1 -6 0.04 0.03
7 1 -6 0.31 0.06
8 1 -6 -0.05 0.04
-1 2 -6 36.01 1.07
0 2 -6 19.02 0.6
1 2 -6 19.36 0.62
2 2 -6 0.08 0.04
3 2 -6 9.24 0.33
4 2 -6 13.62 0.46
5 2 -6 3.88 0.18
6 2 -6 0.56 0.07
7 2 -6 1.29 0.1
8 2 -6 0.64 0.08
-1 3 -6 4.25 0.17
0 3 -6 1.27 0.08
1 3 -6 6.74 0.24
2 3 -6 8.31 0.3
3 3 -6 4.66 0.2
4 3 -6 8.15 0.31
5 3 -6 22.25 0.72
6 3 -6 2.12 0.13
7 3 -6 1.31 0.11
8 3 -6 0.75 0.09
-1 4 -6 8.85 0.3
0 4 -6 4.57 0.19
1 4 -6 5.35 0.22
2 4 -6 1.33 0.09
3 4 -6 6.93 0.27
4 4 -6 15.36 0.52
5 4 -6 8.48 0.33
6 4 -6 10.16 0.38
7 4 -6 2.48 0.16
-1 5 -6 9.35 0.32
0 5 -6 6.56 0.26
1 5 -6 12.72 0.44
2 5 -6 19.29 0.64
3 5 -6 1.3 0.1
4 5 -6 5.93 0.25
5 5 -6 4.83 0.23
6 5 -6 5.36 0.25
0 6 -6 5.23 0.22
1 6 -6 1.77 0.12
2 6 -6 16.32 0.56
3 6 -6 10.7 0.4
4 6 -6 3.06 0.17
5 6 -6 2.53 0.16
0 7 -6 3.24 0.17
1 7 -6 0.43 0.07
2 7 -6 0.39 0.07
3 7 -6 3.9 0.2
0 8 -6 0.73 0.09
1 8 -6 0.15 0.06
6 -6 -5 1.3 0.13
5 -5 -5 6.31 0.28
6 -5 -5 0.41 0.08
7 -5 -5 0.51 0.09
4 -4 -5 1.21 0.1
5 -4 -5 0.14 0.05
6 -4 -5 2.81 0.17
7 -4 -5 1.02 0.11
8 -4 -5 0.02 0.06
4 -3 -5 2.85 0.15
5 -3 -5 0.5 0.07
6 -3 -5 2.27 0.14
7 -3 -5 0.99 0.1
8 -3 -5 1.05 0.11
3 -2 -5 13.2 0.32
4 -2 -5 0.71 0.05
5 -2 -5 3.14 0.11
6 -2 -5 4.41 0.14
7 -2 -5 7.1 0.31
8 -2 -5 2.41 0.16
0 -1 -5 10.66 0.35
1 -1 -5 13.85 0.44
2 -1 -5 90.4 2.65
3 -1 -5 39.52 0.88
4 -1 -5 51.66 1.14
5 -1 -5 0.71 0.05
6 -1 -5 10.79 0.28
7 -1 -5 7.73 0.22
8 -1 -5 5.79 0.27
-1 0 -5 1.16 0.07
0 0 -5 1.68 0.08
1 0 -5 24.39 0.74
2 0 -5 64.62 1.9
3 0 -5 54.29 1.19
4 0 -5 37.79 0.84
5 0 -5 43.04 0.96
6 0 -5 0.29 0.04
7 0 -5 9.02 0.24
8 0 -5 2.13 0.15
9 0 -5 3.67 0.22
-2 1 -5 68 1.97
-1 1 -5 22.5 0.67
0 1 -5 5.95 0.21
1 1 -5 11.08 0.37
2 1 -5 3.73 0.15
3 1 -5 32.57 0.73
4 1 -5 18.92 0.44
5 1 -5 5.67 0.16
6 1 -5 5.54 0.16
7 1 -5 6.14 0.18
8 1 -5 3.1 0.18
9 1 -5 0.13 0.09
-2 2 -5 16.63 0.49
-1 2 -5 35.79 1.05
0 2 -5 9.06 0.3
1 2 -5 26.26 0.81
2 2 -5 8.7 0.3
3 2 -5 0.36 0.03
4 2 -5 1.32 0.06
5 2 -5 3.16 0.15
6 2 -5 0.01 0.03
7 2 -5 0.61 0.07
-1 3 -5 19.94 0.6
0 3 -5 5.65 0.21
1 3 -5 11.68 0.39
2 3 -5 21.75 0.69
3 3 -5 3.06 0.14
4 3 -5 2.44 0.13
5 3 -5 0.92 0.08
6 3 -5 1.66 0.11
7 3 -5 0.15 0.05
-1 4 -5 25.62 0.78
0 4 -5 6.43 0.23
1 4 -5 18.02 0.58
2 4 -5 9.03 0.31
3 4 -5 12.11 0.42
4 4 -5 4.01 0.18
5 4 -5 3.99 0.19
6 4 -5 5.02 0.22
7 4 -5 3.34 0.18
-1 5 -5 0.04 0.03
0 5 -5 9.44 0.32
1 5 -5 3.96 0.17
2 5 -5 67.41 2.03
3 5 -5 5.58 0.23
4 5 -5 7.56 0.29
5 5 -5 3.15 0.16
6 5 -5 3.82 0.19
7 5 -5 3.28 0.18
-1 6 -5 2.72 0.13
0 6 -5 2.89 0.14
1 6 -5 3.8 0.17
2 6 -5 6.82 0.26
3 6 -5 47.95 1.47
4 6 -5 4.59 0.21
5 6 -5 4.91 0.23
6 6 -5 0.24 0.07
-1 7 -5 7.91 0.29
0 7 -5 2.99 0.16
1 7 -5 3.79 0.18
2 7 -5 3.5 0.18
3 7 -5 6.5 0.27
4 7 -5 5.2 0.24
-1 8 -5 4.96 0.22
0 8 -5 4.39 0.2
1 8 -5 1.35 0.11
2 8 -5 1.09 0.1
6 -7 -4 1.4 0.13
5 -6 -4 7.28 0.32
6 -6 -4 7.53 0.33
7 -6 -4 1.77 0.15
4 -5 -4 1.22 0.1
5 -5 -4 11.72 0.45
6 -5 -4 5.34 0.25
7 -5 -4 3.97 0.22
3 -4 -4 5.77 0.25
4 -4 -4 2.04 0.13
5 -4 -4 0.37 0.06
6 -4 -4 7.51 0.32
7 -4 -4 2.17 0.15
8 -4 -4 0.12 0.07
3 -3 -4 1.11 0.09
4 -3 -4 3.75 0.17
5 -3 -4 4.4 0.2
6 -3 -4 1.34 0.11
7 -3 -4 2.03 0.14
8 -3 -4 1.74 0.14
2 -2 -4 33.92 1.12
3 -2 -4 0.19 0.04
4 -2 -4 3.88 0.12
5 -2 -4 1.35 0.06
6 -2 -4 13.49 0.5
7 -2 -4 6.43 0.28
8 -2 -4 1.2 0.12
9 -2 -4 0.83 0.11
0 -1 -4 4.42 0.16
1 -1 -4 23.82 0.72
2 -1 -4 26.63 0.6
3 -1 -4 12.06 0.29
4 -1 -4 6.64 0.17
5 -1 -4 14.16 0.34
6 -1 -4 0.58 0.05
7 -1 -4 9.86 0.26
8 -1 -4 2.39 0.16
9 -1 -4 3.88 0.22
-1 0 -4 3.26 0.12
0 0 -4 39.3 1.16
1 0 -4 30.92 0.92
2 0 -4 50.27 1.09
3 0 -4 12.1 0.29
4 0 -4 38.92 0.86
5 0 -4 32.41 0.73
6 0 -4 9.84 0.25
7 0 -4 2.93 0.11
8 0 -4 2.05 0.14
9 0 -4 0.01 0.06
-2 1 -4 0.52 0.04
-1 1 -4 240.9 7.03
0 1 -4 42.03 1.24
1 1 -4 184.89 5.43
2 1 -4 27.05 0.6
3 1 -4 63.57 1.38
4 1 -4 23.34 0.53
5 1 -4 36.75 0.82
6 1 -4 25.48 0.59
7 1 -4 8.17 0.22
8 1 -4 3.67 0.2
9 1 -4 0.16 0.07
-2 2 -4 5.93 0.19
-1 2 -4 11.64 0.37
0 2 -4 62.86 1.84
1 2 -4 105.76 3.1
2 2 -4 116.44 2.53
3 2 -4 1.08 0.05
4 2 -4 16.37 0.38
5 2 -4 29.06 0.66
6 2 -4 12.11 0.3
7 2 -4 4.41 0.14
8 2 -4 4.39 0.22
-2 3 -4 3.21 0.12
-1 3 -4 22.68 0.68
0 3 -4 16.75 0.52
1 3 -4 8.31 0.28
2 3 -4 13.81 0.45
3 3 -4 7.89 0.28
4 3 -4 0.85 0.07
5 3 -4 1.12 0.08
6 3 -4 19.45 0.63
7 3 -4 2.89 0.15
-2 4 -4 1.3 0.07
-1 4 -4 9.32 0.3
0 4 -4 18.52 0.55
1 4 -4 10.35 0.35
2 4 -4 12.99 0.43
3 4 -4 1.7 0.1
4 4 -4 0.44 0.06
5 4 -4 2.12 0.12
6 4 -4 3.13 0.16
7 4 -4 6.3 0.26
-2 5 -4 7.81 0.27
-1 5 -4 0.29 0.04
0 5 -4 12.43 0.41
1 5 -4 10.36 0.35
2 5 -4 20.01 0.63
3 5 -4 18.64 0.6
4 5 -4 0.38 0.06
5 5 -4 0.61 0.07
6 5 -4 1.35 0.1
7 5 -4 5.9 0.26
-2 6 -4 6.52 0.24
-1 6 -4 5.29 0.2
0 6 -4 9.6 0.34
1 6 -4 9.59 0.34
2 6 -4 6.1 0.24
3 6 -4 27.86 0.88
4 6 -4 10.89 0.39
5 6 -4 3.87 0.19
6 6 -4 4.05 0.2
7 6 -4 0.5 0.08
-1 7 -4 11.2 0.39
0 7 -4 5.64 0.23
1 7 -4 15.89 0.52
2 7 -4 7.1 0.28
3 7 -4 5.04 0.22
4 7 -4 7.76 0.31
5 7 -4 3.04 0.17
-1 8 -4 3.02 0.16
0 8 -4 13.19 0.46
1 8 -4 6.51 0.26
2 8 -4 2.5 0.15
3 8 -4 5.84 0.26
-1 9 -4 0.76 0.09
0 9 -4 2.54 0.16
1 9 -4 4.03 0.21
5 -7 -3 1.34 0.12
6 -7 -3 0.1 0.06
7 -7 -3 0.15 0.07
4 -6 -3 5.24 0.24
5 -6 -3 10.3 0.4
6 -6 -3 0.75 0.09
7 -6 -3 0.94 0.11
3 -5 -3 9.91 0.37
4 -5 -3 22.41 0.77
5 -5 -3 7.18 0.3
6 -5 -3 18.64 0.68
7 -5 -3 2.28 0.16
8 -5 -3 0.69 0.1
3 -4 -3 30.29 1.01
4 -4 -3 37.71 1.26
5 -4 -3 18.55 0.65
6 -4 -3 6.75 0.29
7 -4 -3 6.77 0.3
8 -4 -3 2.56 0.17
2 -3 -3 2.28 0.11
3 -3 -3 6.4 0.25
4 -3 -3 24.12 0.82
5 -3 -3 13.91 0.49
6 -3 -3 5.03 0.23
7 -3 -3 5.54 0.25
8 -3 -3 0.78 0.1
9 -3 -3 0.98 0.11
2 -2 -3 94.04 3.03
3 -2 -3 0.14 0.03
4 -2 -3 12.7 0.46
5 -2 -3 0.06 0.04
6 -2 -3 2.52 0.14
7 -2 -3 1.6 0.12
8 -2 -3 2.9 0.18
9 -2 -3 1.61 0.14
1 -1 -3 39.55 1.16
2 -1 -3 0.62 0.03
3 -1 -3 19.86 0.45
4 -1 -3 15.99 0.37
5 -1 -3 48.82 1.08
6 -1 -3 7.68 0.27
7 -1 -3 2.55 0.15
8 -1 -3 1.79 0.13
9 -1 -3 2.6 0.18
-1 0 -3 195.95 5.66
0 0 -3 0.55 0.04
1 0 -3 3.48 0.13
2 0 -3 3.52 0.09
3 0 -3 19.72 0.44
4 0 -3 27.95 0.62
5 0 -3 25.92 0.58
6 0 -3 31.63 0.72
7 0 -3 0 0.04
8 0 -3 2.56 0.16
9 0 -3 0.49 0.09
-2 1 -3 0.61 0.04
-1 1 -3 223.18 6.47
0 1 -3 75.41 2.2
1 1 -3 23.35 0.69
2 1 -3 12.3 0.28
3 1 -3 1.19 0.05
4 1 -3 40.28 0.89
5 1 -3 55.71 1.22
6 1 -3 14.14 0.34
7 1 -3 3.35 0.17
8 1 -3 4.52 0.23
9 1 -3 1.65 0.14
-2 2 -3 17.05 0.5
-1 2 -3 75.64 2.19
0 2 -3 167.4 4.89
1 2 -3 98.34 2.89
2 2 -3 93.06 2.02
3 2 -3 34.42 0.76
4 2 -3 27.5 0.62
5 2 -3 27.44 0.62
6 2 -3 22.46 0.52
7 2 -3 1.17 0.1
8 2 -3 0.52 0.08
9 2 -3 0.52 0.09
-2 3 -3 18.43 0.55
-1 3 -3 155.07 4.49
0 3 -3 138.91 4.07
1 3 -3 63.76 1.9
2 3 -3 51.33 1.13
3 3 -3 61.95 1.35
4 3 -3 17.89 0.41
5 3 -3 28.73 0.65
6 3 -3 14.02 0.34
7 3 -3 4.98 0.15
-2 4 -3 21.66 0.65
-1 4 -3 1.04 0.07
0 4 -3 100.3 2.95
1 4 -3 19.13 0.6
2 4 -3 38.34 1.17
3 4 -3 2.2 0.11
4 4 -3 11.18 0.38
5 4 -3 8.79 0.32
6 4 -3 7.15 0.28
7 4 -3 5.17 0.22
-2 5 -3 1.64 0.09
-1 5 -3 8.13 0.28
0 5 -3 0.12 0.04
1 5 -3 5.41 0.2
2 5 -3 1.59 0.1
3 5 -3 48.58 1.46
4 5 -3 0.07 0.04
5 5 -3 3.25 0.16
6 5 -3 1.8 0.12
7 5 -3 3.14 0.17
-2 6 -3 10.66 0.35
-1 6 -3 4.79 0.19
0 6 -3 2.68 0.13
1 6 -3 0.68 0.07
2 6 -3 0.17 0.04
3 6 -3 0.14 0.04
4 6 -3 26.37 0.84
5 6 -3 2.88 0.15
6 6 -3 6.14 0.26
7 6 -3 0.11 0.05
-2 7 -3 7.6 0.28
-1 7 -3 12.88 0.43
0 7 -3 16.2 0.52
1 7 -3 5.88 0.24
2 7 -3 1.88 0.12
3 7 -3 1.66 0.12
4 7 -3 4.6 0.21
5 7 -3 3.94 0.2
6 7 -3 5.36 0.24
-2 8 -3 4.38 0.19
-1 8 -3 6.35 0.25
0 8 -3 15.62 0.52
1 8 -3 13.82 0.48
2 8 -3 4.76 0.22
3 8 -3 2.3 0.14
4 8 -3 7.15 0.3
-1 9 -3 3.36 0.17
0 9 -3 3.95 0.2
1 9 -3 7.35 0.31
2 9 -3 4.81 0.23
4 -7 -2 5.71 0.25
5 -7 -2 1.18 0.1
6 -7 -2 1.18 0.11
7 -7 -2 0.17 0.07
3 -6 -2 5.63 0.23
4 -6 -2 0.22 0.06
5 -6 -2 1.77 0.12
6 -6 -2 0.78 0.09
7 -6 -2 1.59 0.13
8 -6 -2 0.37 0.09
3 -5 -2 0.05 0.02
4 -5 -2 5.62 0.16
5 -5 -2 0.1 0.05
6 -5 -2 3.72 0.19
7 -5 -2 1.04 0.1
8 -5 -2 1.49 0.13
2 -4 -2 44.57 1.47
3 -4 -2 50.28 1.15
4 -4 -2 36.75 0.86
5 -4 -2 7.98 0.32
6 -4 -2 0.32 0.06
7 -4 -2 6.51 0.29
8 -4 -2 2.42 0.17
2 -3 -2 208.19 6.69
3 -3 -2 71.12 1.61
4 -3 -2 51.37 1.16
5 -3 -2 21.66 0.76
6 -3 -2 16.41 0.59
7 -3 -2 4.62 0.23
8 -3 -2 2.81 0.17
9 -3 -2 2.15 0.16
1 -2 -2 37.07 1.22
2 -2 -2 168.17 5.36
3 -2 -2 166.5 3.69
4 -2 -2 38.51 0.87
5 -2 -2 33.49 1.11
6 -2 -2 1.25 0.1
7 -2 -2 11.57 0.45
8 -2 -2 6.67 0.3
9 -2 -2 1.93 0.15
1 -1 -2 15.34 0.37
2 -1 -2 10.86 0.25
3 -1 -2 50.18 0.89
4 -1 -2 43.37 0.78
5 -1 -2 8.73 0.28
6 -1 -2 5 0.22
7 -1 -2 1.81 0.12
8 -1 -2 5.55 0.26
9 -1 -2 1.18 0.12
0 0 -2 106.69 3.09
2 0 -2 1.24 0.04
3 0 -2 33.24 0.73
4 0 -2 1.14 0.05
5 0 -2 17.82 0.41
6 0 -2 9.37 0.23
7 0 -2 1.42 0.11
8 0 -2 2.33 0.15
9 0 -2 2.94 0.19
-2 1 -2 33.72 0.98
-1 1 -2 3.85 0.12
0 1 -2 325.73 9.49
1 1 -2 0.53 0.02
2 1 -2 84.99 1.83
3 1 -2 1.26 0.05
4 1 -2 46.26 1.01
5 1 -2 9.65 0.24
6 1 -2 9.17 0.23
7 1 -2 7.18 0.3
8 1 -2 6.53 0.29
9 1 -2 5.16 0.26
-3 2 -2 12.47 0.37
-2 2 -2 6.81 0.21
-1 2 -2 20.01 0.59
0 2 -2 2.09 0.08
1 2 -2 0.55 0.02
2 2 -2 71.08 1.53
3 2 -2 164.42 3.53
4 2 -2 5.18 0.14
5 2 -2 12.95 0.31
6 2 -2 18.65 0.44
7 2 -2 4.05 0.2
8 2 -2 2.13 0.15
9 2 -2 4.35 0.24
-3 3 -2 39.39 1.15
-2 3 -2 48.2 1.41
-1 3 -2 35.16 1.05
0 3 -2 71.85 2.13
1 3 -2 44.04 1.3
2 3 -2 40.09 0.87
3 3 -2 55.85 1.22
4 3 -2 45.66 1.01
5 3 -2 16.46 0.39
6 3 -2 1.08 0.06
7 3 -2 9.87 0.39
8 3 -2 1.21 0.12
9 3 -2 2.15 0.17
-3 4 -2 56.98 1.64
-2 4 -2 73.84 2.18
-1 4 -2 29.47 0.87
0 4 -2 69.69 2.05
1 4 -2 72.75 2.13
2 4 -2 51.39 1.52
3 4 -2 95.18 2.79
4 4 -2 8.88 0.22
5 4 -2 2.11 0.11
6 4 -2 2.25 0.12
-3 5 -2 23.03 0.7
-2 5 -2 48.93 1.45
-1 5 -2 41.55 1.23
0 5 -2 5.76 0.21
1 5 -2 16.3 0.52
2 5 -2 17.67 0.56
3 5 -2 46.77 1.4
4 5 -2 47.3 1.42
5 5 -2 0.59 0.06
6 5 -2 0.53 0.06
-3 6 -2 32.12 0.97
-2 6 -2 9.99 0.34
-1 6 -2 14.11 0.46
0 6 -2 1.4 0.09
1 6 -2 4.1 0.18
2 6 -2 0.62 0.07
3 6 -2 1.72 0.11
4 6 -2 29.62 0.93
5 6 -2 10.01 0.36
6 6 -2 2.91 0.16
-2 7 -2 9.5 0.34
-1 7 -2 1.28 0.09
0 7 -2 5.38 0.22
1 7 -2 0.06 0.04
2 7 -2 1.86 0.12
3 7 -2 1.48 0.1
4 7 -2 3.53 0.17
5 7 -2 4.43 0.21
6 7 -2 2.3 0.14
-2 8 -2 2.13 0.13
-1 8 -2 1.04 0.09
0 8 -2 0.91 0.09
1 8 -2 6.63 0.27
2 8 -2 2.44 0.14
3 8 -2 0.46 0.07
4 8 -2 6.66 0.28
5 8 -2 4.23 0.21
-2 9 -2 5 0.23
-1 9 -2 7.39 0.3
0 9 -2 2.1 0.14
1 9 -2 3.14 0.17
2 9 -2 3.91 0.2
4 -8 -1 3.48 0.19
3 -7 -1 13.17 0.48
4 -7 -1 8.72 0.33
2 -6 -1 15.18 0.53
3 -6 -1 1.47 0.07
4 -6 -1 7.15 0.2
5 -6 -1 1.59 0.11
6 -6 -1 9.09 0.37
7 -6 -1 1.23 0.12
8 -6 -1 1.07 0.12
2 -5 -1 19.52 0.46
3 -5 -1 1.64 0.07
4 -5 -1 0.1 0.03
5 -5 -1 2.08 0.12
6 -5 -1 0.47 0.07
7 -5 -1 10.35 0.41
8 -5 -1 2.28 0.16
2 -4 -1 17.29 0.41
3 -4 -1 0.92 0.05
4 -4 -1 1.74 0.07
5 -4 -1 3.26 0.11
6 -4 -1 3.57 0.18
7 -4 -1 3.27 0.18
8 -4 -1 3.7 0.21
9 -4 -1 1.96 0.16
1 -3 -1 89.65 2.02
2 -3 -1 153.68 3.42
3 -3 -1 6.26 0.16
4 -3 -1 0.84 0.04
5 -3 -1 7.19 0.19
6 -3 -1 6.23 0.27
7 -3 -1 4.35 0.22
8 -3 -1 4.91 0.25
9 -3 -1 0.82 0.11
1 -2 -1 384.99 8.49
2 -2 -1 112.86 2.52
3 -2 -1 328.07 7.21
4 -2 -1 21.07 0.49
5 -2 -1 28.59 0.67
6 -2 -1 0.25 0.05
7 -2 -1 5.62 0.25
8 -2 -1 3.02 0.18
9 -2 -1 0.91 0.11
1 -1 -1 111.74 2.5
2 -1 -1 451.56 7.96
3 -1 -1 116.39 2.05
4 -1 -1 55.18 1.2
5 -1 -1 23.09 0.52
6 -1 -1 60.87 2
7 -1 -1 1.5 0.12
8 -1 -1 2.32 0.15
9 -1 -1 0.36 0.08
0 0 -1 236.27 6.83
1 0 -1 22.83 0.5
2 0 -1 51.08 1.1
3 0 -1 0.91 0.04
4 0 -1 20.85 0.47
5 0 -1 13.79 0.32
6 0 -1 11.19 0.42
7 0 -1 21.71 0.77
8 0 -1 0.76 0.09
9 0 -1 0.84 0.11
-2 1 -1 15.6 0.47
-1 1 -1 61.44 1.8
0 1 -1 134.87 3.97
1 1 -1 31.53 0.69
2 1 -1 24.13 0.53
3 1 -1 19.87 0.44
4 1 -1 16.42 0.37
5 1 -1 1.83 0.07
6 1 -1 18.48 0.65
7 1 -1 9.52 0.38
8 1 -1 3.29 0.19
9 1 -1 3.79 0.22
-3 2 -1 10.78 0.33
-2 2 -1 28.94 0.85
-1 2 -1 3.63 0.12
0 2 -1 0.64 0.04
1 2 -1 23.43 0.51
2 2 -1 65.33 1.41
3 2 -1 47.26 1.03
4 2 -1 0.91 0.05
5 2 -1 2.53 0.09
6 2 -1 9.25 0.36
7 2 -1 19.05 0.69
8 2 -1 3.82 0.21
9 2 -1 2.98 0.2
-3 3 -1 96.6 2.84
-2 3 -1 5.3 0.18
-1 3 -1 11.61 0.36
0 3 -1 98.42 2.9
1 3 -1 85.59 1.86
2 3 -1 57.07 1.24
3 3 -1 37.88 0.83
4 3 -1 31.11 0.69
5 3 -1 3.47 0.11
6 3 -1 13.03 0.32
7 3 -1 16.24 0.6
8 3 -1 9.16 0.38
9 3 -1 1.11 0.13
-3 4 -1 28.91 0.88
-2 4 -1 15.09 0.47
-1 4 -1 37.83 1.11
1 4 -1 159.77 3.43
2 4 -1 53.97 1.18
3 4 -1 116.27 2.51
4 4 -1 3.24 0.11
5 4 -1 3.33 0.11
6 4 -1 3.83 0.13
7 4 -1 5.4 0.25
8 4 -1 4.97 0.25
-3 5 -1 50.48 1.52
-2 5 -1 59.49 1.75
-1 5 -1 14.74 0.47
0 5 -1 33.77 1.02
1 5 -1 11.99 0.4
2 5 -1 47.88 1.43
3 5 -1 3.67 0.16
4 5 -1 75.51 2.23
5 5 -1 0.04 0.04
6 5 -1 0.51 0.06
-3 6 -1 24.94 0.76
-2 6 -1 40.85 1.24
-1 6 -1 34.47 1.05
0 6 -1 20.86 0.66
1 6 -1 17.78 0.57
2 6 -1 16.12 0.53
3 6 -1 4.2 0.18
4 6 -1 0.38 0.06
5 6 -1 10.79 0.38
6 6 -1 0.68 0.08
-3 7 -1 0.23 0.05
-2 7 -1 8.94 0.32
-1 7 -1 7.25 0.28
0 7 -1 9.42 0.34
1 7 -1 15.43 0.52
2 7 -1 9.71 0.35
3 7 -1 3.65 0.17
4 7 -1 2.4 0.14
5 7 -1 2.16 0.14
6 7 -1 0.51 0.08
-3 8 -1 1.64 0.11
-2 8 -1 0.06 0.05
-1 8 -1 0.17 0.05
0 8 -1 0.07 0.04
1 8 -1 5.99 0.25
2 8 -1 8.53 0.33
3 8 -1 3.44 0.18
4 8 -1 1.59 0.12
5 8 -1 5.49 0.25
-3 9 -1 0.05 0.06
-2 9 -1 0.54 0.08
-1 9 -1 1.37 0.11
0 9 -1 0.44 0.08
1 9 -1 0.57 0.08
2 9 -1 4 0.2
3 9 -1 4.03 0.21
4 -9 0 1.51 0.13
3 -8 0 5.51 0.25
4 -8 0 7.31 0.31
2 -7 0 0.34 0.06
3 -7 0 8.68 0.34
4 -7 0 11.46 0.44
5 -7 0 10.35 0.4
1 -6 0 24.58 0.83
2 -6 0 59.13 1.9
3 -6 0 2.02 0.12
4 -6 0 14.21 0.36
5 -6 0 4.58 0.15
6 -6 0 6.12 0.27
7 -6 0 1.37 0.12
8 -6 0 0.96 0.11
1 -5 0 45.38 1.45
2 -5 0 13.16 0.32
3 -5 0 33.35 0.77
4 -5 0 1.55 0.07
5 -5 0 8.47 0.23
6 -5 0 0.34 0.07
7 -5 0 4.33 0.22
8 -5 0 0.74 0.1
0 -4 0 1.57 0.08
1 -4 0 17.48 0.57
2 -4 0 13.43 0.32
3 -4 0 1.27 0.06
4 -4 0 6.11 0.17
5 -4 0 21.13 0.51
6 -4 0 8.8 0.35
7 -4 0 0.7 0.09
8 -4 0 3.14 0.19
9 -4 0 1.88 0.16
0 -3 0 9.21 0.32
1 -3 0 0.16 0.02
2 -3 0 1.36 0.05
3 -3 0 21.84 0.51
4 -3 0 2.32 0.08
5 -3 0 16.26 0.4
6 -3 0 7.91 0.22
7 -3 0 11.66 0.45
8 -3 0 5.06 0.25
9 -3 0 2.15 0.17
0 -2 0 50.02 1.57
1 -2 0 4.22 0.11
2 -2 0 0.15 0.02
3 -2 0 26.31 0.61
4 -2 0 36.48 0.83
5 -2 0 16.51 0.4
6 -2 0 27.49 0.65
7 -2 0 0.26 0.07
8 -2 0 6.24 0.29
9 -2 0 3.58 0.21
0 -1 0 62.51 1.95
1 -1 0 149.96 3.3
2 -1 0 9.64 0.33
3 -1 0 12 0.42
4 -1 0 27.31 0.91
5 -1 0 44.6 1.47
6 -1 0 19.64 0.69
7 -1 0 4.94 0.23
8 -1 0 0.95 0.11
9 -1 0 1.02 0.12
1 0 0 85.72 2.74
2 0 0 172.33 3.69
3 0 0 5.9 0.14
4 0 0 54.88 1.19
5 0 0 11.3 0.42
6 0 0 22.33 0.78
7 0 0 7.24 0.31
8 0 0 0.01 0.05
9 0 0 -0.01 0.06
-4 1 0 27.13 0.8
-3 1 0 12.68 0.37
-2 1 0 10.1 0.3
-1 1 0 145.29 4.29
0 1 0 62.62 1.81
1 1 0 698.57 14.88
2 1 0 83.46 1.79
3 1 0 109.38 2.35
4 1 0 4.64 0.12
5 1 0 27.25 0.63
6 1 0 12.84 0.48
7 1 0 4.52 0.22
8 1 0 0.43 0.08
9 1 0 0.53 0.09
-4 2 0 36.09 1.06
-3 2 0 26.48 0.78
-2 2 0 0.13 0.02
-1 2 0 4.41 0.14
0 2 0 50.27 1.46
1 2 0 46.83 1.01
2 2 0 4.1 0.11
3 2 0 4.84 0.13
4 2 0 45.85 1
5 2 0 2.77 0.09
6 2 0 8.8 0.35
7 2 0 15.43 0.57
8 2 0 1.23 0.12
9 2 0 0.19 0.08
-4 3 0 2.4 0.09
-3 3 0 21.89 0.66
-2 3 0 1.37 0.07
-1 3 0 0.22 0.03
0 3 0 9.53 0.3
1 3 0 35.83 1.06
2 3 0 4.95 0.13
3 3 0 2.82 0.09
4 3 0 4.16 0.12
5 3 0 14.66 0.35
6 3 0 20.43 0.72
7 3 0 4.88 0.24
8 3 0 7.66 0.34
9 3 0 0.97 0.13
-4 4 0 6.21 0.21
-3 4 0 1.39 0.08
-2 4 0 13.25 0.42
-1 4 0 16.89 0.53
0 4 0 1.45 0.08
1 4 0 38.04 1.14
2 4 0 33.17 0.74
3 4 0 10.32 0.25
4 4 0 45 1
5 4 0 5.55 0.16
6 4 0 7.24 0.31
7 4 0 6.82 0.31
8 4 0 4.26 0.24
-4 5 0 1.79 0.1
-3 5 0 33.67 1.01
-2 5 0 12.99 0.43
-1 5 0 45.22 1.35
0 5 0 45.57 1.36
1 5 0 19.45 0.61
2 5 0 15.95 0.37
3 5 0 6.23 0.17
4 5 0 25.4 0.58
5 5 0 33.5 0.76
6 5 0 3.7 0.2
-4 6 0 13.96 0.46
-3 6 0 2.05 0.11
-2 6 0 59.76 1.77
-1 6 0 25.37 0.78
0 6 0 52.53 1.57
1 6 0 17 0.55
2 6 0 18.94 0.61
3 6 0 0.68 0.07
4 6 0 0.06 0.04
5 6 0 11.47 0.4
-4 7 0 11.85 0.41
-3 7 0 9.07 0.32
-2 7 0 0.07 0.04
-1 7 0 22.84 0.73
0 7 0 13.11 0.45
1 7 0 27.21 0.86
2 7 0 2.35 0.13
3 7 0 0.99 0.09
4 7 0 0.2 0.06
5 7 0 0.88 0.09
-3 8 0 5.2 0.23
-2 8 0 3.45 0.17
-1 8 0 6.28 0.26
0 8 0 3.57 0.18
1 8 0 4.55 0.21
2 8 0 8.37 0.33
3 8 0 2.37 0.15
4 8 0 0.2 0.06
5 8 0 2.6 0.15
-3 9 0 0.54 0.09
-2 9 0 0.37 0.07
-1 9 0 2.34 0.15
0 9 0 4.67 0.22
1 9 0 2.38 0.15
2 9 0 3.15 0.18
3 9 0 1.9 0.14
2 -9 1 0.38 0.08
3 -9 1 -0.01 0.06
4 -9 1 1.84 0.15
1 -8 1 0.2 0.06
2 -8 1 0.15 0.05
3 -8 1 1.66 0.12
4 -8 1 2.57 0.16
5 -8 1 0.44 0.08
1 -7 1 7.24 0.3
2 -7 1 9.09 0.35
3 -7 1 0.22 0.05
4 -7 1 8.9 0.35
5 -7 1 4.73 0.23
6 -7 1 2.06 0.15
0 -6 1 20.96 0.71
1 -6 1 34.67 1.13
2 -6 1 41.27 1.34
3 -6 1 23.74 0.82
4 -6 1 1.55 0.11
5 -6 1 9.44 0.37
6 -6 1 0.83 0.09
0 -5 1 33.56 1.09
1 -5 1 14.61 0.51
2 -5 1 58.94 1.34
3 -5 1 51.58 1.17
4 -5 1 17.94 0.44
5 -5 1 5.74 0.17
6 -5 1 2.29 0.1
7 -5 1 0.01 0.06
8 -5 1 2.25 0.16
0 -4 1 4.57 0.18
1 -4 1 37.03 0.85
2 -4 1 15.1 0.36
3 -4 1 29.74 0.68
4 -4 1 10.93 0.28
5 -4 1 8.55 0.23
6 -4 1 1.78 0.08
7 -4 1 0.35 0.07
8 -4 1 0.6 0.09
9 -4 1 0.67 0.11
-1 -3 1 87.86 2.71
0 -3 1 100.99 3.12
1 -3 1 11.73 0.28
2 -3 1 5.34 0.14
3 -3 1 98.39 2.19
4 -3 1 12.34 0.31
5 -3 1 3.13 0.11
6 -3 1 2.69 0.1
7 -3 1 1.54 0.08
8 -3 1 1.89 0.14
9 -3 1 2.34 0.17
-1 -2 1 23.49 0.75
0 -2 1 0.73 0.04
1 -2 1 3.69 0.09
2 -2 1 29.06 0.66
3 -2 1 11.27 0.27
4 -2 1 124.17 2.78
5 -2 1 21.05 0.72
6 -2 1 23.95 0.83
7 -2 1 -0.02 0.05
8 -2 1 3.45 0.2
9 -2 1 3.8 0.23
-1 -1 1 32.53 1
0 -1 1 139.93 4.27
1 -1 1 62.51 1.39
2 -1 1 16.69 0.54
3 -1 1 60.15 1.94
4 -1 1 64.14 2.08
5 -1 1 42.29 1.4
6 -1 1 15.24 0.56
7 -1 1 31.5 1.09
8 -1 1 -0.01 0.06
9 -1 1 3.07 0.2
1 0 1 115.67 2.49
2 0 1 0.24 0.03
3 0 1 39.37 0.86
4 0 1 9.25 0.21
5 0 1 27.58 0.94
6 0 1 10.1 0.39
7 0 1 3.92 0.21
8 0 1 5.36 0.26
9 0 1 1.07 0.12
-1 1 1 113.12 3.24
0 1 1 45.2 1.31
1 1 1 279.07 8.05
2 1 1 62.24 1.34
3 1 1 65.95 1.42
4 1 1 47.1 1.03
5 1 1 0.14 0.04
6 1 1 1.14 0.1
7 1 1 1.86 0.14
8 1 1 0.51 0.09
9 1 1 0.33 0.09
-5 2 1 28.63 0.85
-4 2 1 21.11 0.63
-3 2 1 316.68 9.35
-2 2 1 112.6 3.27
-1 2 1 376.15 11.01
0 2 1 188.71 5.45
1 2 1 80.9 2.35
2 2 1 12.32 0.28
3 2 1 48.44 1.06
4 2 1 54.37 1.19
5 2 1 5.26 0.23
6 2 1 0.22 0.06
7 2 1 0.21 0.07
8 2 1 1.41 0.13
9 2 1 -0.06 0.08
-5 3 1 6.96 0.24
-4 3 1 0.82 0.06
-3 3 1 6.23 0.21
-2 3 1 152.2 4.44
-1 3 1 91.95 2.63
0 3 1 0.82 0.05
1 3 1 85.15 2.48
2 3 1 23.9 0.72
3 3 1 18.75 0.43
4 3 1 19.03 0.44
5 3 1 16.31 0.59
6 3 1 1.87 0.13
7 3 1 1.09 0.11
8 3 1 2.48 0.17
-5 4 1 3.33 0.14
-4 4 1 1.62 0.09
-3 4 1 0.84 0.06
-2 4 1 17.49 0.54
-1 4 1 2.74 0.12
0 4 1 21.46 0.66
1 4 1 27.88 0.84
2 4 1 25.97 0.58
3 4 1 5.7 0.15
4 4 1 83.27 1.81
5 4 1 6.26 0.17
6 4 1 3.01 0.17
7 4 1 1.54 0.13
8 4 1 1.51 0.14
-4 5 1 0.11 0.04
-3 5 1 1.48 0.09
-2 5 1 19.58 0.61
-1 5 1 35.4 1.07
0 5 1 3.94 0.16
1 5 1 3.53 0.15
2 5 1 0.3 0.03
3 5 1 13.89 0.33
4 5 1 3.68 0.12
5 5 1 71.77 1.58
6 5 1 2.94 0.18
7 5 1 2.04 0.16
8 5 1 0.22 0.1
-4 6 1 6.81 0.26
-3 6 1 1.15 0.09
-2 6 1 15.14 0.5
-1 6 1 35.94 1.1
0 6 1 31.54 0.97
1 6 1 13.65 0.46
2 6 1 6.74 0.19
3 6 1 7.78 0.21
4 6 1 7.3 0.2
5 6 1 5.05 0.21
-4 7 1 8 0.31
-3 7 1 13.1 0.45
-2 7 1 0.14 0.05
-1 7 1 16.8 0.56
0 7 1 14.02 0.48
1 7 1 11.7 0.41
2 7 1 8.93 0.33
3 7 1 4.09 0.19
4 7 1 2.33 0.14
5 7 1 3.42 0.17
-4 8 1 3.42 0.18
-3 8 1 6.81 0.28
-2 8 1 7.74 0.31
-1 8 1 7.38 0.3
0 8 1 3.58 0.18
1 8 1 0.46 0.08
2 8 1 2.74 0.16
3 8 1 2.34 0.15
4 8 1 0.45 0.08
5 8 1 0.3 0.06
-4 9 1 3.06 0.19
-3 9 1 5.09 0.24
-2 9 1 0.71 0.09
-1 9 1 3.54 0.19
0 9 1 4.72 0.23
1 9 1 1.14 0.11
2 9 1 0.11 0.06
3 9 1 0.87 0.1
1 -9 2 7.27 0.32
2 -9 2 5.26 0.26
3 -9 2 2.32 0.17
4 -9 2 1.58 0.15
1 -8 2 0.92 0.09
2 -8 2 2.32 0.15
3 -8 2 1.89 0.14
4 -8 2 2.44 0.16
5 -8 2 2.85 0.18
0 -7 2 4.98 0.23
1 -7 2 1.38 0.1
2 -7 2 9.29 0.37
3 -7 2 1.65 0.12
4 -7 2 1.06 0.1
5 -7 2 2.69 0.16
6 -7 2 3.28 0.19
-1 -6 2 4.31 0.19
0 -6 2 1.75 0.11
1 -6 2 14.21 0.5
2 -6 2 9.99 0.38
3 -6 2 31.96 1.07
4 -6 2 2.05 0.13
5 -6 2 3 0.17
6 -6 2 0.92 0.1
7 -6 2 3.94 0.22
-1 -5 2 15.96 0.55
0 -5 2 5.48 0.22
1 -5 2 40.65 1.33
2 -5 2 48.8 1.57
3 -5 2 22.81 0.77
4 -5 2 18.16 0.63
5 -5 2 2.19 0.13
6 -5 2 3.22 0.17
7 -5 2 0.13 0.06
-1 -4 2 72.51 2.29
0 -4 2 70.02 2.21
1 -4 2 28.84 0.66
2 -4 2 75.05 1.68
3 -4 2 55.76 1.28
4 -4 2 8.07 0.22
5 -4 2 1.84 0.08
6 -4 2 4.67 0.15
7 -4 2 2.09 0.1
8 -4 2 0.22 0.07
-1 -3 2 43.99 1.4
0 -3 2 73.9 2.29
1 -3 2 35.58 0.8
2 -3 2 48.34 1.09
3 -3 2 39.07 0.9
4 -3 2 20.92 0.5
5 -3 2 0.13 0.03
6 -3 2 1.63 0.08
7 -3 2 0.05 0.03
8 -3 2 1.99 0.15
9 -3 2 0.8 0.11
-1 -2 2 0.5 0.04
0 -2 2 2.11 0.09
1 -2 2 19.76 0.46
2 -2 2 6.78 0.17
3 -2 2 12.67 0.31
4 -2 2 16.48 0.57
5 -2 2 5.6 0.24
6 -2 2 1.52 0.11
7 -2 2 5.35 0.25
8 -2 2 0.43 0.08
9 -2 2 1.47 0.14
-1 -1 2 0.56 0.03
0 -1 2 332.41 10.22
1 -1 2 3.63 0.14
2 -1 2 33.38 1.09
3 -1 2 22.76 0.76
4 -1 2 17.54 0.61
5 -1 2 8.33 0.33
6 -1 2 12.4 0.47
7 -1 2 11.34 0.45
8 -1 2 4.13 0.22
9 -1 2 0 0.07
1 0 2 1000 31.78
2 0 2 36.51 0.79
3 0 2 121.18 3.89
4 0 2 11.76 0.43
5 0 2 25.71 0.88
6 0 2 8.82 0.36
7 0 2 14.58 0.56
8 0 2 9.69 0.41
9 0 2 1.58 0.15
0 1 2 0.61 0.04
1 1 2 1.57 0.06
2 1 2 218.05 4.67
3 1 2 73.2 1.58
4 1 2 88.86 2.88
5 1 2 0.05 0.04
6 1 2 8.61 0.35
7 1 2 9.77 0.4
8 1 2 5.02 0.26
-5 2 2 32.87 0.99
-4 2 2 38.06 1.14
-3 2 2 163.81 4.8
-2 2 2 167.26 4.86
-1 2 2 38 1.11
0 2 2 0.18 0.02
1 2 2 44.45 1.3
2 2 2 60.24 1.31
3 2 2 16.45 0.38
4 2 2 11.36 0.29
5 2 2 10.77 0.41
6 2 2 0.17 0.05
7 2 2 0.59 0.09
8 2 2 6.35 0.31
-5 3 2 22.26 0.68
-4 3 2 50.12 1.51
-3 3 2 72.05 2.09
-2 3 2 210.93 6.07
-1 3 2 80.76 2.36
0 3 2 10.48 0.34
1 3 2 18.73 0.57
2 3 2 61.3 1.33
3 3 2 16.44 0.38
4 3 2 6.62 0.17
5 3 2 0.2 0.06
6 3 2 -0.02 0.05
7 3 2 1.19 0.12
8 3 2 0.58 0.1
-5 4 2 8.35 0.29
-4 4 2 38.06 1.12
-3 4 2 51.39 1.5
-2 4 2 45.82 1.35
-1 4 2 52.41 1.55
0 4 2 21.45 0.66
1 4 2 0.09 0.03
2 4 2 21.49 0.49
3 4 2 20.54 0.47
4 4 2 7.39 0.2
5 4 2 11.09 0.43
6 4 2 0.28 0.07
7 4 2 0.07 0.07
8 4 2 0.56 0.11
-5 5 2 0.07 0.04
-4 5 2 5.38 0.21
-3 5 2 0.05 0.03
-2 5 2 46.01 1.38
-1 5 2 9.53 0.33
0 5 2 12.19 0.41
1 5 2 8.71 0.31
2 5 2 9.33 0.24
3 5 2 11.01 0.28
4 5 2 2.98 0.11
5 5 2 11.85 0.46
6 5 2 8.67 0.37
7 5 2 0.73 0.11
-5 6 2 1.75 0.11
-4 6 2 0.35 0.06
-3 6 2 5.58 0.22
-2 6 2 10.63 0.37
-1 6 2 25.33 0.8
0 6 2 3.48 0.17
1 6 2 16.45 0.54
2 6 2 7.27 0.2
3 6 2 19.79 0.47
4 6 2 4.58 0.15
5 6 2 0.84 0.1
6 6 2 5 0.25
7 6 2 2.77 0.21
-5 7 2 1 0.09
-4 7 2 5.32 0.23
-3 7 2 6.3 0.25
-2 7 2 4.34 0.2
-1 7 2 0.1 0.05
0 7 2 5.7 0.24
1 7 2 3.63 0.18
2 7 2 21.35 0.7
3 7 2 7.44 0.29
4 7 2 4.27 0.2
-4 8 2 2.61 0.16
-3 8 2 8.49 0.33
-2 8 2 6.06 0.26
-1 8 2 4.4 0.21
0 8 2 4.38 0.21
1 8 2 1.33 0.11
2 8 2 2.76 0.16
3 8 2 7.66 0.31
4 8 2 3.78 0.2
-4 9 2 1.86 0.15
-3 9 2 5.62 0.26
-2 9 2 1.98 0.15
-1 9 2 0.69 0.1
0 9 2 1.94 0.14
1 9 2 1.71 0.13
2 9 2 1.01 0.11
1 -9 3 3.11 0.2
2 -9 3 4.35 0.24
0 -8 3 14.69 0.56
1 -8 3 5.61 0.27
2 -8 3 3.87 0.21
3 -8 3 0.5 0.08
4 -8 3 1.79 0.14
5 -8 3 2.09 0.17
-1 -7 3 5.68 0.25
0 -7 3 14.99 0.56
1 -7 3 12.65 0.48
2 -7 3 7.63 0.32
3 -7 3 5.13 0.24
4 -7 3 0.38 0.07
5 -7 3 3.96 0.21
6 -7 3 2.25 0.16
-1 -6 3 0.69 0.07
0 -6 3 2.39 0.14
1 -6 3 4.7 0.21
2 -6 3 10.08 0.39
3 -6 3 11.15 0.42
4 -6 3 4.95 0.23
5 -6 3 0.78 0.09
6 -6 3 5.48 0.26
7 -6 3 0.92 0.12
-2 -5 3 1.7 0.1
-1 -5 3 5.07 0.21
0 -5 3 0.15 0.04
1 -5 3 8.29 0.31
2 -5 3 1.66 0.11
3 -5 3 8.86 0.34
4 -5 3 11.9 0.44
5 -5 3 7.25 0.3
6 -5 3 5.27 0.25
7 -5 3 3.35 0.19
8 -5 3 0.4 0.11
-2 -4 3 39.57 1.25
-1 -4 3 19.34 0.64
0 -4 3 102.32 3.19
1 -4 3 0.68 0.07
2 -4 3 21.18 0.72
3 -4 3 11.37 0.41
4 -4 3 6.34 0.18
5 -4 3 2.85 0.11
6 -4 3 7.03 0.21
7 -4 3 2.84 0.12
8 -4 3 0.85 0.07
-2 -3 3 52.74 1.64
-1 -3 3 65.65 2.04
0 -3 3 141.82 4.39
1 -3 3 155.39 3.46
2 -3 3 18.13 0.43
3 -3 3 6.15 0.18
4 -3 3 31.4 0.74
5 -3 3 3.54 0.12
6 -3 3 1.98 0.09
7 -3 3 0.44 0.05
8 -3 3 0.37 0.06
-2 -2 3 94.91 2.92
-1 -2 3 100.24 3.1
0 -2 3 170.73 5.27
1 -2 3 75.27 1.69
2 -2 3 16.53 0.4
3 -2 3 12.77 0.45
4 -2 3 0.54 0.06
5 -2 3 15.51 0.56
6 -2 3 2.46 0.15
7 -2 3 7.18 0.32
8 -2 3 0.75 0.1
-2 -1 3 12.63 0.4
-1 -1 3 22.96 0.74
0 -1 3 75.83 2.37
1 -1 3 225.26 7.14
2 -1 3 0.57 0.05
3 -1 3 1.19 0.04
4 -1 3 0.17 0.05
5 -1 3 3.65 0.18
6 -1 3 5.46 0.25
7 -1 3 2.44 0.16
8 -1 3 5.9 0.29
-2 0 3 3.56 0.12
2 0 3 89.59 1.93
3 0 3 1.42 0.05
4 0 3 4.65 0.21
5 0 3 0.22 0.06
6 0 3 8.68 0.36
7 0 3 4.8 0.25
8 0 3 1.89 0.15
0 1 3 12.22 0.38
1 1 3 28.6 0.85
2 1 3 124.4 2.68
3 1 3 36.52 0.8
4 1 3 29.54 1
5 1 3 20.69 0.73
6 1 3 3.69 0.2
7 1 3 5.72 0.28
8 1 3 3.5 0.22
-6 2 3 2.58 0.12
-5 2 3 0.03 0.03
-4 2 3 13.09 0.42
-3 2 3 0.08 0.03
-2 2 3 94.81 2.75
-1 2 3 2.22 0.1
0 2 3 52.21 1.54
1 2 3 122.18 3.55
2 2 3 90.3 1.95
3 2 3 19.22 0.44
4 2 3 19.5 0.68
5 2 3 24.33 0.85
6 2 3 9.92 0.4
7 2 3 4.25 0.23
8 2 3 2.5 0.18
-6 3 3 5.2 0.2
-5 3 3 13.07 0.44
-4 3 3 24.02 0.74
-3 3 3 6.57 0.23
-2 3 3 2.33 0.11
-1 3 3 43.31 1.29
0 3 3 53.07 1.57
1 3 3 5.18 0.19
2 3 3 70.31 2.06
3 3 3 19.41 0.45
4 3 3 6.95 0.29
5 3 3 3.46 0.18
6 3 3 4.63 0.23
7 3 3 2.48 0.17
8 3 3 0.85 0.12
-6 4 3 7.06 0.26
-5 4 3 18.36 0.59
-4 4 3 37.71 1.14
-3 4 3 30.31 0.93
-2 4 3 20.14 0.63
-1 4 3 24.53 0.76
0 4 3 8.43 0.29
1 4 3 24.55 0.76
2 4 3 0.37 0.05
3 4 3 6.23 0.17
4 4 3 0.59 0.05
5 4 3 15.39 0.57
6 4 3 0.4 0.08
7 4 3 0.44 0.09
-5 5 3 7.4 0.27
-4 5 3 22.1 0.7
-3 5 3 9.57 0.34
-2 5 3 11.81 0.4
-1 5 3 23.61 0.74
0 5 3 26.32 0.82
1 5 3 8.71 0.31
2 5 3 3.93 0.17
3 5 3 0.07 0.03
4 5 3 0.06 0.03
5 5 3 0.77 0.09
6 5 3 12.5 0.5
7 5 3 0.82 0.12
-5 6 3 9.74 0.36
-4 6 3 5.63 0.23
-3 6 3 13.35 0.46
-2 6 3 1.73 0.11
-1 6 3 5.69 0.23
0 6 3 16.74 0.55
1 6 3 17.51 0.57
2 6 3 11.42 0.4
3 6 3 2.75 0.11
4 6 3 0.6 0.05
5 6 3 0.32 0.07
6 6 3 1.02 0.12
-5 7 3 1.04 0.09
-4 7 3 0.95 0.09
-3 7 3 4.55 0.21
-2 7 3 5.04 0.22
-1 7 3 0.32 0.06
0 7 3 5.09 0.22
1 7 3 7.53 0.3
2 7 3 11.29 0.3
3 7 3 8.42 0.24
4 7 3 2.14 0.1
5 7 3 0.63 0.1
-5 8 3 0.01 0.05
-4 8 3 1.72 0.13
-3 8 3 1.21 0.11
-2 8 3 1.52 0.12
-1 8 3 2.04 0.14
0 8 3 5.28 0.24
1 8 3 4.05 0.2
2 8 3 2.61 0.16
3 8 3 4.78 0.23
4 8 3 3.09 0.17
-4 9 3 0.24 0.08
-3 9 3 1.55 0.14
-2 9 3 4.03 0.22
-1 9 3 0.03 0.07
0 9 3 1.96 0.15
1 9 3 3.82 0.21
0 -9 4 2.36 0.17
-1 -8 4 5.95 0.28
0 -8 4 13.01 0.5
1 -8 4 2.97 0.18
2 -8 4 1.56 0.13
3 -8 4 0.86 0.1
4 -8 4 0.81 0.11
-1 -7 4 15.12 0.56
0 -7 4 6.02 0.26
1 -7 4 11.21 0.43
2 -7 4 2.92 0.17
3 -7 4 8.28 0.35
4 -7 4 0.78 0.09
5 -7 4 0.26 0.07
-2 -6 4 6.21 0.26
-1 -6 4 9.07 0.36
0 -6 4 9.73 0.37
1 -6 4 4.83 0.23
2 -6 4 6.48 0.28
3 -6 4 3.91 0.2
4 -6 4 13.42 0.51
5 -6 4 0.27 0.07
6 -6 4 0.59 0.1
-2 -5 4 19.76 0.67
-1 -5 4 9.7 0.37
0 -5 4 12.36 0.45
1 -5 4 0.19 0.05
2 -5 4 7.46 0.31
3 -5 4 11.63 0.44
4 -5 4 9.66 0.38
5 -5 4 8.21 0.34
6 -5 4 2.57 0.16
7 -5 4 1.66 0.14
-2 -4 4 13.36 0.46
-1 -4 4 10.48 0.37
0 -4 4 16.1 0.59
1 -4 4 8.51 0.33
2 -4 4 1.22 0.09
3 -4 4 15.77 0.56
4 -4 4 23.4 0.8
5 -4 4 9.48 0.38
6 -4 4 4.42 0.22
7 -4 4 3.76 0.21
8 -4 4 1.5 0.15
-2 -3 4 14.45 0.48
-1 -3 4 7.92 0.29
0 -3 4 16.36 0.56
1 -3 4 22.24 0.75
2 -3 4 3.12 0.1
3 -3 4 9.08 0.24
4 -3 4 22.66 0.55
5 -3 4 18.24 0.46
6 -3 4 3.6 0.13
7 -3 4 2.65 0.12
8 -3 4 0.08 0.05
-2 -2 4 119.34 3.67
-1 -2 4 106.92 3.33
0 -2 4 62.8 1.98
1 -2 4 11.82 0.29
2 -2 4 5.77 0.16
3 -2 4 3.76 0.17
4 -2 4 6.91 0.28
5 -2 4 10.92 0.42
6 -2 4 4.66 0.23
7 -2 4 1.28 0.12
8 -2 4 1.15 0.12
-2 -1 4 27.38 0.86
-1 -1 4 190.15 5.84
0 -1 4 42.31 1.34
1 -1 4 246.12 7.77
2 -1 4 0.42 0.05
3 -1 4 1.34 0.09
4 -1 4 2.71 0.15
5 -1 4 3.75 0.19
6 -1 4 1.46 0.12
7 -1 4 0.99 0.11
8 -1 4 1.55 0.14
-2 0 4 49.73 1.57
2 0 4 122.62 2.64
3 0 4 0.13 0.04
4 0 4 10.89 0.41
5 0 4 0.22 0.06
6 0 4 2.71 0.17
7 0 4 0.7 0.09
8 0 4 0.88 0.12
1 1 4 1.8 0.08
2 1 4 0.12 0.02
3 1 4 10.07 0.24
4 1 4 8.19 0.33
5 1 4 21.51 0.77
6 1 4 0.28 0.07
7 1 4 0.85 0.11
8 1 4 1.5 0.15
-3 2 4 0.07 0.03
-2 2 4 34.2 1.03
-1 2 4 59.58 1.76
0 2 4 38.95 1.16
1 2 4 6.26 0.22
2 2 4 19.98 0.61
3 2 4 11.43 0.28
4 2 4 7.85 0.32
5 2 4 10.35 0.41
6 2 4 7.13 0.32
7 2 4 0.94 0.11
-6 3 4 1.36 0.09
-5 3 4 4.55 0.19
-4 3 4 3.79 0.16
-3 3 4 1.27 0.08
-2 3 4 4.64 0.18
-1 3 4 76.24 2.24
0 3 4 61.98 1.83
1 3 4 17.72 0.56
2 3 4 16.85 0.53
3 3 4 31.21 0.7
4 3 4 14.5 0.54
5 3 4 16.22 0.6
6 3 4 2.6 0.17
7 3 4 0.57 0.1
-6 4 4 7.72 0.29
-5 4 4 0.32 0.05
-4 4 4 2.19 0.12
-3 4 4 6.58 0.24
-2 4 4 17.5 0.56
-1 4 4 26.53 0.82
0 4 4 42.28 1.27
1 4 4 29.06 0.89
2 4 4 1.29 0.09
3 4 4 8.41 0.29
4 4 4 8.72 0.35
5 4 4 8.61 0.36
6 4 4 10.29 0.43
7 4 4 0.1 0.08
-6 5 4 5.42 0.23
-5 5 4 11.97 0.42
-4 5 4 0.87 0.08
-3 5 4 6.84 0.26
-2 5 4 0.73 0.07
-1 5 4 37.01 1.13
0 5 4 14.26 0.47
1 5 4 7.36 0.27
2 5 4 1.34 0.09
3 5 4 0.72 0.05
4 5 4 1.1 0.1
5 5 4 0.29 0.07
6 5 4 4.42 0.24
-6 6 4 7.23 0.29
-5 6 4 7.63 0.29
-4 6 4 9.13 0.34
-3 6 4 3.09 0.16
-2 6 4 6.35 0.26
-1 6 4 3.31 0.16
0 6 4 14.57 0.5
1 6 4 1.37 0.11
2 6 4 2.28 0.13
3 6 4 0.05 0.03
4 6 4 0.93 0.1
5 6 4 0.3 0.08
6 6 4 0.22 0.09
-5 7 4 3.38 0.18
-4 7 4 2.73 0.15
-3 7 4 6.14 0.26
-2 7 4 4.57 0.21
-1 7 4 2.98 0.16
0 7 4 0.32 0.07
1 7 4 2.05 0.13
2 7 4 0.03 0.05
3 7 4 3.42 0.13
4 7 4 0.84 0.1
5 7 4 0.44 0.1
-5 8 4 0.07 0.06
-4 8 4 0.8 0.1
-3 8 4 1.18 0.11
-2 8 4 3.23 0.18
-1 8 4 2.97 0.17
0 8 4 3.97 0.21
1 8 4 4.1 0.21
2 8 4 0.6 0.09
3 8 4 0.63 0.09
-1 -8 5 1.23 0.12
0 -8 5 4.52 0.23
1 -8 5 4.76 0.25
2 -8 5 2.32 0.17
-2 -7 5 3.67 0.19
-1 -7 5 3.95 0.2
0 -7 5 3.65 0.19
1 -7 5 7.08 0.32
2 -7 5 7.26 0.32
3 -7 5 5.62 0.27
4 -7 5 2.69 0.18
-2 -6 5 6.26 0.27
-1 -6 5 3.48 0.18
0 -6 5 2.77 0.16
1 -6 5 2.49 0.15
2 -6 5 2.61 0.16
3 -6 5 3.94 0.21
4 -6 5 3.99 0.22
5 -6 5 0.46 0.09
-2 -5 5 68.98 2.17
-1 -5 5 3.56 0.17
0 -5 5 9.02 0.35
1 -5 5 0.05 0.04
2 -5 5 3.13 0.17
3 -5 5 1.07 0.1
4 -5 5 1.17 0.11
5 -5 5 0.39 0.08
6 -5 5 0.31 0.08
-3 -4 5 12.85 0.44
-2 -4 5 7.88 0.31
-1 -4 5 18.14 0.62
0 -4 5 6.37 0.26
1 -4 5 25.51 0.86
2 -4 5 0.71 0.08
3 -4 5 7.38 0.31
4 -4 5 7.81 0.33
5 -4 5 1.64 0.13
6 -4 5 0.15 0.06
7 -4 5 0.68 0.11
-2 -3 5 22.07 0.72
-1 -3 5 11.76 0.41
0 -3 5 5.53 0.22
1 -3 5 19.05 0.66
2 -3 5 34.97 1.15
3 -3 5 19.55 0.68
4 -3 5 10.03 0.39
5 -3 5 16.18 0.59
6 -3 5 2.67 0.17
7 -3 5 1.55 0.14
-2 -2 5 8.97 0.31
-1 -2 5 26.86 0.86
0 -2 5 9.19 0.33
1 -2 5 34.84 0.81
2 -2 5 15.78 0.39
3 -2 5 18.28 0.64
4 -2 5 20.19 0.71
5 -2 5 6.61 0.28
6 -2 5 7.38 0.32
7 -2 5 2.18 0.16
8 -2 5 3.86 0.23
-2 -1 5 3.56 0.14
-1 -1 5 11.38 0.38
0 -1 5 5.85 0.23
1 -1 5 21.77 0.75
2 -1 5 67.21 2.2
3 -1 5 4.95 0.22
4 -1 5 5.25 0.23
5 -1 5 1.59 0.12
6 -1 5 2.1 0.15
7 -1 5 1.3 0.13
8 -1 5 0.99 0.13
-2 0 5 64.54 2.02
2 0 5 33.13 0.74
3 0 5 24.46 0.84
4 0 5 2.77 0.16
5 0 5 1.97 0.14
6 0 5 0.14 0.07
7 0 5 0.56 0.1
1 1 5 0.58 0.05
2 1 5 0.24 0.03
3 1 5 10.65 0.41
4 1 5 4.66 0.22
5 1 5 3.14 0.18
6 1 5 0.93 0.11
7 1 5 -0.01 0.06
-7 2 5 7.25 0.28
0 2 5 1.23 0.08
1 2 5 0.06 0.03
2 2 5 7.35 0.25
3 2 5 12.17 0.46
4 2 5 2.47 0.15
5 2 5 2.26 0.15
6 2 5 2.07 0.16
7 2 5 0.94 0.12
-7 3 5 0.85 0.09
-6 3 5 2.3 0.13
-5 3 5 0.6 0.07
-4 3 5 2.73 0.14
-3 3 5 8.6 0.31
-2 3 5 6.98 0.26
-1 3 5 6.11 0.23
0 3 5 11.14 0.38
1 3 5 6.61 0.24
2 3 5 0.19 0.04
4 3 5 7.78 0.33
5 3 5 5.11 0.25
6 3 5 0.71 0.1
7 3 5 0.28 0.09
-6 4 5 2.59 0.15
-5 4 5 0.1 0.04
-4 4 5 1.31 0.09
-3 4 5 9.79 0.35
-2 4 5 15.33 0.51
-1 4 5 22.18 0.7
0 4 5 18.11 0.58
1 4 5 6.22 0.24
2 4 5 10.64 0.36
3 4 5 3.33 0.12
4 4 5 9.46 0.39
5 4 5 0.61 0.09
6 4 5 6.71 0.32
-6 5 5 0.38 0.07
-5 5 5 6.41 0.26
-4 5 5 0.6 0.07
-3 5 5 7.62 0.29
-2 5 5 4.64 0.2
-1 5 5 11.35 0.4
0 5 5 21.29 0.69
1 5 5 14.02 0.47
2 5 5 8.57 0.31
3 5 5 6.43 0.19
4 5 5 3.13 0.18
5 5 5 1.09 0.12
6 5 5 0.01 0.08
-6 6 5 1.46 0.12
-5 6 5 0.82 0.09
-4 6 5 3.88 0.19
-3 6 5 3.34 0.17
-2 6 5 10.08 0.37
-1 6 5 0.28 0.06
0 6 5 2.71 0.15
1 6 5 4.84 0.22
2 6 5 4.56 0.21
3 6 5 5.14 0.17
4 6 5 2.23 0.16
5 6 5 0.82 0.11
-6 7 5 0.76 0.1
-5 7 5 0.42 0.08
-4 7 5 1.84 0.13
-3 7 5 0.96 0.1
-2 7 5 3.09 0.17
-1 7 5 2.86 0.17
0 7 5 0.33 0.07
1 7 5 -0.01 0.05
2 7 5 0.04 0.06
3 7 5 1.41 0.09
4 7 5 2.35 0.18
-4 8 5 0.08 0.07
-3 8 5 1.51 0.13
-2 8 5 1.34 0.13
-1 8 5 0.44 0.08
0 8 5 0.14 0.07
1 8 5 0.35 0.08
2 8 5 0.04 0.05
-2 -8 6 0.3 0.08
-1 -8 6 0.1 0.06
0 -8 6 0.83 0.11
-2 -7 6 0.3 0.07
-1 -7 6 0.4 0.08
0 -7 6 3.51 0.19
1 -7 6 2.72 0.17
2 -7 6 5.89 0.28
3 -7 6 2.45 0.18
-2 -6 6 16.61 0.59
-1 -6 6 2.09 0.13
0 -6 6 5.4 0.25
1 -6 6 4.72 0.23
2 -6 6 5.01 0.25
3 -6 6 4.06 0.22
4 -6 6 2.28 0.17
-2 -5 6 20.12 0.68
-1 -5 6 13.34 0.48
0 -5 6 7.08 0.29
1 -5 6 8.94 0.36
2 -5 6 0.73 0.09
3 -5 6 2.2 0.15
4 -5 6 1.35 0.13
5 -5 6 0.95 0.11
-2 -4 6 1.44 0.1
-1 -4 6 5.7 0.23
0 -4 6 4.81 0.21
1 -4 6 8.45 0.34
2 -4 6 2.47 0.15
3 -4 6 0.08 0.05
4 -4 6 0.55 0.08
5 -4 6 0.97 0.11
6 -4 6 0.28 0.08
-1 -3 6 5.86 0.25
0 -3 6 1.2 0.09
1 -3 6 4.79 0.21
2 -3 6 6.03 0.26
3 -3 6 0.55 0.08
4 -3 6 0.13 0.06
5 -3 6 1.45 0.12
6 -3 6 1.51 0.14
-1 -2 6 19.81 0.65
0 -2 6 19.42 0.65
1 -2 6 35.11 1.17
2 -2 6 14.3 0.52
3 -2 6 4.9 0.23
4 -2 6 2.95 0.16
5 -2 6 1.29 0.12
6 -2 6 2.64 0.17
-1 -1 6 1.39 0.08
0 -1 6 34.04 1.11
1 -1 6 16.86 0.59
2 -1 6 110.68 3.57
3 -1 6 12.96 0.48
4 -1 6 5.32 0.25
5 -1 6 2.35 0.16
6 -1 6 2.14 0.16
7 -1 6 1.35 0.14
2 0 6 6.42 0.27
3 0 6 47.59 1.58
4 0 6 3.45 0.19
5 0 6 5.03 0.25
6 0 6 0.38 0.08
7 0 6 0.82 0.12
1 1 6 4.1 0.17
2 1 6 5.58 0.16
3 1 6 1.84 0.13
4 1 6 1.86 0.14
5 1 6 0.66 0.09
6 1 6 3.06 0.2
7 1 6 0.26 0.09
-7 2 6 3.75 0.19
-3 2 6 13.99 0.47
-2 2 6 3.12 0.15
-1 2 6 7.51 0.28
0 2 6 6.22 0.24
1 2 6 3.1 0.14
2 2 6 1.59 0.1
3 2 6 3.73 0.2
4 2 6 0.44 0.08
5 2 6 0.1 0.06
6 2 6 0.53 0.1
-7 3 6 2.99 0.17
-6 3 6 3.76 0.19
-5 3 6 2.91 0.16
-4 3 6 8.71 0.33
-3 3 6 12.69 0.44
-2 3 6 2.43 0.13
-1 3 6 0.14 0.04
0 3 6 4.97 0.2
1 3 6 6.13 0.23
2 3 6 0.88 0.07
3 3 6 2.02 0.14
4 3 6 2.71 0.17
5 3 6 0.83 0.11
6 3 6 2.32 0.18
-7 4 6 0.1 0.06
-6 4 6 0.9 0.09
-5 4 6 4.11 0.2
-4 4 6 0.52 0.07
-3 4 6 3.14 0.16
-2 4 6 2.39 0.13
-1 4 6 4.73 0.2
0 4 6 3.63 0.17
1 4 6 5.74 0.23
2 4 6 7.57 0.28
3 4 6 0.73 0.09
4 4 6 1.48 0.13
5 4 6 0.59 0.1
-7 5 6 -0.01 0.07
-6 5 6 0.74 0.09
-5 5 6 1.2 0.11
-4 5 6 5.81 0.25
-3 5 6 1.67 0.12
-2 5 6 5.59 0.24
-1 5 6 0.38 0.06
0 5 6 12.85 0.45
1 5 6 7.9 0.3
2 5 6 7.04 0.27
3 5 6 2.48 0.16
4 5 6 1.03 0.11
5 5 6 0.35 0.09
-6 6 6 0.13 0.07
-5 6 6 1.71 0.13
-4 6 6 3.36 0.18
-3 6 6 7.24 0.3
-2 6 6 4.49 0.21
-1 6 6 5.1 0.23
0 6 6 0.1 0.05
1 6 6 9.09 0.35
2 6 6 3.88 0.19
3 6 6 5.05 0.26
4 6 6 0.54 0.1
-4 7 6 1.35 0.12
-3 7 6 2.02 0.14
-1 7 6 3.08 0.18
0 7 6 2.08 0.15
1 7 6 0.91 0.1
2 7 6 1.71 0.14
-1 -7 7 0.36 0.08
0 -7 7 1.62 0.13
1 -7 7 1.12 0.12
-1 -6 7 1.41 0.12
0 -6 7 1.98 0.14
1 -6 7 1.79 0.14
2 -6 7 1.78 0.15
3 -6 7 1.97 0.16
-1 -5 7 24.77 0.85
0 -5 7 5.06 0.24
1 -5 7 9.92 0.4
2 -5 7 0.58 0.09
3 -5 7 1.87 0.15
4 -5 7 1.57 0.14
-1 -4 7 7.36 0.3
0 -4 7 10.49 0.4
1 -4 7 5.72 0.26
2 -4 7 8.9 0.37
3 -4 7 0.27 0.07
4 -4 7 1.12 0.12
5 -4 7 2.37 0.17
-1 -3 7 10.41 0.39
0 -3 7 5.14 0.23
1 -3 7 1.51 0.11
2 -3 7 0.93 0.1
3 -3 7 1 0.1
4 -3 7 0.74 0.1
5 -3 7 0.62 0.1
0 -2 7 6.5 0.27
1 -2 7 1.76 0.12
2 -2 7 2.93 0.17
3 -2 7 0.05 0.06
4 -2 7 0.14 0.06
5 -2 7 1.18 0.12
6 -2 7 0.87 0.12
0 -1 7 6.74 0.27
1 -1 7 2.68 0.15
2 -1 7 6.23 0.27
3 -1 7 8.76 0.35
4 -1 7 0.19 0.06
5 -1 7 1.02 0.11
6 -1 7 0.2 0.08
2 0 7 1.77 0.13
3 0 7 10.68 0.42
4 0 7 6.8 0.31
5 0 7 1.8 0.14
6 0 7 1.4 0.14
0 1 7 16.7 0.55
1 1 7 18.87 0.6
2 1 7 7.44 0.32
3 1 7 3.21 0.19
4 1 7 2.99 0.18
5 1 7 2.49 0.17
6 1 7 1.64 0.15
-7 2 7 1.05 0.11
-3 2 7 0.36 0.06
-2 2 7 2.16 0.13
-1 2 7 1.64 0.11
0 2 7 23.18 0.74
1 2 7 5.94 0.23
3 2 7 2.81 0.17
4 2 7 2.58 0.17
5 2 7 0.81 0.11
-7 3 7 2.27 0.16
-6 3 7 3.1 0.18
-5 3 7 4.81 0.23
-4 3 7 1.88 0.13
-3 3 7 2.05 0.13
-2 3 7 1.48 0.11
-1 3 7 0.76 0.08
0 3 7 1.39 0.1
1 3 7 3.21 0.16
3 3 7 0.19 0.07
4 3 7 1.35 0.13
5 3 7 0.81 0.12
-7 4 7 0.56 0.1
-6 4 7 2.35 0.16
-5 4 7 6.17 0.27
-4 4 7 0.92 0.09
-3 4 7 0.4 0.07
-2 4 7 0.98 0.09
-1 4 7 0.83 0.09
0 4 7 3.55 0.18
1 4 7 2.23 0.13
3 4 7 0.31 0.08
4 4 7 -0.06 0.06
-6 5 7 0.84 0.11
-5 5 7 1.1 0.11
-4 5 7 4.52 0.22
-3 5 7 0.27 0.06
-2 5 7 1.4 0.11
-1 5 7 0 0.05
0 5 7 1.39 0.11
1 5 7 5.56 0.24
2 5 7 2.41 0.14
3 5 7 0.87 0.11
-4 6 7 0.99 0.11
-3 6 7 1.52 0.13
-2 6 7 1.53 0.13
-1 6 7 4.06 0.21
0 6 7 0.1 0.06
1 6 7 1.38 0.11
2 6 7 1.87 0.14
-1 7 7 2.28 0.16
0 7 7 2.97 0.18
1 7 7 0.68 0.1
0 -6 8 0.98 0.12
1 -6 8 1.56 0.14
0 -5 8 5.31 0.25
1 -5 8 3.44 0.2
2 -5 8 3.93 0.22
3 -5 8 1.27 0.14
0 -4 8 3.76 0.2
1 -4 8 2.84 0.17
2 -4 8 4.97 0.25
3 -4 8 2.63 0.18
4 -4 8 0.65 0.11
0 -3 8 6.38 0.27
1 -3 8 1.18 0.11
2 -3 8 1.77 0.14
3 -3 8 1.51 0.14
4 -3 8 0.91 0.12
1 -2 8 1.61 0.12
2 -2 8 4.73 0.24
3 -2 8 1.6 0.13
4 -2 8 0.46 0.09
1 -1 8 0.58 0.08
2 0 8 0.12 0.06
3 0 8 0.11 0.07
4 0 8 5.97 0.29
5 0 8 0.98 0.12
0 1 8 8.87 0.33
1 1 8 2.32 0.14
2 1 8 1.25 0.12
3 1 8 1.5 0.13
4 1 8 1.1 0.12
5 1 8 0.78 0.12
-6 2 8 1.06 0.12
-5 2 8 2.17 0.15
-4 2 8 5.32 0.24
-3 2 8 3.13 0.17
-2 2 8 8.77 0.34
-1 2 8 7.29 0.29
0 2 8 11.74 0.42
1 2 8 7.63 0.29
2 2 8 1.93 0.15
3 2 8 1.61 0.14
4 2 8 2.42 0.18
-6 3 8 0.89 0.12
-5 3 8 1.47 0.13
-4 3 8 0.42 0.08
-3 3 8 2.43 0.15
-2 3 8 7.16 0.3
-1 3 8 5.64 0.25
0 3 8 3.22 0.17
1 3 8 3.39 0.17
2 3 8 3 0.19
3 3 8 0.3 0.08
4 3 8 0.97 0.12
-5 4 8 0.46 0.09
-4 4 8 1.09 0.11
-3 4 8 -0.04 0.04
-2 4 8 0.94 0.1
-1 4 8 0.64 0.09
0 4 8 2.33 0.14
1 4 8 0.93 0.09
3 4 8 1.01 0.12
-4 5 8 0.38 0.09
-3 5 8 0.73 0.09
-2 5 8 0.07 0.06
-1 5 8 0.66 0.09
0 5 8 0.88 0.09
1 5 8 1.38 0.12
-1 6 8 0.99 0.11
0 6 8 0.8 0.1
1 6 8 0.33 0.08
1 -5 9 0.94 0.12
1 -4 9 3.29 0.2
2 -4 9 2.77 0.19
2 -3 9 3.08 0.2
3 -3 9 1.69 0.16
2 -2 9 2.38 0.17
3 -2 9 2.59 0.19
2 -1 9 0.36 0.08
3 -1 9 1.77 0.15
-1 1 9 0.05 0.06
0 1 9 2.11 0.14
2 1 9 1.56 0.14
3 1 9 1.28 0.13
4 1 9 0.95 0.13
-5 2 9 1.36 0.13
-4 2 9 1.53 0.13
-3 2 9 1.97 0.15
-2 2 9 0.85 0.1
-1 2 9 0.46 0.08
0 2 9 0.07 0.06
2 2 9 1.08 0.12
3 2 9 0.42 0.1
-4 3 9 2.32 0.17
-3 3 9 2.25 0.16
-2 3 9 4.05 0.21
-1 3 9 2.48 0.16
0 3 9 1.21 0.11
2 3 9 1.33 0.14
-3 4 9 2.14 0.16
-1 4 9 1.9 0.14
0 4 9 0.99 0.1
0 5 9 -0.02 0.06
-2 1 10 0.22 0.08
-1 1 10 0.34 0.08
-2 2 10 0.13 0.07
-1 2 10 0.12 0.07
-1 3 10 0.41 0.09
loop_
_restr_U_rigid_atom_site_label_1
_restr_U_rigid_atom_site_label_2
_restr_U_rigid_target_weight_param
_restr_U_rigid_U_parallel
_restr_U_rigid_diff
Ni1 O2 0.0005 0.0324 -0.0023
Ni1 N1 0.0010 0.0473 -0.0044
