#------------------------------------------------------------------------------
#$Date: 2022-05-13 12:15:18 +0300 (Fri, 13 May 2022) $
#$Revision: 275406 $
#$URL: file:///home/coder/svn-repositories/cod/cif/8/10/52/8105251.cif $
#------------------------------------------------------------------------------
#
# This file is available in the Crystallography Open Database (COD),
# http://www.crystallography.net/
#
# All data on this site have been placed in the public domain by the
# contributors.
#
data_8105251
loop_
_publ_author_name
'Li, Zhuang-Yu'
'Liu, E.'
'Liu, Xiao-Jing'
'Jian, Fang-Fang'
_publ_section_title
;
 Crystal structure of diisobutyl
 2,5-dihydroxycyclohexa-1,4-diene-1,4-dicarboxylate, C16H24O6
;
_journal_issue                   3
_journal_name_full
'Zeitschrift f\"ur Kristallographie - New Crystal Structures'
_journal_page_first              665
_journal_page_last               666
_journal_paper_doi               10.1515/ncrs-2019-0891
_journal_volume                  235
_journal_year                    2020
_chemical_formula_moiety         'C8 H12 O3'
_chemical_formula_sum            'C8 H12 O3'
_chemical_formula_weight         156.18
_space_group_crystal_system      triclinic
_space_group_IT_number           2
_space_group_name_Hall           '-P 1'
_space_group_name_H-M_alt        'P -1'
_symmetry_Int_Tables_number      2
_cell_angle_alpha                94.06(3)
_cell_angle_beta                 103.89(3)
_cell_angle_gamma                113.13(3)
_cell_formula_units_Z            2
_cell_length_a                   6.3410(13)
_cell_length_b                   7.3430(15)
_cell_length_c                   10.241(2)
_cell_measurement_reflns_used    25
_cell_measurement_temperature    295(4)
_cell_measurement_theta_max      17
_cell_measurement_theta_min      3.7
_cell_volume                     418.3(2)
_computing_molecular_graphics    'Olex2 (Dolomanov et al., 2009)'
_computing_publication_material  'Olex2 (Dolomanov et al., 2009)'
_computing_structure_refinement  'olex2.refine (Bourhis et al., 2015)'
_diffrn_ambient_temperature      295.3
_diffrn_measured_fraction_theta_full 0.9829
_diffrn_measured_fraction_theta_max 0.9829
_diffrn_measurement_device_type  'Enraf-Nonius CAD-4 diffractometer'
_diffrn_measurement_method       '\w scans'
_diffrn_radiation_monochromator  graphite
_diffrn_radiation_type           'Mo K\a'
_diffrn_radiation_wavelength     0.71073
_diffrn_reflns_av_R_equivalents  0.0166
_diffrn_reflns_av_unetI/netI     0.0195
_diffrn_reflns_limit_h_max       7
_diffrn_reflns_limit_h_min       0
_diffrn_reflns_limit_k_max       8
_diffrn_reflns_limit_k_min       -8
_diffrn_reflns_limit_l_max       12
_diffrn_reflns_limit_l_min       -12
_diffrn_reflns_number            1954
_diffrn_reflns_theta_full        26.9699
_diffrn_reflns_theta_max         26.97
_diffrn_reflns_theta_min         2.08
_exptl_absorpt_coefficient_mu    0.094
_exptl_absorpt_correction_T_max  0.9232
_exptl_absorpt_correction_T_min  0.8945
_exptl_absorpt_correction_type   analytical
_exptl_absorpt_process_details   SADABS
_exptl_crystal_colour            'clear greenish green'
_exptl_crystal_colour_lustre     clear
_exptl_crystal_colour_modifier   greenish
_exptl_crystal_colour_primary    green
_exptl_crystal_density_diffrn    1.2398
_exptl_crystal_description       block
_exptl_crystal_F_000             168.1074
_exptl_crystal_size_max          0.36
_exptl_crystal_size_mid          0.27
_exptl_crystal_size_min          0.22
_refine_diff_density_max         0.3571
_refine_diff_density_min         -0.2272
_refine_diff_density_rms         0.0662
_refine_ls_d_res_high            0.7836
_refine_ls_d_res_low             9.7700
_refine_ls_extinction_expression Fc^*^=kFc[1+0.001xFc^2^\l^3^/sin(2\q)]^-1/4^
_refine_ls_goodness_of_fit_ref   1.0824
_refine_ls_hydrogen_treatment    refall
_refine_ls_matrix_type           full
_refine_ls_number_constraints    0
_refine_ls_number_parameters     148
_refine_ls_number_reflns         1786
_refine_ls_number_restraints     1
_refine_ls_restrained_S_all      1.0820
_refine_ls_R_factor_all          0.0797
_refine_ls_R_factor_gt           0.0546
_refine_ls_shift/su_max          0.0008
_refine_ls_shift/su_mean         0.0001
_refine_ls_structure_factor_coef Fsqd
_refine_ls_weighting_details
'w=1/[\s^2^(Fo^2^)+(0.0981P)^2^+0.0438P] where P=(Fo^2^+2Fc^2^)/3'
_refine_ls_weighting_scheme      calc
_refine_ls_wR_factor_gt          0.1470
_refine_ls_wR_factor_ref         0.1691
_reflns_Friedel_coverage         0.0
_reflns_limit_h_max              7
_reflns_limit_h_min              -7
_reflns_limit_k_max              8
_reflns_limit_k_min              -8
_reflns_limit_l_max              12
_reflns_limit_l_min              0
_reflns_number_gt                1252
_reflns_number_total             1786
_reflns_threshold_expression     I>=2u(I)
_iucr_refine_instructions_details
;
TITL B in P-1
CELL 0.71073 6.341 7.343 10.241 94.06 103.89 113.13
ZERR 2 0.0013 0.0015 0.002 0.03 0.03 0.03
LATT 1
SFAC C H O
UNIT 16 24 6
DFIX 0.96 0.01 C1 H1c

L.S. 10
PLAN  20
TEMP 22.15
BOND 
FMAP 2
ACTA 
EXTI 0.009(12)
WGHT 0.098096 0.043822
FVAR 0.99841
REM <olex2.extras>
REM <HklSrc "%.\\QJ0605.hkl">
REM </olex2.extras>

O1    3    -0.05751  0.71632 -0.21273  11.00000  0.06839  0.06340  0.05410 =
 -0.00522  0.00878  0.04397 
O2    3     0.27251  0.64440 -0.05290  11.00000  0.07613  0.06928  0.06149 =
 0.00084  0.01373  0.05307 
O3    3     0.44006  0.82152  0.16129  11.00000  0.05715  0.05525  0.05520 =
 0.00917  0.01329  0.03960 
C1    1     0.57888  0.76504  0.43491  11.00000  0.08819  0.10324  0.06157 =
 0.01407  0.02156  0.06047 
C2    1     0.87885  0.65687  0.37301  11.00000  0.07739  0.08806  0.07830 =
 0.01545  0.00858  0.05944 
C3    1     0.73150  0.77939  0.33951  11.00000  0.05417  0.05695  0.06389 =
 0.00979  0.01170  0.03420 
C4    1     0.58101  0.70460  0.19167  11.00000  0.05136  0.05142  0.06286 =
 0.01244  0.01706  0.03643 
C5    1     0.28881  0.77352  0.03627  11.00000  0.04772  0.04595  0.05216 =
 0.00990  0.01878  0.02740 
C6    1     0.14485  0.89062  0.01755  11.00000  0.04330  0.04231  0.04777 =
 0.01003  0.01742  0.02479 
C7    1    -0.02062  0.85187 -0.10472  11.00000  0.04589  0.04139  0.04712 =
 0.00670  0.01746  0.02325 
C8    1     0.18244  1.04519  0.13345  11.00000  0.04764  0.04936  0.04785 =
 0.00629  0.01255  0.02879 
H8a   2     0.16645  0.98821  0.21544  11.00000  0.06996 
H2a   2     0.97236  0.70100  0.46451  11.00000  0.09677 
H3    2     0.84720  0.93093  0.35513  11.00000  0.07720 
H4a   2     0.46187  0.55829  0.17656  11.00000  0.05989 
H2b   2     0.77229  0.51374  0.36244  11.00000  0.08139 
H4b   2     0.69047  0.73137  0.13192  11.00000  0.05744 
H8b   2     0.34525  1.15427  0.15619  11.00000  0.08320 
H1a   2     0.67188  0.79745  0.52868  11.00000  0.09055 
H1b   2     0.48896  0.85704  0.41142  11.00000  0.11898 
H1c   2     0.45779  0.62669  0.41257  11.00000  0.11916 
H2c   2     0.99266  0.67752  0.31080  11.00000  0.09774 
H1    2     0.05313  0.66379 -0.18062  11.00000  0.11139 
Q1    1     0.04167  0.83333 -0.02778  11.00000  0.06000  0.360
Q2    1     0.62500  0.70833  0.27778  11.00000  0.06000  0.320
Q3    1    -0.12500  0.70833 -0.30556  11.00000  0.06000  0.290
Q4    1     0.41667  0.83333  0.08333  11.00000  0.06000  0.290
Q5    1     0.29167  1.08333  0.19444  11.00000  0.06000  0.260
Q6    1     0.20833  0.62500 -0.13889  11.00000  0.06000  0.250
Q7    1     0.75000  0.91667  0.41667  11.00000  0.06000  0.210
Q8    1     0.16667  0.95833  0.05556  11.00000  0.06000  0.200
Q9    1     0.54167  0.70833  0.52778  11.00000  0.06000  0.190
Q10   1     0.91667  0.58333  0.50000  11.00000  0.06000  0.170
Q11   1     0.54167  0.91667  0.44444  11.00000  0.06000  0.170
Q12   1     0.25000  0.83333  0.02778  11.00000  0.06000  0.160
Q13   1     0.95833  0.83333  0.50000  11.00000  0.06000  0.160
Q14   1     0.45833  0.79167  0.25000  11.00000  0.06000  0.160
Q15   1     0.75000  0.91667  0.52778  11.00000  0.06000  0.150
Q16   1     1.08333  0.79167  0.44444  11.00000  0.06000  0.150
Q17   1    -0.04167  0.54167 -0.30556  11.00000  0.06000  0.140
Q18   1     0.25000  0.45833  0.36111  11.00000  0.06000  0.140
Q19   1     1.00000  0.79167  0.61111  11.00000  0.06000  0.140
Q20   1     0.29167  0.58333  0.02778  11.00000  0.06000  0.140
HKLF 4

END

  REM The information below was added by Olex2.
  REM
  REM R1 = 0.0546 for 1252 Fo > 4sig(Fo) and 0.0797 for all 1786 data
  REM 148 parameters refined using 1 restraints
  REM Highest difference peak 0.3571, deepest hole -0.2272
  REM Mean Shift 0.0001, Max Shift 0.0008.
  
  REM +++ Tabular Listing of Refinement Information +++
  REM R1_all = 0.0797
  REM R1_gt = 0.0546
  REM wR_ref = 0.1691
  REM GOOF = 1.0824
  REM Shift_max = 0.0008
  REM Shift_mean = 0.0001
  REM Reflections_all = 1786
  REM Reflections_gt = 1252
  REM Parameters = 148
  REM Hole = -0.2272
  REM Peak = 0.3571
  REM Flack = n/a
  
  
;
_cod_data_source_file            suppl_ncrs-2019-0891_suppl.cif
_cod_data_source_block           QJ0605
_cod_database_code               8105251
_olex2_refinement_description
;
1. Restrained distances
 C1-H1c
 0.96 with sigma of 0.01
;
_olex2_submission_special_instructions 'No special instructions were received'
loop_
_space_group_symop_id
_space_group_symop_operation_xyz
1 x,y,z
2 -x,-y,-z
loop_
_atom_site_label
_atom_site_type_symbol
_atom_site_fract_x
_atom_site_fract_y
_atom_site_fract_z
_atom_site_U_iso_or_equiv
_atom_site_adp_type
_atom_site_occupancy
_atom_site_refinement_flags_posn
O1 O -0.0575(3) 0.7163(2) -0.21273(13) 0.0593(4) Uani 1.000000 .
O2 O 0.2725(3) 0.6444(2) -0.05290(14) 0.0634(5) Uani 1.000000 .
O3 O 0.4401(2) 0.82152(19) 0.16129(12) 0.0513(4) Uani 1.000000 .
C1 C 0.5789(5) 0.7650(5) 0.4349(3) 0.0779(8) Uani 1.000000 D
C2 C 0.8789(5) 0.6569(5) 0.3730(3) 0.0759(7) Uani 1.000000 .
C3 C 0.7315(4) 0.7794(3) 0.3395(2) 0.0560(5) Uani 1.000000 .
C4 C 0.5810(3) 0.7046(3) 0.1917(2) 0.0502(5) Uani 1.000000 .
C5 C 0.2888(3) 0.7735(3) 0.03627(18) 0.0453(4) Uani 1.000000 .
C6 C 0.1448(3) 0.8906(2) 0.01755(16) 0.0414(4) Uani 1.000000 .
C7 C -0.0206(3) 0.8519(3) -0.10472(17) 0.0426(4) Uani 1.000000 .
C8 C 0.1824(3) 1.0452(3) 0.13345(18) 0.0460(5) Uani 1.000000 .
H8a H 0.166(4) 0.988(3) 0.215(2) 0.070(7) Uiso 1.000000 .
H2a H 0.972(5) 0.701(4) 0.465(3) 0.097(9) Uiso 1.000000 .
H3 H 0.847(4) 0.931(4) 0.355(2) 0.077(7) Uiso 1.000000 .
H4a H 0.462(4) 0.558(3) 0.177(2) 0.060(6) Uiso 1.000000 .
H2b H 0.772(5) 0.514(4) 0.362(3) 0.081(8) Uiso 1.000000 .
H4b H 0.690(4) 0.731(3) 0.132(2) 0.057(5) Uiso 1.000000 .
H8b H 0.345(5) 1.154(4) 0.156(2) 0.083(7) Uiso 1.000000 .
H1a H 0.672(5) 0.797(4) 0.529(3) 0.091(8) Uiso 1.000000 .
H1b H 0.489(6) 0.857(5) 0.411(3) 0.119(10) Uiso 1.000000 .
H1c H 0.458(4) 0.627(2) 0.413(3) 0.119(11) Uiso 1.000000 D
H2c H 0.993(5) 0.678(4) 0.311(3) 0.098(9) Uiso 1.000000 .
H1 H 0.053(6) 0.664(5) -0.181(3) 0.111(10) Uiso 1.000000 .
loop_
_atom_site_aniso_label
_atom_site_aniso_U_11
_atom_site_aniso_U_22
_atom_site_aniso_U_33
_atom_site_aniso_U_12
_atom_site_aniso_U_13
_atom_site_aniso_U_23
O1 0.0684(9) 0.0634(9) 0.0541(8) 0.0440(7) 0.0088(6) -0.0052(6)
O2 0.0761(10) 0.0693(9) 0.0615(8) 0.0531(8) 0.0137(7) 0.0008(7)
O3 0.0572(8) 0.0552(8) 0.0552(8) 0.0396(6) 0.0133(6) 0.0092(6)
C1 0.0882(18) 0.103(2) 0.0616(14) 0.0605(18) 0.0216(13) 0.0141(14)
C2 0.0774(17) 0.0881(19) 0.0783(16) 0.0594(16) 0.0086(13) 0.0154(14)
C3 0.0542(11) 0.0570(12) 0.0639(12) 0.0342(10) 0.0117(9) 0.0098(9)
C4 0.0514(10) 0.0514(11) 0.0629(11) 0.0364(9) 0.0171(9) 0.0124(9)
C5 0.0477(9) 0.0460(10) 0.0522(10) 0.0274(8) 0.0188(8) 0.0099(8)
C6 0.0433(9) 0.0423(9) 0.0478(9) 0.0248(7) 0.0174(7) 0.0100(7)
C7 0.0459(9) 0.0414(9) 0.0471(9) 0.0232(8) 0.0175(7) 0.0067(7)
C8 0.0476(10) 0.0494(10) 0.0478(10) 0.0288(9) 0.0125(8) 0.0063(8)
loop_
_atom_type_symbol
_atom_type_scat_dispersion_real
_atom_type_scat_dispersion_imag
_atom_type_scat_Cromer_Mann_a1
_atom_type_scat_Cromer_Mann_a2
_atom_type_scat_Cromer_Mann_a3
_atom_type_scat_Cromer_Mann_a4
_atom_type_scat_Cromer_Mann_b1
_atom_type_scat_Cromer_Mann_b2
_atom_type_scat_Cromer_Mann_b3
_atom_type_scat_Cromer_Mann_b4
_atom_type_scat_Cromer_Mann_c
_atom_type_scat_source
_atom_type_scat_dispersion_source
H 0.00000 0.00000 0.49300 0.32291 0.14019 0.04081 10.51090 26.12570 3.14236
57.79970 0.0030380000826
'International Tables Volume C Table 6.1.1.4 (pp. 500-502)'
'Henke, Gullikson and Davis, At. Data and Nucl. Data Tables, 1993, 54, 2'
C 0.00347 0.00161 2.31000 1.02000 1.58860 0.86500 20.84390 10.20750 0.56870
51.65120 0.215599998832
'International Tables Volume C Table 6.1.1.4 (pp. 500-502)'
'Henke, Gullikson and Davis, At. Data and Nucl. Data Tables, 1993, 54, 2'
O 0.01158 0.00611 3.04850 2.28680 1.54630 0.86700 13.27710 5.70110 0.32390
32.90890 0.250800013542
'International Tables Volume C Table 6.1.1.4 (pp. 500-502)'
'Henke, Gullikson and Davis, At. Data and Nucl. Data Tables, 1993, 54, 2'
loop_
_geom_angle_atom_site_label_1
_geom_angle_atom_site_label_2
_geom_angle_atom_site_label_3
_geom_angle
_geom_angle_site_symmetry_1
_geom_angle_site_symmetry_3
C5 O3 C4 116.81(13) . .
C2 C3 C1 111.6(2) . .
C4 C3 C1 111.76(18) . .
C4 C3 C2 108.05(18) . .
C3 C4 O3 107.52(15) . .
O3 C5 O2 122.77(15) . .
C6 C5 O2 124.22(16) . .
C6 C5 O3 113.00(14) . .
C7 C6 C5 118.64(15) . .
C8 C6 C5 119.30(15) . .
C8 C6 C7 122.05(15) . .
C6 C7 O1 124.00(15) . .
C8 C7 O1 112.66(14) 2_575 .
C8 C7 C6 123.33(15) 2_575 .
C7 C8 C6 114.60(15) 2_575 .
loop_
_geom_bond_atom_site_label_1
_geom_bond_atom_site_label_2
_geom_bond_distance
_geom_bond_site_symmetry_2
O1 C7 1.344(2) .
O2 C5 1.224(2) .
O3 C4 1.4628(19) .
O3 C5 1.328(2) .
C1 C3 1.513(3) .
C2 C3 1.533(3) .
C3 C4 1.510(3) .
C5 C6 1.472(2) .
C6 C7 1.354(2) .
C6 C8 1.488(2) .
C7 C8 1.485(2) 2_575
loop_
_refln_index_h
_refln_index_k
_refln_index_l
_refln_F_squared_meas
_refln_F_squared_sigma
3 -3 -12 -0.66 0.59
1 -2 -12 0.38 0.59
2 -2 -12 2.24 0.39
3 -2 -12 1.19 0.43
4 -2 -12 0.12 0.61
4 -1 -12 0.82 0.32
3 -1 -12 5.38 0.52
2 -1 -12 1.09 0.69
1 -1 -12 1.62 0.37
0 -1 -12 5.64 0.57
0 0 -12 2.93 0.47
1 0 -12 2.91 0.47
2 0 -12 6.77 0.58
3 0 -12 3.63 0.48
4 0 -12 2.3 0.43
4 1 -12 0 0.52
3 1 -12 19.09 0.86
2 1 -12 10.43 0.67
1 1 -12 0.69 0.47
0 1 -12 1.63 0.46
0 2 -12 0.54 0.33
1 2 -12 0.92 0.37
2 2 -12 -0.66 0.47
3 2 -12 16.45 0.85
3 3 -12 0.77 0.63
2 3 -12 -1.04 0.56
1 3 -12 0.45 0.48
0 3 -12 2.82 0.45
0 4 -12 5.68 0.56
1 4 -12 0.76 0.69
0 5 -11 1.92 0.41
1 5 -11 0.97 0.62
3 4 -11 0.75 0.38
2 4 -11 0.81 0.37
1 4 -11 0.06 0.65
0 4 -11 11.76 0.71
0 3 -11 9.25 0.62
1 3 -11 0.8 0.34
2 3 -11 -0.16 0.55
3 3 -11 1.21 0.4
4 3 -11 0 0.51
4 2 -11 -0.06 0.51
3 2 -11 8.03 0.63
2 2 -11 0.77 0.35
1 2 -11 0.32 0.47
0 2 -11 1.56 0.35
0 1 -11 3.16 0.4
1 1 -11 0.55 0.28
2 1 -11 38.59 1.18
3 1 -11 7.72 0.56
4 1 -11 0.94 0.57
5 1 -11 -0.09 0.36
5 0 -11 0.85 0.71
4 0 -11 0.5 0.51
3 0 -11 1.72 0.35
2 0 -11 23.28 0.82
1 0 -11 6.46 0.5
0 0 -11 0.53 0.49
0 -1 -11 4.57 0.45
1 -1 -11 3.71 0.47
2 -1 -11 5.93 0.49
3 -1 -11 0.3 0.51
4 -1 -11 -0.1 0.45
5 -1 -11 3.45 0.48
5 -2 -11 13.65 0.71
4 -2 -11 2.63 0.42
3 -2 -11 2.73 0.4
2 -2 -11 2.41 0.41
1 -2 -11 1.74 0.38
0 -2 -11 1.87 0.46
1 -3 -11 3.47 0.43
2 -3 -11 0.24 0.48
3 -3 -11 0.06 0.54
4 -3 -11 -0.5 0.6
5 -3 -11 1.22 0.38
4 -4 -11 -0.06 0.54
3 -4 -11 -0.7 0.52
2 -4 -11 3.97 0.53
5 -5 -10 7.46 0.66
4 -5 -10 2.88 0.45
3 -5 -10 0.73 0.61
2 -5 -10 0.07 0.59
1 -4 -10 2.58 0.46
2 -4 -10 -0.37 0.47
3 -4 -10 0.18 0.53
4 -4 -10 4.02 0.47
5 -4 -10 1.2 0.37
6 -4 -10 0.13 0.63
6 -3 -10 2.8 0.44
5 -3 -10 2.91 0.39
4 -3 -10 10.38 0.61
3 -3 -10 0.83 0.54
2 -3 -10 2.77 0.41
1 -3 -10 -0.25 0.44
0 -3 -10 0.12 0.48
0 -2 -10 1.21 0.35
1 -2 -10 5.66 0.5
2 -2 -10 11.66 0.59
3 -2 -10 1.26 0.31
4 -2 -10 14.31 0.66
5 -2 -10 7.51 0.53
6 -2 -10 0.4 0.49
6 -1 -10 0.78 0.49
5 -1 -10 0.29 0.34
4 -1 -10 2 0.37
3 -1 -10 5.18 0.4
2 -1 -10 7.74 0.47
1 -1 -10 6.26 0.46
0 -1 -10 -0.56 0.54
0 0 -10 1.83 0.35
1 0 -10 50.19 1.39
2 0 -10 82.16 2.1
3 0 -10 0.68 0.49
4 0 -10 0.59 0.45
5 0 -10 0.39 0.52
6 0 -10 0.82 0.32
5 1 -10 4.43 0.5
4 1 -10 2.1 0.38
3 1 -10 1.51 0.35
2 1 -10 36.29 1.06
1 1 -10 4.26 0.37
0 1 -10 -0.17 0.45
0 2 -10 0.05 0.47
1 2 -10 0.33 0.42
2 2 -10 0.58 0.52
3 2 -10 0.69 0.41
4 2 -10 -0.15 0.49
5 2 -10 0.29 0.78
4 3 -10 0 0.53
3 3 -10 2.64 0.43
2 3 -10 1.01 0.3
1 3 -10 2.47 0.34
0 3 -10 -0.32 0.55
0 4 -10 -0.05 0.45
1 4 -10 0.34 0.56
2 4 -10 0.8 0.52
3 4 -10 -0.38 0.52
2 5 -10 0.96 0.39
1 5 -10 1.73 0.41
0 5 -10 13.51 0.77
0 6 -10 0.42 0.69
1 6 -10 0.81 0.7
0 7 -9 4.33 0.63
2 6 -9 1.01 0.64
1 6 -9 0.64 0.61
0 6 -9 0.53 0.67
0 5 -9 1.03 0.31
1 5 -9 -0.05 0.39
2 5 -9 0.34 0.57
3 5 -9 0.31 0.76
4 4 -9 0.46 0.59
3 4 -9 0.79 0.37
2 4 -9 12.07 0.69
1 4 -9 1.34 0.34
0 4 -9 11.52 0.61
0 3 -9 0.49 0.41
1 3 -9 0.41 0.4
2 3 -9 2.65 0.4
3 3 -9 0.51 0.53
4 3 -9 0.13 0.53
5 3 -9 0.08 0.74
5 2 -9 5.59 0.57
4 2 -9 0.46 0.46
3 2 -9 11.38 0.59
2 2 -9 10.13 0.51
1 2 -9 0.41 0.25
0 2 -9 5.36 0.37
0 1 -9 0.04 0.34
1 1 -9 8.27 0.44
2 1 -9 20.66 0.68
3 1 -9 3.1 0.36
4 1 -9 7.83 0.53
5 1 -9 5.86 0.52
6 1 -9 0.75 0.54
6 0 -9 0.97 0.6
5 0 -9 0.88 0.33
4 0 -9 12.74 0.6
3 0 -9 2.31 0.33
2 0 -9 1.05 0.31
1 0 -9 72.88 1.84
0 0 -9 2.12 0.31
0 -1 -9 24.86 0.75
1 -1 -9 157.9 2.73
2 -1 -9 5.03 0.38
3 -1 -9 4.3 0.34
4 -1 -9 1.54 0.33
5 -1 -9 0.62 0.5
6 -1 -9 0.62 0.55
7 -2 -9 13.94 0.76
6 -2 -9 9.06 0.58
5 -2 -9 0.33 0.49
4 -2 -9 3.53 0.38
3 -2 -9 -0.48 0.39
2 -2 -9 2.3 0.38
1 -2 -9 12.55 0.56
0 -2 -9 0.05 0.48
0 -3 -9 3.02 0.43
1 -3 -9 21.02 0.77
2 -3 -9 9.66 0.53
3 -3 -9 24.74 0.8
4 -3 -9 32 1
5 -3 -9 0.56 0.43
6 -3 -9 2.89 0.44
7 -3 -9 1.04 0.37
6 -4 -9 1.15 0.36
5 -4 -9 5.62 0.5
4 -4 -9 2.4 0.42
3 -4 -9 1.63 0.36
2 -4 -9 -0.81 0.48
1 -4 -9 0.41 0.51
0 -4 -9 0.76 0.49
1 -5 -9 1 0.72
2 -5 -9 0.94 0.58
3 -5 -9 4.09 0.54
4 -5 -9 8.41 0.6
5 -5 -9 3.74 0.49
6 -5 -9 -0.24 0.51
5 -6 -9 0.52 0.43
4 -6 -9 1.34 0.42
3 -6 -9 0.42 0.59
1 -6 -8 1.16 0.42
2 -6 -8 0.2 0.66
3 -6 -8 6.88 0.58
4 -6 -8 12.39 0.75
5 -6 -8 1.17 0.71
6 -6 -8 -0.36 0.62
6 -5 -8 0.93 0.72
5 -5 -8 0.12 0.56
4 -5 -8 0.11 0.55
3 -5 -8 2.77 0.44
2 -5 -8 -0.19 0.4
1 -5 -8 -0.05 0.47
0 -5 -8 0.93 0.61
0 -4 -8 7.82 0.53
1 -4 -8 13.41 0.66
2 -4 -8 12.7 0.61
3 -4 -8 31.8 0.9
4 -4 -8 8.22 0.54
5 -4 -8 4.38 0.45
6 -4 -8 -0.1 0.59
7 -4 -8 12.05 0.75
7 -3 -8 0 0.56
6 -3 -8 28.72 0.93
5 -3 -8 1.16 0.31
4 -3 -8 21.59 0.73
3 -3 -8 12.53 0.57
2 -3 -8 0.54 0.44
1 -3 -8 2.32 0.33
0 -3 -8 7.92 0.53
0 -2 -8 77.41 2
1 -2 -8 39.07 1.1
2 -2 -8 19.94 0.62
3 -2 -8 15.16 0.55
4 -2 -8 0.12 0.35
5 -2 -8 5.84 0.44
6 -2 -8 18.16 0.74
7 -2 -8 25.74 0.97
7 -1 -8 6.68 0.66
6 -1 -8 -0.5 0.54
5 -1 -8 0.22 0.34
4 -1 -8 5.36 0.37
3 -1 -8 14.6 0.53
2 -1 -8 45.92 1.35
1 -1 -8 62.77 1.59
0 -1 -8 97.5 2.05
0 0 -8 7.01 0.39
1 0 -8 133.67 2.24
2 0 -8 15.01 0.51
3 0 -8 21.89 0.66
4 0 -8 35.4 1.11
5 0 -8 0.3 0.39
6 0 -8 0.78 0.58
6 1 -8 -0.61 0.62
5 1 -8 0.42 0.51
4 1 -8 11.44 0.56
3 1 -8 2.31 0.29
2 1 -8 56.27 1.57
1 1 -8 4.81 0.34
0 1 -8 5.9 0.35
0 2 -8 0.88 0.24
1 2 -8 3.45 0.33
2 2 -8 12.3 0.52
3 2 -8 -0.31 0.37
4 2 -8 0.68 0.5
5 2 -8 2.3 0.43
6 2 -8 -0.3 0.57
5 3 -8 2.14 0.64
4 3 -8 0.2 0.76
3 3 -8 2.51 0.39
2 3 -8 1.52 0.32
1 3 -8 34.51 1.07
0 3 -8 0.08 0.35
0 4 -8 -0.23 0.33
1 4 -8 4.43 0.45
2 4 -8 11.48 0.63
3 4 -8 0.19 0.62
4 4 -8 4.81 0.61
3 5 -8 -0.16 0.41
2 5 -8 0 0.41
1 5 -8 2.32 0.36
0 5 -8 0.48 0.52
0 6 -8 4.38 0.49
1 6 -8 -1.23 0.63
2 6 -8 1.81 0.44
1 7 -8 -0.18 0.65
0 7 -8 1.71 0.47
0 7 -7 0.14 0.59
1 7 -7 -0.11 0.47
3 6 -7 0.75 0.63
2 6 -7 -0.53 0.55
1 6 -7 4.16 0.52
0 6 -7 0.54 0.52
0 5 -7 -0.32 0.39
1 5 -7 0.17 0.57
2 5 -7 3.74 0.53
3 5 -7 0.8 0.63
4 5 -7 1.68 0.54
5 4 -7 0 0.59
4 4 -7 16.9 0.9
3 4 -7 4.08 0.51
2 4 -7 0.15 0.31
1 4 -7 7.3 0.49
0 4 -7 6.13 0.45
0 3 -7 12.53 0.49
1 3 -7 66.03 1.72
2 3 -7 4.81 0.39
3 3 -7 6.66 0.5
4 3 -7 10.67 0.68
5 3 -7 -1.07 0.65
6 2 -7 0.76 0.86
5 2 -7 0.62 0.66
4 2 -7 1.81 0.39
3 2 -7 -0.1 0.32
2 2 -7 10.53 0.47
1 2 -7 10.67 0.44
0 2 -7 33.49 0.91
0 1 -7 1.19 0.19
1 1 -7 64.42 1.48
2 1 -7 8.07 0.38
3 1 -7 0.18 0.31
4 1 -7 8.87 0.5
5 1 -7 0.36 0.55
6 1 -7 0.91 0.67
7 0 -7 0.69 0.55
6 0 -7 1.21 0.38
5 0 -7 -0.66 0.38
4 0 -7 11.57 0.51
3 0 -7 24.2 0.69
2 0 -7 7.03 0.31
1 0 -7 48.19 1.24
0 0 -7 3.48 0.27
0 -1 -7 206.94 2.72
1 -1 -7 3.06 0.25
2 -1 -7 21.46 0.62
3 -1 -7 62.56 1.5
4 -1 -7 0.41 0.36
5 -1 -7 0.72 0.24
6 -1 -7 1.73 0.39
7 -1 -7 7.25 0.68
7 -2 -7 0.57 0.68
6 -2 -7 21.7 0.76
5 -2 -7 1.11 0.24
4 -2 -7 8.3 0.42
3 -2 -7 21.47 0.66
2 -2 -7 1.01 0.22
1 -2 -7 41.43 1.05
0 -2 -7 156.4 2.6
0 -3 -7 44.42 1.29
1 -3 -7 11.03 0.5
2 -3 -7 22.03 0.64
3 -3 -7 9.56 0.46
4 -3 -7 15.84 0.58
5 -3 -7 23.45 0.75
6 -3 -7 95.85 2.48
7 -3 -7 4.38 0.5
7 -4 -7 -0.56 0.63
6 -4 -7 0.12 0.56
5 -4 -7 32.85 0.98
4 -4 -7 1.27 0.31
3 -4 -7 81.77 2.1
2 -4 -7 20.81 0.71
1 -4 -7 0.33 0.4
0 -4 -7 9.45 0.61
0 -5 -7 3.7 0.47
1 -5 -7 1.22 0.35
2 -5 -7 8.46 0.56
3 -5 -7 20.07 0.82
4 -5 -7 35.19 1
5 -5 -7 2.85 0.44
6 -5 -7 21.86 0.95
7 -5 -7 3.7 0.57
6 -6 -7 -0.56 0.6
5 -6 -7 0.8 0.59
4 -6 -7 0.85 0.4
3 -6 -7 10.69 0.7
2 -6 -7 1.69 0.39
1 -6 -7 -1.13 0.5
0 -6 -7 0.79 0.74
2 -7 -7 1.67 0.47
3 -7 -7 9.74 0.75
4 -7 -7 1.91 0.49
5 -7 -7 5.26 0.62
6 -7 -6 0.25 0.71
5 -7 -6 -0.33 0.5
4 -7 -6 0 0.43
3 -7 -6 4.06 0.55
2 -7 -6 11.96 0.82
1 -7 -6 0.07 0.67
0 -6 -6 0.53 0.44
1 -6 -6 0.74 0.64
2 -6 -6 14.21 0.73
3 -6 -6 18.74 0.78
4 -6 -6 -0.14 0.41
5 -6 -6 10.25 0.67
6 -6 -6 0.66 0.83
7 -6 -6 7.97 0.73
7 -5 -6 0.39 0.74
6 -5 -6 6.92 0.63
5 -5 -6 4.39 0.46
4 -5 -6 5.84 0.46
3 -5 -6 -0.12 0.38
2 -5 -6 70.08 2.07
1 -5 -6 9.63 0.59
0 -5 -6 0.22 0.66
0 -4 -6 0.09 0.46
1 -4 -6 5.77 0.42
2 -4 -6 36.59 1.11
3 -4 -6 0.04 0.49
4 -4 -6 1.98 0.37
5 -4 -6 131.31 2.86
6 -4 -6 2.38 0.45
7 -4 -6 4.85 0.61
7 -3 -6 0.82 0.36
6 -3 -6 66.43 1.66
5 -3 -6 89.26 2.14
4 -3 -6 2.23 0.29
3 -3 -6 17.76 0.57
2 -3 -6 48.47 1.37
1 -3 -6 9.24 0.42
0 -3 -6 0.38 0.36
0 -2 -6 27.05 0.86
1 -2 -6 3.63 0.24
2 -2 -6 22.14 0.69
3 -2 -6 2.88 0.24
4 -2 -6 9.49 0.41
5 -2 -6 4.26 0.37
6 -2 -6 20.84 0.7
7 -2 -6 5.1 0.56
7 -1 -6 1.06 0.7
6 -1 -6 0.6 0.3
5 -1 -6 2.52 0.31
4 -1 -6 1.08 0.22
3 -1 -6 253.66 2.74
2 -1 -6 76.84 1.45
1 -1 -6 1.76 0.19
0 -1 -6 18.79 0.55
0 0 -6 63.37 1.28
1 0 -6 89.11 1.48
2 0 -6 3.55 0.21
3 0 -6 11.68 0.38
4 0 -6 4.61 0.35
5 0 -6 1.63 0.31
6 0 -6 3.53 0.57
7 0 -6 1.18 0.57
6 1 -6 6.46 0.65
5 1 -6 0.8 0.37
4 1 -6 2.85 0.37
3 1 -6 15.71 0.54
2 1 -6 0.86 0.18
1 1 -6 0.27 0.25
0 1 -6 9.38 0.31
0 2 -6 136.58 1.99
1 2 -6 1.45 0.21
2 2 -6 1.57 0.24
3 2 -6 6.2 0.43
4 2 -6 34.36 0.98
5 2 -6 0.89 0.71
6 2 -6 1.25 0.8
5 3 -6 -0.05 0.49
4 3 -6 6.86 0.64
3 3 -6 22.1 0.8
2 3 -6 -0.22 0.33
1 3 -6 40.01 1.05
0 3 -6 62.94 1.52
0 4 -6 0.57 0.24
1 4 -6 14.92 0.61
2 4 -6 -0.15 0.32
3 4 -6 6.81 0.59
4 4 -6 42.98 1.3
5 4 -6 -0.76 0.62
4 5 -6 1.68 0.54
3 5 -6 0.64 0.73
2 5 -6 -0.56 0.42
1 5 -6 -0.04 0.37
0 5 -6 0.87 0.54
0 6 -6 0.06 0.5
1 6 -6 36.12 1.12
2 6 -6 0.72 0.63
3 6 -6 -0.97 0.54
2 7 -6 -0.53 0.57
1 7 -6 3.34 0.54
0 7 -6 0.86 0.44
0 8 -6 0.73 0.78
0 8 -5 -0.45 0.57
0 7 -5 4.27 0.55
1 7 -5 8.12 0.73
2 7 -5 0 0.49
3 6 -5 -0.44 0.56
2 6 -5 1.85 0.41
1 6 -5 5.98 0.56
0 6 -5 1.34 0.38
0 5 -5 91.76 2.26
1 5 -5 0.26 0.49
2 5 -5 0.42 0.53
3 5 -5 5.74 0.63
4 5 -5 3.53 0.58
5 4 -5 0.07 0.53
4 4 -5 5.69 0.65
3 4 -5 1.67 0.43
2 4 -5 2.44 0.37
1 4 -5 15.71 0.6
0 4 -5 1.03 0.27
0 3 -5 4.75 0.28
1 3 -5 -0.46 0.28
2 3 -5 27.9 0.83
3 3 -5 220.13 3.6
4 3 -5 1.93 0.41
5 3 -5 0.52 0.61
6 3 -5 -0.12 0.59
6 2 -5 0.81 0.76
5 2 -5 0.81 0.55
4 2 -5 2.6 0.43
3 2 -5 77.58 1.96
2 2 -5 10.16 0.41
1 2 -5 6.24 0.28
0 2 -5 442.5 3.24
0 1 -5 42.1 0.94
1 1 -5 11.38 0.34
2 1 -5 12.19 0.36
3 1 -5 131.37 2.27
4 1 -5 12.72 0.56
5 1 -5 9.03 0.61
6 1 -5 10.04 0.78
7 1 -5 -0.3 0.57
7 0 -5 0.75 0.75
6 0 -5 13.05 0.75
5 0 -5 12.16 0.64
4 0 -5 2.52 0.29
3 0 -5 72.78 1.49
2 0 -5 215.33 2.17
1 0 -5 13.78 0.44
0 0 -5 226.85 2.14
0 -1 -5 159.16 1.94
1 -1 -5 3.76 0.19
2 -1 -5 16.37 0.51
3 -1 -5 1.42 0.18
4 -1 -5 0.46 0.28
5 -1 -5 0.35 0.44
6 -1 -5 6.03 0.56
7 -1 -5 2.9 0.54
7 -2 -5 0.44 0.74
6 -2 -5 16.57 0.63
5 -2 -5 10.94 0.47
4 -2 -5 11.25 0.43
3 -2 -5 1.67 0.2
2 -2 -5 642.92 4.08
1 -2 -5 59.35 1.25
0 -2 -5 0.38 0.24
0 -3 -5 29.97 0.92
1 -3 -5 1.22 0.2
2 -3 -5 1.36 0.19
3 -3 -5 49.63 1.36
4 -3 -5 8.63 0.43
5 -3 -5 18.61 0.69
6 -3 -5 1.69 0.38
7 -3 -5 1.7 0.49
7 -4 -5 0.08 0.83
6 -4 -5 8.76 0.61
5 -4 -5 304.63 4.3
4 -4 -5 176.85 2.97
3 -4 -5 -0.52 0.31
2 -4 -5 0.87 0.24
1 -4 -5 30.23 0.96
0 -4 -5 9.32 0.5
0 -5 -5 0.52 0.5
1 -5 -5 33.25 1.02
2 -5 -5 22.73 0.75
3 -5 -5 7.1 0.47
4 -5 -5 69.5 2.07
5 -5 -5 2.32 0.41
6 -5 -5 3.92 0.5
7 -5 -5 5.77 0.61
7 -6 -5 9.51 0.83
6 -6 -5 2.75 0.5
5 -6 -5 31.78 1.04
4 -6 -5 16.81 0.78
3 -6 -5 4.9 0.46
2 -6 -5 8.28 0.58
1 -6 -5 21.19 0.84
0 -6 -5 2.52 0.39
0 -7 -5 -0.47 0.52
1 -7 -5 1.95 0.44
2 -7 -5 0.27 0.6
3 -7 -5 -0.49 0.5
4 -7 -5 0.07 0.63
5 -7 -5 0.67 0.42
6 -7 -5 1.99 0.49
5 -8 -5 -0.29 0.48
4 -8 -5 0.32 0.71
3 -8 -5 -0.4 0.51
2 -8 -5 4.83 0.62
1 -8 -4 3.8 0.6
2 -8 -4 -0.74 0.6
3 -8 -4 -0.16 0.53
4 -8 -4 0.31 0.58
5 -8 -4 1.05 0.66
6 -8 -4 12.16 0.83
7 -7 -4 30.74 1.28
6 -7 -4 21.36 1.03
5 -7 -4 3.67 0.51
4 -7 -4 20.05 0.91
3 -7 -4 8.81 0.64
2 -7 -4 9.84 0.68
1 -7 -4 6.11 0.64
0 -7 -4 0.65 0.8
0 -6 -4 6.86 0.6
1 -6 -4 50.26 1.54
2 -6 -4 3.5 0.42
3 -6 -4 9.84 0.58
4 -6 -4 3.46 0.43
5 -6 -4 3.59 0.52
6 -6 -4 10.28 0.69
7 -6 -4 1.23 0.47
7 -5 -4 1.02 0.89
6 -5 -4 8.3 0.63
5 -5 -4 23.37 0.84
4 -5 -4 369.94 4.64
3 -5 -4 73.75 1.96
2 -5 -4 0.95 0.25
1 -5 -4 7.66 0.47
0 -5 -4 3.16 0.4
0 -4 -4 8.8 0.45
1 -4 -4 32.85 0.98
2 -4 -4 36.74 1.01
3 -4 -4 6.91 0.42
4 -4 -4 38.25 1.18
5 -4 -4 72.81 2.17
6 -4 -4 0.64 0.51
7 -4 -4 10.9 0.79
7 -3 -4 1.06 0.4
6 -3 -4 22.43 0.89
5 -3 -4 121.73 2.63
4 -3 -4 45.17 1.15
3 -3 -4 -0.17 0.23
2 -3 -4 8.52 0.32
1 -3 -4 321.51 3.12
0 -3 -4 0.34 0.25
0 -2 -4 1.34 0.16
1 -2 -4 145.04 1.79
2 -2 -4 253.99 2.38
3 -2 -4 2.69 0.21
4 -2 -4 17.63 0.53
5 -2 -4 -0.4 0.32
6 -2 -4 8.58 0.51
7 -2 -4 0.57 0.35
7 -1 -4 0.91 0.42
6 -1 -4 8.87 0.61
5 -1 -4 31.64 0.91
4 -1 -4 5.11 0.28
3 -1 -4 45.19 1.03
2 -1 -4 226.68 2.03
1 -1 -4 161.38 1.63
0 -1 -4 130.6 1.56
0 0 -4 103.53 1.28
1 0 -4 37.18 0.76
2 0 -4 60.67 1.08
3 0 -4 73.04 1.48
4 0 -4 28.14 0.86
5 0 -4 43.34 1.21
6 0 -4 0.33 0.55
7 0 -4 -0.44 0.59
7 1 -4 -1.02 0.71
6 1 -4 6.02 0.62
5 1 -4 0.35 0.54
4 1 -4 0.14 0.53
3 1 -4 168.73 2.53
2 1 -4 232.82 2.47
1 1 -4 13.51 0.43
0 1 -4 5.91 0.2
0 2 -4 52.26 1.08
1 2 -4 2.74 0.2
2 2 -4 587.54 4.44
3 2 -4 -0.17 0.3
4 2 -4 6.55 0.51
5 2 -4 0.5 0.41
6 2 -4 0.55 0.72
6 3 -4 0.91 0.48
5 3 -4 3.07 0.52
4 3 -4 0.97 0.61
3 3 -4 164.13 3.11
2 3 -4 10.09 0.46
1 3 -4 7.78 0.35
0 3 -4 53.11 1.28
0 4 -4 0.07 0.4
1 4 -4 14.85 0.56
2 4 -4 15.25 0.65
3 4 -4 20.75 0.87
4 4 -4 0.14 0.89
5 4 -4 0.49 0.81
4 5 -4 -0.11 0.34
3 5 -4 3.54 0.52
2 5 -4 -0.28 0.38
1 5 -4 1.81 0.37
0 5 -4 112.77 2.5
0 6 -4 19.27 0.8
1 6 -4 0 0.37
2 6 -4 -0.14 0.4
3 6 -4 4.11 0.62
2 7 -4 -0.17 0.49
1 7 -4 0 0.45
0 7 -4 6.35 0.56
0 8 -4 9.87 0.75
1 8 -4 1.6 0.52
1 8 -3 0.68 0.63
0 8 -3 16.19 0.94
0 7 -3 4.8 0.57
1 7 -3 0.65 0.48
2 7 -3 0.4 0.73
3 6 -3 2.19 0.6
2 6 -3 1.72 0.51
1 6 -3 -0.12 0.38
0 6 -3 8.95 0.59
0 5 -3 17.8 0.67
1 5 -3 0.56 0.28
2 5 -3 3.03 0.41
3 5 -3 -0.14 0.49
4 5 -3 -0.6 0.52
5 4 -3 0.41 0.71
4 4 -3 0.2 0.68
3 4 -3 0.4 0.56
2 4 -3 42.86 1.28
1 4 -3 0.43 0.23
0 4 -3 11.66 0.44
0 3 -3 213.47 2.43
1 3 -3 27.12 0.81
2 3 -3 29.52 0.86
3 3 -3 0 0.32
4 3 -3 3.76 0.52
5 3 -3 3.4 0.57
6 3 -3 1.09 0.44
6 2 -3 0.23 0.82
5 2 -3 0.06 0.52
4 2 -3 4.7 0.47
3 2 -3 10.17 0.43
2 2 -3 1455.2 6.85
1 2 -3 160.64 1.98
0 2 -3 21.89 0.54
0 1 -3 389.74 2.22
1 1 -3 580.4 3.07
2 1 -3 26.81 0.71
3 1 -3 6.7 0.33
4 1 -3 22.03 0.72
5 1 -3 0.22 0.54
6 1 -3 2.4 0.5
7 1 -3 3.57 0.58
7 0 -3 5.87 0.68
6 0 -3 0.3 0.71
5 0 -3 79.26 2.18
4 0 -3 4.53 0.36
3 0 -3 0.3 0.27
2 0 -3 1136.57 4.45
1 0 -3 28.57 0.58
0 0 -3 61.6 0.85
0 -1 -3 8.31 0.24
1 -1 -3 33.78 0.67
2 -1 -3 212.49 1.79
3 -1 -3 30.37 0.79
4 -1 -3 114.09 2.21
5 -1 -3 12.15 0.54
6 -1 -3 7.12 0.49
7 -1 -3 0.62 0.65
7 -2 -3 0.46 0.54
6 -2 -3 12.49 0.57
5 -2 -3 116.6 2.12
4 -2 -3 22.83 0.72
3 -2 -3 37.67 1.05
2 -2 -3 0.26 0.2
1 -2 -3 196.73 1.93
0 -2 -3 14.9 0.42
0 -3 -3 106.55 1.82
1 -3 -3 523 3.78
2 -3 -3 23.13 0.68
3 -3 -3 5.6 0.3
4 -3 -3 56.05 1.64
5 -3 -3 -0.2 0.38
6 -3 -3 6.94 0.5
7 -3 -3 0.15 0.49
7 -4 -3 16.09 0.84
6 -4 -3 2.4 0.43
5 -4 -3 84.97 2.32
4 -4 -3 175.12 2.95
3 -4 -3 58.18 1.55
2 -4 -3 44.23 1.09
1 -4 -3 -0.05 0.27
0 -4 -3 23.07 0.74
0 -5 -3 26.99 0.81
1 -5 -3 0.52 0.46
2 -5 -3 0.38 0.34
3 -5 -3 101.19 2.35
4 -5 -3 396.93 4.75
5 -5 -3 0.17 0.51
6 -5 -3 16.65 0.8
7 -5 -3 0.89 0.42
7 -6 -3 -0.05 0.44
6 -6 -3 4.72 0.56
5 -6 -3 24.31 0.94
4 -6 -3 8.04 0.57
3 -6 -3 150.87 3.12
2 -6 -3 -0.19 0.43
1 -6 -3 0.75 0.56
0 -6 -3 8.23 0.61
0 -7 -3 21.67 0.98
1 -7 -3 1.66 0.41
2 -7 -3 0.31 0.57
3 -7 -3 0.44 0.49
4 -7 -3 23.91 0.93
5 -7 -3 6.68 0.61
6 -7 -3 5.94 0.65
7 -7 -3 25.67 1.16
6 -8 -3 25.93 1.12
5 -8 -3 10.52 0.81
4 -8 -3 0.3 0.77
3 -8 -3 4.91 0.53
2 -8 -3 1.04 0.66
1 -8 -3 2.13 0.54
0 -8 -2 2.77 0.56
1 -8 -2 2.47 0.54
2 -8 -2 2.04 0.45
3 -8 -2 18.35 0.94
4 -8 -2 1.09 0.43
5 -8 -2 9.34 0.78
6 -8 -2 59.67 1.66
7 -7 -2 3.86 0.68
6 -7 -2 -0.26 0.51
5 -7 -2 10.88 0.72
4 -7 -2 8.89 0.63
3 -7 -2 1.1 0.37
2 -7 -2 22.94 0.94
1 -7 -2 5.4 0.57
0 -7 -2 6.57 0.63
0 -6 -2 8.29 0.57
1 -6 -2 3.28 0.4
2 -6 -2 63.13 1.6
3 -6 -2 436.62 5.11
4 -6 -2 1.55 0.37
5 -6 -2 2.46 0.42
6 -6 -2 7.19 0.6
7 -6 -2 2.97 0.51
7 -5 -2 2 0.43
6 -5 -2 30.25 1.01
5 -5 -2 3.37 0.43
4 -5 -2 11.57 0.56
3 -5 -2 117.7 2.45
2 -5 -2 31.02 0.91
1 -5 -2 49.52 1.27
0 -5 -2 4.12 0.42
0 -4 -2 205.6 2.85
1 -4 -2 41.65 1.03
2 -4 -2 3.87 0.25
3 -4 -2 114.05 2.15
4 -4 -2 33.35 0.92
5 -4 -2 3.39 0.4
6 -4 -2 1.98 0.38
7 -4 -2 2.1 0.42
7 -3 -2 1.4 0.33
6 -3 -2 0.63 0.27
5 -3 -2 58.74 1.7
4 -3 -2 221.07 3.04
3 -3 -2 3.59 0.26
2 -3 -2 170.04 2.14
1 -3 -2 243.9 2.49
0 -3 -2 80.22 1.52
0 -2 -2 127.12 1.56
1 -2 -2 14.22 0.43
2 -2 -2 27.72 0.79
3 -2 -2 107.44 1.79
4 -2 -2 64.13 1.52
5 -2 -2 6.78 0.37
6 -2 -2 0.65 0.43
7 -2 -2 0.78 0.55
7 -1 -2 8.79 0.66
6 -1 -2 6.01 0.48
5 -1 -2 0.62 0.27
4 -1 -2 447.41 3.56
3 -1 -2 17.7 0.49
2 -1 -2 0.58 0.1
1 -1 -2 770.98 2.82
0 -1 -2 347.29 1.97
0 0 -2 28.65 0.47
1 0 -2 755.05 2.56
2 0 -2 78.92 1.26
3 0 -2 108.4 1.82
4 0 -2 4 0.33
5 0 -2 0.58 0.43
6 0 -2 2.18 0.45
7 0 -2 8.82 0.72
6 1 -2 -0.1 0.43
5 1 -2 2.9 0.41
4 1 -2 6.69 0.46
3 1 -2 1.06 0.2
2 1 -2 40 1.03
1 1 -2 5023.44 8.79
0 1 -2 849.1 2.92
0 2 -2 11.57 0.34
1 2 -2 9.33 0.3
2 2 -2 376.45 3.47
3 2 -2 3.5 0.3
4 2 -2 6.55 0.49
5 2 -2 4.68 0.48
6 2 -2 -0.27 0.52
5 3 -2 11.33 0.78
4 3 -2 1.53 0.38
3 3 -2 1.44 0.3
2 3 -2 37.01 1.06
1 3 -2 171.82 2.37
0 3 -2 0.28 0.25
0 4 -2 0.38 0.26
1 4 -2 5.12 0.33
2 4 -2 1.33 0.34
3 4 -2 0.34 0.59
4 4 -2 0.41 0.64
5 4 -2 0.26 0.48
4 5 -2 -0.44 0.48
3 5 -2 -0.09 0.42
2 5 -2 12.65 0.68
1 5 -2 0.84 0.52
0 5 -2 3.05 0.39
0 6 -2 0.65 0.42
1 6 -2 0.24 0.52
2 6 -2 8.29 0.66
3 6 -2 2.37 0.51
2 7 -2 -0.11 0.61
1 7 -2 -0.8 0.48
0 7 -2 5.65 0.56
0 8 -2 5.17 0.69
1 8 -2 -0.48 0.52
1 8 -1 1.05 0.48
0 8 -1 3.63 0.63
0 7 -1 0.06 0.56
1 7 -1 0.89 0.43
2 7 -1 -0.17 0.55
3 6 -1 0.7 0.68
2 6 -1 5.47 0.58
1 6 -1 1.44 0.42
0 6 -1 -0.04 0.32
0 5 -1 -0.09 0.27
1 5 -1 7.94 0.52
2 5 -1 12.22 0.66
3 5 -1 -0.33 0.52
4 5 -1 0 0.42
5 4 -1 2.75 0.66
4 4 -1 4.43 0.58
3 4 -1 1.28 0.35
2 4 -1 18.23 0.68
1 4 -1 16.4 0.54
0 4 -1 0.3 0.16
0 3 -1 39.89 1.04
1 3 -1 264.31 2.92
2 3 -1 0.04 0.41
3 3 -1 3.7 0.39
4 3 -1 3.53 0.45
5 3 -1 0.62 0.8
6 2 -1 -0.22 0.54
5 2 -1 0.53 0.6
4 2 -1 66.77 2
3 2 -1 16.32 0.53
2 2 -1 12.33 0.39
1 2 -1 198.34 2.12
0 2 -1 16.83 0.46
0 1 -1 16.78 0.39
1 1 -1 7958.53 10.84
2 1 -1 6.76 0.26
3 1 -1 1.87 0.21
4 1 -1 15.33 0.59
5 1 -1 2.91 0.45
6 1 -1 -1.06 0.6
7 0 -1 23.7 1
6 0 -1 12.72 0.66
5 0 -1 1.64 0.33
4 0 -1 16.05 0.47
3 0 -1 131.52 1.84
2 0 -1 0.22 0.14
1 0 -1 18.75 0.44
0 0 -1 937.63 1.86
0 -1 -1 1087.2 3.13
1 -1 -1 1896 4.31
2 -1 -1 180.11 1.64
3 -1 -1 111.78 1.45
4 -1 -1 128.07 1.87
5 -1 -1 0.79 0.25
6 -1 -1 22.75 0.75
7 -1 -1 30.19 1.02
7 -2 -1 4.74 0.48
6 -2 -1 0.17 0.48
5 -2 -1 1.24 0.24
4 -2 -1 1.04 0.19
3 -2 -1 668.31 4.08
2 -2 -1 8.23 0.26
1 -2 -1 65.88 1.03
0 -2 -1 0.39 0.12
0 -3 -1 89.12 1.56
1 -3 -1 19.83 0.58
2 -3 -1 26.09 0.7
3 -3 -1 109.12 1.87
4 -3 -1 55.45 1.5
5 -3 -1 6.31 0.39
6 -3 -1 6.09 0.41
7 -3 -1 7.72 0.53
7 -4 -1 0.91 0.33
6 -4 -1 5.62 0.44
5 -4 -1 1.86 0.35
4 -4 -1 69.37 1.8
3 -4 -1 8.41 0.37
2 -4 -1 8.43 0.36
1 -4 -1 16.93 0.51
0 -4 -1 238.36 3.01
0 -5 -1 2.97 0.37
1 -5 -1 -0.25 0.25
2 -5 -1 48.92 1.25
3 -5 -1 124.78 2.47
4 -5 -1 10.55 0.53
5 -5 -1 11.09 0.61
6 -5 -1 18.91 0.8
7 -5 -1 0.33 0.55
7 -6 -1 8.09 0.64
6 -6 -1 2.08 0.45
5 -6 -1 20.64 0.83
4 -6 -1 0.76 0.37
3 -6 -1 78.66 2.25
2 -6 -1 49.53 1.43
1 -6 -1 3.89 0.43
0 -6 -1 8.2 0.56
0 -7 -1 -0.05 0.48
1 -7 -1 11.27 0.69
2 -7 -1 135.65 3.14
3 -7 -1 2.12 0.42
4 -7 -1 0.57 0.64
5 -7 -1 11.75 0.73
6 -7 -1 3.94 0.58
7 -7 -1 4.17 0.57
6 -8 -1 1.5 0.91
5 -8 -1 1.15 0.72
4 -8 -1 5.96 0.62
3 -8 -1 -0.15 0.5
2 -8 -1 -0.15 0.53
1 -8 -1 1.72 0.55
0 -8 -1 0.32 0.79
0 -8 0 0 0.51
1 -8 0 13.94 0.83
2 -8 0 1.13 0.68
3 -8 0 3.87 0.54
4 -8 0 9.62 0.67
5 -8 0 1.13 0.53
6 -8 0 8.25 0.75
7 -7 0 5.15 0.64
6 -7 0 2.48 0.44
5 -7 0 -0.09 0.43
4 -7 0 0.81 0.65
3 -7 0 -0.08 0.35
2 -7 0 173.52 3.56
1 -7 0 20.6 0.84
0 -7 0 0.33 0.58
0 -6 0 1.69 0.39
1 -6 0 2.13 0.35
2 -6 0 88.4 2.28
3 -6 0 13.83 0.63
4 -6 0 15.33 0.65
5 -6 0 49.69 1.55
6 -6 0 2.19 0.43
7 -6 0 0.07 0.66
7 -5 0 2.74 0.46
6 -5 0 2.8 0.4
5 -5 0 12.43 0.61
4 -5 0 0.14 0.4
3 -5 0 0.25 0.42
2 -5 0 80.55 1.94
1 -5 0 0.4 0.23
0 -5 0 0.22 0.52
0 -4 0 0.4 0.18
1 -4 0 0.09 0.32
2 -4 0 0.19 0.29
3 -4 0 406.71 3.89
4 -4 0 45.68 1.16
5 -4 0 17.56 0.65
6 -4 0 13.07 0.62
7 -4 0 -0.05 0.5
7 -3 0 0.42 0.56
6 -3 0 0.56 0.5
5 -3 0 33.59 0.99
4 -3 0 28.78 0.83
3 -3 0 127.84 1.97
2 -3 0 55.24 1.21
1 -3 0 11.81 0.35
0 -3 0 6.77 0.29
0 -2 0 2274.33 6.11
1 -2 0 194.18 1.74
2 -2 0 461.09 2.91
3 -2 0 1470.95 5.66
4 -2 0 4.69 0.25
5 -2 0 20.29 0.58
6 -2 0 80.83 2.04
7 -2 0 5.96 0.5
7 -1 0 0.47 0.64
6 -1 0 48.46 1.44
5 -1 0 30.42 0.95
4 -1 0 2.62 0.2
3 -1 0 63.22 1.11
2 -1 0 110.5 1.16
1 -1 0 162.58 1.21
0 -1 0 202.3 1.29
1 0 0 17.66 0.37
2 0 0 4.87 0.17
3 0 0 0.25 0.2
4 0 0 11.26 0.44
5 0 0 0.04 0.35
6 0 0 2.38 0.45
7 0 0 13.69 0.87
6 1 0 -0.05 0.51
5 1 0 -0.82 0.44
4 1 0 6.46 0.44
3 1 0 213 2.66
2 1 0 39.67 0.96
1 1 0 0.14 0.18
0 1 0 206.82 1.3
0 2 0 2316.08 6.16
1 2 0 53.84 1.12
2 2 0 10.13 0.36
3 2 0 3.72 0.33
4 2 0 24.15 0.81
5 2 0 0 0.39
6 2 0 0.21 0.77
5 3 0 -0.53 0.57
4 3 0 4.96 0.46
3 3 0 3.33 0.4
2 3 0 16.53 0.52
1 3 0 150.33 2.22
0 3 0 6.84 0.28
0 4 0 0.1 0.33
1 4 0 61.34 1.68
2 4 0 0.92 0.33
3 4 0 5.12 0.49
4 4 0 3.53 0.59
5 4 0 0.55 0.73
4 5 0 9.82 0.81
3 5 0 1.44 0.4
2 5 0 4.2 0.45
1 5 0 74.81 2.19
0 5 0 0.66 0.43
0 6 0 2.56 0.37
1 6 0 -0.89 0.4
2 6 0 -0.34 0.46
3 6 0 2.32 0.55
2 7 0 2.1 0.53
1 7 0 -0.16 0.54
0 7 0 0.07 0.58
0 8 0 -0.39 0.54
0 8 1 1.29 0.51
0 7 1 0.67 0.6
1 7 1 6.81 0.63
3 6 1 0.32 0.88
2 6 1 0.83 0.56
1 6 1 4.08 0.46
0 6 1 7.65 0.55
0 5 1 3.13 0.35
1 5 1 13.42 0.67
2 5 1 0.35 0.53
3 5 1 0.54 0.86
4 5 1 13.2 0.91
4 4 1 0.13 0.72
3 4 1 1.46 0.43
2 4 1 0.09 0.47
1 4 1 11.63 0.51
0 4 1 234.08 2.99
0 3 1 88.59 1.55
1 3 1 18.06 0.58
2 3 1 5.59 0.38
3 3 1 22.17 0.76
4 3 1 4.15 0.46
5 3 1 0.48 0.72
6 2 1 1.15 0.87
5 2 1 -0.63 0.57
4 2 1 0.33 0.47
3 2 1 4.54 0.36
2 2 1 0.46 0.31
1 2 1 142.46 1.8
0 2 1 0.73 0.12
0 1 1 1046.28 3.07
1 1 1 7.59 0.21
2 1 1 21.52 0.6
3 1 1 191.29 2.53
4 1 1 0.51 0.45
5 1 1 2.2 0.38
6 1 1 8.99 0.7
6 0 1 0 0.54
5 0 1 0.92 0.28
4 0 1 10.3 0.45
3 0 1 34.8 0.95
2 0 1 224.87 1.89
1 0 1 140.27 1.1
0 0 1 932.54 1.86
0 -1 1 16.21 0.39
1 -1 1 1.12 0.09
2 -1 1 128.7 1.32
3 -1 1 8.74 0.27
4 -1 1 12.24 0.4
5 -1 1 -0.18 0.38
6 -1 1 88.98 2.39
7 -1 1 1.82 0.44
7 -2 1 0.34 0.55
6 -2 1 24.01 0.77
5 -2 1 61.49 1.63
4 -2 1 16.59 0.48
3 -2 1 85.81 1.38
2 -2 1 121.75 1.47
1 -2 1 14.63 0.4
0 -2 1 16.59 0.46
0 -3 1 39.05 1.03
1 -3 1 134.94 1.78
2 -3 1 1955.58 6.87
3 -3 1 85.5 1.58
4 -3 1 -0.24 0.27
5 -3 1 49.42 1.22
6 -3 1 29.94 0.93
7 -3 1 1.59 0.39
7 -4 1 3.2 0.53
6 -4 1 1.19 0.36
5 -4 1 3.1 0.36
4 -4 1 43.16 1.13
3 -4 1 0.86 0.21
2 -4 1 265.96 2.98
1 -4 1 0.37 0.27
0 -4 1 0.44 0.28
0 -5 1 0.3 0.41
1 -5 1 2.77 0.31
2 -5 1 164.82 2.73
3 -5 1 85.39 2.05
4 -5 1 24.94 0.76
5 -5 1 1.56 0.35
6 -5 1 0.38 0.59
7 -5 1 3.88 0.49
7 -6 1 1.14 0.43
6 -6 1 1.66 0.41
5 -6 1 6.7 0.57
4 -6 1 0.74 0.51
3 -6 1 0.8 0.48
2 -6 1 68.37 2.01
1 -6 1 62.02 1.6
0 -6 1 -0.15 0.37
0 -7 1 -0.09 0.45
1 -7 1 20.55 0.9
2 -7 1 1.37 0.41
3 -7 1 0.53 0.61
4 -7 1 37.17 1.11
5 -7 1 2.14 0.47
6 -7 1 5.01 0.54
7 -7 1 0.71 0.59
6 -8 1 0.32 0.73
5 -8 1 2.65 0.45
4 -8 1 4.27 0.51
3 -8 1 0.42 0.66
2 -8 1 -0.05 0.54
1 -8 1 67.42 2.11
0 -8 1 4.4 0.62
0 -8 2 4.49 0.69
1 -8 2 19.51 0.97
2 -8 2 0.91 0.71
3 -8 2 8.95 0.66
4 -8 2 -0.56 0.47
5 -8 2 3.64 0.53
6 -8 2 0.64 0.77
6 -7 2 1.76 0.44
5 -7 2 1.96 0.45
4 -7 2 15.56 0.76
3 -7 2 5.44 0.52
2 -7 2 3.68 0.48
1 -7 2 65.29 1.83
0 -7 2 6.4 0.56
0 -6 2 0.43 0.44
1 -6 2 0.05 0.52
2 -6 2 24.57 0.8
3 -6 2 6.33 0.47
4 -6 2 0.11 0.45
5 -6 2 -0.35 0.42
6 -6 2 1.17 0.36
7 -6 2 -0.23 0.52
7 -5 2 6.41 0.6
6 -5 2 3.51 0.43
5 -5 2 1.06 0.31
4 -5 2 10.63 0.52
3 -5 2 14.11 0.55
2 -5 2 72.68 1.84
1 -5 2 63.82 1.78
0 -5 2 2.56 0.35
0 -4 2 0.48 0.31
1 -4 2 341.98 3.35
2 -4 2 29.14 0.84
3 -4 2 46.77 1.35
4 -4 2 1.11 0.24
5 -4 2 37.98 1.16
6 -4 2 0.59 0.44
7 -4 2 0.9 0.37
7 -3 2 0.46 0.62
6 -3 2 -0.63 0.48
5 -3 2 116.59 2.32
4 -3 2 62.11 1.49
3 -3 2 5.82 0.27
2 -3 2 964.82 4.88
1 -3 2 1.4 0.16
0 -3 2 0.23 0.26
0 -2 2 11.02 0.34
1 -2 2 382.4 2.49
2 -2 2 3.04 0.17
3 -2 2 102.45 1.6
4 -2 2 33.15 0.87
5 -2 2 202.09 2.95
6 -2 2 0.58 0.3
7 -2 2 1.17 0.74
7 -1 2 0.77 0.63
6 -1 2 3.12 0.46
5 -1 2 10.73 0.51
4 -1 2 4.62 0.32
3 -1 2 59.73 1.22
2 -1 2 3.74 0.17
1 -1 2 38.85 0.66
0 -1 2 840.63 2.9
0 0 2 28.19 0.46
1 0 2 618.17 2.68
2 0 2 560.22 3.19
3 0 2 49.42 1.2
4 0 2 6.02 0.37
5 0 2 13.84 0.63
6 0 2 3.5 0.54
6 1 2 0.78 0.62
5 1 2 -0.37 0.5
4 1 2 3.63 0.37
3 1 2 34.53 0.94
2 1 2 128.09 1.8
1 1 2 56.05 0.96
0 1 2 328.35 1.92
0 2 2 123.15 1.52
1 2 2 2.21 0.19
2 2 2 40.48 1.2
3 2 2 4.59 0.37
4 2 2 0.78 0.48
5 2 2 0.85 0.71
5 3 2 1.12 0.68
4 3 2 0.98 0.6
3 3 2 1.5 0.35
2 3 2 38.73 1.13
1 3 2 1.1 0.2
0 3 2 78.85 1.5
0 4 2 199.06 2.84
1 4 2 24.56 0.74
2 4 2 1.58 0.38
3 4 2 54.33 1.68
4 4 2 -0.27 0.56
3 5 2 11.51 0.78
2 5 2 13.41 0.74
1 5 2 0.56 0.53
0 5 2 4.81 0.42
0 6 2 8.26 0.57
1 6 2 5.91 0.58
2 6 2 0.82 0.42
1 7 2 1.55 0.52
0 7 2 6.13 0.65
0 8 2 3.12 0.56
0 7 3 21.75 0.98
1 7 3 0.53 0.68
2 6 3 0.51 0.71
1 6 3 0.06 0.61
0 6 3 9.48 0.58
0 5 3 27.25 0.81
1 5 3 2.24 0.38
2 5 3 0.06 0.62
3 5 3 17.85 0.94
4 4 3 -0.29 0.61
3 4 3 27.48 1.02
2 4 3 6.75 0.48
1 4 3 18.59 0.66
0 4 3 20.55 0.62
0 3 3 101.52 1.78
1 3 3 1.58 0.24
2 3 3 44.74 1.27
3 3 3 5.12 0.46
4 3 3 0.1 0.33
5 2 3 3.45 0.47
4 2 3 1.83 0.35
3 2 3 7 0.46
2 2 3 64.03 1.55
1 2 3 184.97 2.29
0 2 3 13.19 0.4
0 1 3 8.05 0.26
1 1 3 0.04 0.19
2 1 3 3.31 0.24
3 1 3 -0.06 0.28
4 1 3 1.89 0.34
5 1 3 9.61 0.62
6 1 3 -0.18 0.6
6 0 3 -0.06 0.51
5 0 3 12.74 0.64
4 0 3 8.58 0.46
3 0 3 2.94 0.25
2 0 3 383.6 2.89
1 0 3 255.81 1.98
0 0 3 58.73 0.82
0 -1 3 388.63 2.22
1 -1 3 343.08 2.21
2 -1 3 102 1.45
3 -1 3 9.87 0.33
4 -1 3 4.2 0.35
5 -1 3 1.14 0.32
6 -1 3 0.27 0.49
6 -2 3 1.36 0.35
5 -2 3 88.46 2.06
4 -2 3 21.19 0.67
3 -2 3 8.48 0.31
2 -2 3 95.21 1.43
1 -2 3 14.43 0.43
0 -2 3 20.74 0.53
0 -3 3 205.98 2.38
1 -3 3 0.42 0.15
2 -3 3 35.06 0.99
3 -3 3 87.78 1.65
4 -3 3 157.73 2.48
5 -3 3 9.94 0.53
6 -3 3 1.52 0.37
7 -3 3 0 0.66
7 -4 3 1.37 0.42
6 -4 3 3.26 0.39
5 -4 3 9.24 0.51
4 -4 3 126.95 2.37
3 -4 3 36 0.98
2 -4 3 6.21 0.31
1 -4 3 644.8 4.67
0 -4 3 11.77 0.43
0 -5 3 19.68 0.67
1 -5 3 5.11 0.41
2 -5 3 27.43 0.82
3 -5 3 41.33 1.17
4 -5 3 3.63 0.39
5 -5 3 3.35 0.37
6 -5 3 1.06 0.69
7 -5 3 10.86 0.74
6 -6 3 8.91 0.6
5 -6 3 1.71 0.39
4 -6 3 -0.16 0.4
3 -6 3 3.31 0.38
2 -6 3 4.23 0.4
1 -6 3 56.41 1.51
0 -6 3 8.6 0.56
0 -7 3 4.85 0.56
1 -7 3 -0.17 0.48
2 -7 3 0.89 0.56
3 -7 3 0.24 0.5
4 -7 3 2.49 0.46
5 -7 3 6.65 0.58
6 -7 3 1.56 0.42
5 -8 3 1.74 0.49
4 -8 3 7.12 0.7
3 -8 3 10.03 0.66
2 -8 3 1.27 0.77
1 -8 3 0 0.53
0 -8 3 17.9 0.94
0 -8 4 8.65 0.76
1 -8 4 0.3 0.42
2 -8 4 1.71 0.38
3 -8 4 6.24 0.58
4 -8 4 1.36 0.45
5 -8 4 1.64 0.37
6 -7 4 7.77 0.67
5 -7 4 1.14 0.44
4 -7 4 1.8 0.37
3 -7 4 -0.31 0.41
2 -7 4 0.54 0.6
1 -7 4 2.12 0.38
0 -7 4 5.76 0.59
0 -6 4 19.34 0.79
1 -6 4 -0.07 0.32
2 -6 4 22.09 0.76
3 -6 4 4.94 0.47
4 -6 4 5.67 0.49
5 -6 4 0.56 0.31
6 -6 4 8.54 0.65
6 -5 4 0.77 0.51
5 -5 4 2.69 0.39
4 -5 4 31.42 0.97
3 -5 4 17.34 0.65
2 -5 4 1.04 0.28
1 -5 4 1.31 0.27
0 -5 4 111.87 2.44
0 -4 4 0.19 0.2
1 -4 4 58.81 1.5
2 -4 4 14.27 0.46
3 -4 4 29.74 0.95
4 -4 4 94.63 2.15
5 -4 4 -0.21 0.47
6 -4 4 3.36 0.44
6 -3 4 3.15 0.44
5 -3 4 2.21 0.34
4 -3 4 358.36 3.83
3 -3 4 1.55 0.24
2 -3 4 0 0.21
1 -3 4 15.3 0.44
0 -3 4 52.2 1.27
0 -2 4 49.97 1.06
1 -2 4 33.22 0.86
2 -2 4 23.08 0.65
3 -2 4 2.16 0.23
4 -2 4 24.54 0.77
5 -2 4 0.17 0.38
6 -2 4 3.47 0.46
6 -1 4 0.46 0.31
5 -1 4 4.81 0.45
4 -1 4 53.86 1.58
3 -1 4 8.79 0.39
2 -1 4 2.35 0.19
1 -1 4 966.18 4.23
0 -1 4 6.32 0.2
0 0 4 99.15 1.24
1 0 4 97.17 1.39
2 0 4 -0.09 0.13
3 0 4 -0.18 0.3
4 0 4 1.52 0.28
5 0 4 0.26 0.51
6 0 4 0.52 0.51
5 1 4 16.31 0.83
4 1 4 5.05 0.43
3 1 4 2.27 0.25
2 1 4 14.91 0.47
1 1 4 373.3 2.97
0 1 4 120.33 1.49
0 2 4 1.62 0.16
1 2 4 7.55 0.33
2 2 4 21.9 0.65
3 2 4 0.4 0.38
4 2 4 0.49 0.58
5 2 4 3.7 0.5
4 3 4 0.89 0.63
3 3 4 0.63 0.53
2 3 4 126.99 2.64
1 3 4 -0.33 0.29
0 3 4 -0.21 0.25
0 4 4 7.95 0.46
1 4 4 7.36 0.49
2 4 4 72.95 1.9
3 4 4 2.85 0.57
3 5 4 0.96 0.68
2 5 4 5.6 0.63
1 5 4 5.08 0.48
0 5 4 2.95 0.38
0 6 4 7.72 0.58
1 6 4 0.73 0.51
2 6 4 4.06 0.53
0 7 4 0.43 0.75
0 7 5 -0.35 0.54
1 6 5 0 0.6
0 6 5 1.99 0.43
0 5 5 0.26 0.49
1 5 5 3.1 0.46
2 5 5 0.74 0.61
3 4 5 0.72 0.37
2 4 5 13.76 0.76
1 4 5 13.26 0.65
0 4 5 9.08 0.5
0 3 5 27.24 0.88
1 3 5 91.96 2.17
2 3 5 30.99 0.91
3 3 5 0.52 0.36
4 3 5 0.07 0.67
4 2 5 0.97 0.39
3 2 5 0.76 0.27
2 2 5 0.63 0.24
1 2 5 158.43 2.43
0 2 5 0.16 0.33
0 1 5 147.34 1.87
1 1 5 1.11 0.18
2 1 5 1.52 0.24
3 1 5 3.51 0.35
4 1 5 12.48 0.63
5 1 5 0.57 0.61
5 0 5 -0.37 0.54
4 0 5 45.06 1.34
3 0 5 1.02 0.23
2 0 5 2.96 0.21
1 0 5 7.25 0.27
0 0 5 219.89 2.11
0 -1 5 43.47 0.96
1 -1 5 33.88 0.92
2 -1 5 0.99 0.16
3 -1 5 45.2 1.09
4 -1 5 2.73 0.36
5 -1 5 1.26 0.38
6 -1 5 -0.06 0.58
6 -2 5 0.76 0.64
5 -2 5 0.14 0.43
4 -2 5 27.27 0.84
3 -2 5 65.11 1.59
2 -2 5 3.98 0.24
1 -2 5 60.55 1.27
0 -2 5 435.82 3.25
0 -3 5 4.77 0.28
1 -3 5 12.71 0.38
2 -3 5 5.63 0.29
3 -3 5 109.01 2.08
4 -3 5 29.72 0.89
5 -3 5 2.78 0.39
6 -3 5 5.29 0.51
6 -4 5 0.15 0.38
5 -4 5 0.69 0.37
4 -4 5 0.61 0.42
3 -4 5 363.48 4.02
2 -4 5 28.55 0.9
1 -4 5 3.1 0.3
0 -4 5 1.27 0.26
0 -5 5 93.67 2.28
1 -5 5 -0.33 0.27
2 -5 5 1.05 0.32
3 -5 5 141.35 2.76
4 -5 5 1.41 0.32
5 -5 5 5.49 0.52
6 -5 5 6.9 0.6
6 -6 5 16.53 0.84
5 -6 5 5.19 0.54
4 -6 5 1.04 0.31
3 -6 5 16.64 0.73
2 -6 5 2.55 0.36
1 -6 5 1 0.34
0 -6 5 0.51 0.73
0 -7 5 5.82 0.57
1 -7 5 2.57 0.45
2 -7 5 5.97 0.49
3 -7 5 4.36 0.51
4 -7 5 0.45 0.55
5 -7 5 4.97 0.53
4 -8 5 1.03 0.36
3 -8 5 0.75 0.42
2 -8 5 0.65 0.68
1 -8 5 -0.43 0.49
0 -8 5 -0.4 0.57
0 -8 6 0.56 0.66
1 -8 6 -0.23 0.42
2 -8 6 1.87 0.45
3 -8 6 -0.28 0.51
4 -8 6 0.98 0.7
5 -7 6 6.31 0.66
4 -7 6 3.17 0.51
3 -7 6 -0.35 0.44
2 -7 6 1.47 0.38
1 -7 6 2.3 0.45
0 -7 6 -0.2 0.57
0 -6 6 0.23 0.53
1 -6 6 0.27 0.42
2 -6 6 52.27 1.52
3 -6 6 5.03 0.44
4 -6 6 2.28 0.42
5 -6 6 5.41 0.55
5 -5 6 -0.31 0.46
4 -5 6 -0.41 0.48
3 -5 6 7.15 0.51
2 -5 6 107.33 2.46
1 -5 6 8.11 0.48
0 -5 6 0.39 0.46
0 -4 6 0.2 0.38
1 -4 6 1.14 0.22
2 -4 6 26.78 0.73
3 -4 6 154.62 2.79
4 -4 6 0.29 0.41
5 -4 6 9.88 0.63
6 -4 6 -0.66 0.61
6 -3 6 3.06 0.44
5 -3 6 1.3 0.37
4 -3 6 0.96 0.28
3 -3 6 11.6 0.5
2 -3 6 15.07 0.53
1 -3 6 10.34 0.41
0 -3 6 61.88 1.49
0 -2 6 138.21 2.02
1 -2 6 6.03 0.28
2 -2 6 54.64 1.44
3 -2 6 37.47 1.09
4 -2 6 0.31 0.47
5 -2 6 0.16 0.53
5 -1 6 -0.11 0.52
4 -1 6 1.9 0.36
3 -1 6 19.64 0.65
2 -1 6 2.23 0.27
1 -1 6 5.12 0.27
0 -1 6 10.24 0.32
0 0 6 57.57 1.24
1 0 6 0.06 0.26
2 0 6 3.58 0.3
3 0 6 18.14 0.66
4 0 6 9.04 0.56
5 0 6 0.55 0.59
4 1 6 5.38 0.51
3 1 6 0.32 0.43
2 1 6 6.43 0.43
1 1 6 9.46 0.42
0 1 6 18.09 0.55
0 2 6 26.15 0.82
1 2 6 115.43 2.26
2 2 6 -0.12 0.41
3 2 6 3.25 0.47
4 2 6 -0.23 0.58
3 3 6 2.92 0.44
2 3 6 10.74 0.62
1 3 6 87.57 2.22
0 3 6 0.08 0.35
0 4 6 -0.16 0.37
1 4 6 10.15 0.61
2 4 6 0.55 0.61
2 5 6 1.89 0.47
1 5 6 5.79 0.58
0 5 6 1.63 0.39
0 6 6 0.13 0.55
0 6 7 0.86 0.7
0 5 7 3.85 0.47
1 5 7 -0.11 0.65
2 4 7 0.2 0.6
1 4 7 3.93 0.44
0 4 7 9.51 0.57
0 3 7 40 1.22
1 3 7 9.72 0.57
2 3 7 2.97 0.46
3 3 7 0.34 0.6
3 2 7 0.97 0.34
2 2 7 3.07 0.39
1 2 7 50.18 1.35
0 2 7 140.58 2.5
0 1 7 195.3 2.6
1 1 7 0.18 0.35
2 1 7 12.28 0.56
3 1 7 1.48 0.35
4 1 7 0.75 0.64
4 0 7 1.62 0.35
3 0 7 19.24 0.72
2 0 7 0.45 0.35
1 0 7 20.61 0.66
0 0 7 3.81 0.25
0 -1 7 1.52 0.18
1 -1 7 0.5 0.21
2 -1 7 13.5 0.51
3 -1 7 29.56 0.84
4 -1 7 3.08 0.39
5 -1 7 2.65 0.41
5 -2 7 0.42 0.39
4 -2 7 -0.05 0.48
3 -2 7 2.15 0.32
2 -2 7 2.46 0.28
1 -2 7 5.22 0.32
0 -2 7 31.8 0.88
0 -3 7 12.05 0.5
1 -3 7 7.48 0.41
2 -3 7 55.38 1.63
3 -3 7 1.99 0.31
4 -3 7 1.71 0.35
5 -3 7 3.74 0.49
5 -4 7 3.3 0.52
4 -4 7 7.44 0.54
3 -4 7 1.21 0.3
2 -4 7 2.05 0.31
1 -4 7 0.29 0.35
0 -4 7 7.29 0.44
0 -5 7 0.46 0.47
1 -5 7 0.68 0.45
2 -5 7 150.13 3.01
3 -5 7 2.62 0.38
4 -5 7 7.71 0.56
5 -5 7 -0.28 0.54
5 -6 7 0.28 0.8
4 -6 7 0.81 0.65
3 -6 7 -0.53 0.41
2 -6 7 25.73 0.93
1 -6 7 8.3 0.61
0 -6 7 -0.14 0.43
0 -7 7 -0.11 0.42
1 -7 7 4.42 0.53
2 -7 7 2.63 0.48
3 -7 7 0.27 0.53
4 -7 7 0.21 0.65
3 -8 7 0.76 0.69
2 -8 7 -0.12 0.57
1 -8 7 -0.3 0.53
3 -7 8 0.77 0.74
2 -7 8 0.47 0.37
1 -7 8 18.47 0.89
0 -7 8 0.74 0.67
0 -6 8 3.52 0.5
1 -6 8 49.04 1.4
2 -6 8 5.7 0.53
3 -6 8 1.05 0.64
4 -6 8 0.64 0.37
4 -5 8 2.81 0.54
3 -5 8 3.7 0.45
2 -5 8 25.46 0.88
1 -5 8 6.25 0.5
0 -5 8 -0.26 0.44
0 -4 8 -0.12 0.21
1 -4 8 13.99 0.6
2 -4 8 5.07 0.46
3 -4 8 1.67 0.32
4 -4 8 -0.37 0.53
5 -4 8 3.08 0.5
5 -3 8 2.29 0.48
4 -3 8 4.47 0.48
3 -3 8 0 0.38
2 -3 8 5.12 0.38
1 -3 8 27.77 0.84
0 -3 8 0.44 0.29
0 -2 8 0.98 0.24
1 -2 8 3.08 0.3
2 -2 8 33.39 1.09
3 -2 8 0.81 0.53
4 -2 8 2.21 0.39
4 -1 8 4.53 0.52
3 -1 8 9.55 0.55
2 -1 8 17.54 0.64
1 -1 8 3.29 0.31
0 -1 8 5.51 0.35
0 0 8 6.58 0.37
1 0 8 4.06 0.36
2 0 8 0.56 0.45
3 0 8 0.57 0.55
4 0 8 0.86 0.68
3 1 8 2.76 0.41
2 1 8 0.1 0.49
1 1 8 0.17 0.42
0 1 8 88.22 2
0 2 8 69.93 1.89
1 2 8 0.14 0.44
2 2 8 1.86 0.33
3 2 8 5.73 0.57
2 3 8 1 0.36
1 3 8 0.22 0.52
0 3 8 7.61 0.54
0 4 8 7.18 0.55
1 4 8 -0.17 0.53
0 5 8 0.33 0.68
0 4 9 -0.16 0.51
0 3 9 2.5 0.45
1 3 9 0.43 0.59
2 2 9 3.95 0.48
1 2 9 3.35 0.43
0 2 9 0.36 0.27
0 1 9 22.26 0.74
1 1 9 3.03 0.36
2 1 9 2.59 0.4
3 1 9 0.58 0.53
3 0 9 -0.11 0.52
2 0 9 5.97 0.47
1 0 9 2.67 0.3
0 0 9 2.55 0.31
0 -1 9 0.08 0.35
1 -1 9 0.21 0.37
2 -1 9 15.9 0.67
3 -1 9 0.33 0.42
4 -1 9 -0.55 0.78
4 -2 9 2.46 0.53
3 -2 9 0.11 0.52
2 -2 9 27.77 0.86
1 -2 9 1.7 0.28
0 -2 9 6.16 0.39
0 -3 9 0.66 0.26
1 -3 9 7.58 0.49
2 -3 9 0.64 0.3
3 -3 9 0.66 0.49
4 -3 9 1 0.7
4 -4 9 6.31 0.57
3 -4 9 2.05 0.39
2 -4 9 0.72 0.32
1 -4 9 25.59 0.86
0 -4 9 13.31 0.63
0 -5 9 -0.76 0.54
1 -5 9 2.15 0.41
2 -5 9 0.06 0.55
3 -5 9 1.07 0.35
4 -5 9 5.7 0.55
3 -6 9 0.81 0.72
2 -6 9 0.45 0.59
1 -6 9 38.12 1.17
0 -6 9 0.82 0.45
0 -7 9 4.91 0.6
1 -7 9 5.12 0.64
2 -7 9 0.22 0.63
0 -6 10 -0.75 0.53
1 -6 10 1.73 0.47
2 -6 10 -0.3 0.55
3 -5 10 1.1 0.69
2 -5 10 -0.28 0.47
1 -5 10 2.22 0.41
0 -5 10 13.86 0.77
0 -4 10 0.5 0.4
1 -4 10 0.73 0.54
2 -4 10 0 0.52
3 -4 10 -0.17 0.59
3 -3 10 5.24 0.55
2 -3 10 1.56 0.37
1 -3 10 32.18 0.94
0 -3 10 0.46 0.62
0 -2 10 0.09 0.41
1 -2 10 27.6 0.89
2 -2 10 1.46 0.39
3 -2 10 3.5 0.48
3 -1 10 4.63 0.5
2 -1 10 -0.1 0.5
1 -1 10 5.7 0.46
0 -1 10 0.23 0.43
0 0 10 3.33 0.34
1 0 10 0.46 0.27
2 0 10 0.74 0.44
2 1 10 7.21 0.59
1 1 10 2.98 0.43
0 1 10 -0.61 0.44
0 2 10 0.81 0.54
1 2 10 0.67 0.51
0 3 10 0.68 0.42
0 2 11 0.18 0.71
0 1 11 3.94 0.43
1 1 11 2.12 0.44
1 0 11 8.01 0.57
0 0 11 0.69 0.55
0 -1 11 3.35 0.41
1 -1 11 -0.32 0.54
2 -1 11 0.72 0.3
2 -2 11 0.43 0.43
1 -2 11 1.32 0.37
0 -2 11 1.54 0.38
0 -3 11 9.21 0.61
1 -3 11 2.67 0.45
2 -3 11 1.22 0.4
2 -4 11 1.18 0.37
1 -4 11 1.37 0.39
0 -4 11 10.92 0.69
0 -5 11 0.34 0.7
1 -5 11 -0.02 0.31
0 -4 12 5.07 0.53
1 -3 12 1.74 0.45
0 -3 12 3.42 0.51
0 -2 12 0.49 0.57
1 -2 12 0.52 0.62
1 -1 12 1.09 0.72
0 -1 12 3.84 0.47
0 0 12 3.15 0.43
0 1 12 6.18 0.56
loop_
_restr_distance_atom_site_label_1
_restr_distance_atom_site_label_2
_restr_distance_site_symmetry_2
_restr_distance_target
_restr_distance_target_weight_param
_restr_distance_diff
C1 H1c 1 0.9600 0.0100 -0.0115
