#------------------------------------------------------------------------------
#$Date: 2022-09-23 12:09:50 +0300 (Fri, 23 Sep 2022) $
#$Revision: 278117 $
#$URL: file:///home/coder/svn-repositories/cod/cif/8/10/58/8105852.cif $
#------------------------------------------------------------------------------
#
# This file is available in the Crystallography Open Database (COD),
# http://www.crystallography.net/
#
# All data on this site have been placed in the public domain by the
# contributors.
#
data_8105852
loop_
_publ_author_name
'Li, Dong'
'Deng, Ping-Ping'
'Wu, Li'
_publ_section_title
;
 Crystal structure of catena-poly[(\m2-azido-\k2
 N:N)(\m2-4-cyanobenzoato-\k2 O:O&#x2032;)-(\m2-methanol-\k2
 O:O)copper(II)], C9H8CuN4O3
;
_journal_issue                   4
_journal_name_full
'Zeitschrift f\"ur Kristallographie - New Crystal Structures'
_journal_page_first              791
_journal_page_last               792
_journal_paper_doi               10.1515/ncrs-2019-0115
_journal_volume                  234
_journal_year                    2019
_chemical_formula_moiety         'C9 H8 Cu N4 O3'
_chemical_formula_sum            'C9 H8 Cu N4 O3'
_chemical_formula_weight         283.73
_space_group_crystal_system      triclinic
_space_group_IT_number           2
_space_group_name_Hall           '-P 1'
_space_group_name_H-M_alt        'P -1'
_atom_sites_solution_hydrogens   geom
_cell_angle_alpha                103.8910(10)
_cell_angle_beta                 94.8680(10)
_cell_angle_gamma                105.4530(10)
_cell_formula_units_Z            2
_cell_length_a                   6.3568(4)
_cell_length_b                   8.8323(6)
_cell_length_c                   10.8584(7)
_cell_measurement_reflns_used    5662
_cell_measurement_temperature    296(2)
_cell_measurement_theta_max      26.3151
_cell_measurement_theta_min      2.9973
_cell_volume                     563.16(6)
_computing_cell_refinement
;
CrysAlisPro, Oxford Diffraction Ltd.,
Version 1.171.33.66 (release 28-04-2010 CrysAlis171 .NET)
(compiled Apr 28 2010,14:27:37)
;
_computing_data_collection
;
CrysAlisPro, Oxford Diffraction Ltd.,
Version 1.171.33.66 (release 28-04-2010 CrysAlis171 .NET)
(compiled Apr 28 2010,14:27:37)
;
_computing_data_reduction
;
CrysAlisPro, Oxford Diffraction Ltd.,
Version 1.171.33.66 (release 28-04-2010 CrysAlis171 .NET)
(compiled Apr 28 2010,14:27:37)
;
_computing_molecular_graphics    'Olex2 (Dolomanov et al., 2009)'
_computing_publication_material  'Olex2 (Dolomanov et al., 2009)'
_computing_structure_refinement  'ShelXL (Sheldrick, 2015)'
_computing_structure_solution    'ShelXT (Sheldrick, 2015)'
_diffrn_ambient_temperature      296.15
_diffrn_detector_area_resol_mean 16.2542
_diffrn_measured_fraction_theta_full 0.992
_diffrn_measured_fraction_theta_max 0.799
_diffrn_measurement_details
;
#__ type_ start__ end____ width___ exp.time_
  1 omega  -37.00   82.00   1.0000  180.0000
omega____ theta____ kappa____ phi______ frames
    -       18.4204    0.0000   60.0000 119

#__ type_ start__ end____ width___ exp.time_
  2 omega   31.00   90.00   1.0000  180.0000
omega____ theta____ kappa____ phi______ frames
    -       18.4204 -147.0000  131.0000 59

#__ type_ start__ end____ width___ exp.time_
  3 omega  -72.00  -22.00   1.0000  180.0000
omega____ theta____ kappa____ phi______ frames
    -      -19.0454  124.0000 -117.0000 50
;
_diffrn_measurement_device_type  'Xcalibur, Eos, Gemini'
_diffrn_measurement_method       '\w scans'
_diffrn_orient_matrix_UB_11      -0.0114368000
_diffrn_orient_matrix_UB_12      0.0252063000
_diffrn_orient_matrix_UB_13      -0.0229345000
_diffrn_orient_matrix_UB_21      0.0319703000
_diffrn_orient_matrix_UB_22      0.0108689000
_diffrn_orient_matrix_UB_23      0.0456335000
_diffrn_orient_matrix_UB_31      0.0256099000
_diffrn_orient_matrix_UB_32      -0.0022949000
_diffrn_orient_matrix_UB_33      -0.0355531000
_diffrn_radiation_monochromator  graphite
_diffrn_radiation_type           MoK\a
_diffrn_radiation_wavelength     0.71073
_diffrn_reflns_av_R_equivalents  0.0089
_diffrn_reflns_av_unetI/netI     0.0199
_diffrn_reflns_Laue_measured_fraction_full 0.992
_diffrn_reflns_Laue_measured_fraction_max 0.799
_diffrn_reflns_limit_h_max       8
_diffrn_reflns_limit_h_min       -6
_diffrn_reflns_limit_k_max       8
_diffrn_reflns_limit_k_min       -12
_diffrn_reflns_limit_l_max       15
_diffrn_reflns_limit_l_min       -14
_diffrn_reflns_number            3767
_diffrn_reflns_point_group_measured_fraction_full 0.992
_diffrn_reflns_point_group_measured_fraction_max 0.799
_diffrn_reflns_theta_full        25.242
_diffrn_reflns_theta_max         30.550
_diffrn_reflns_theta_min         1.957
_diffrn_source                   'Enhance (Mo) X-ray Source'
_exptl_absorpt_coefficient_mu    1.941
_exptl_absorpt_correction_T_max  1.00000
_exptl_absorpt_correction_T_min  0.96747
_exptl_absorpt_correction_type   multi-scan
_exptl_absorpt_process_details
;
CrysAlisPro, Oxford Diffraction Ltd.,
Version 1.171.33.66 (release 28-04-2010 CrysAlis171 .NET)
(compiled Apr 28 2010,14:27:37)
Empirical absorption correction using spherical harmonics,
 implemented in SCALE3 ABSPACK scaling algorithm.
;
_exptl_crystal_colour            blue
_exptl_crystal_colour_primary    blue
_exptl_crystal_density_diffrn    1.673
_exptl_crystal_density_meas      .
_exptl_crystal_description       block
_exptl_crystal_F_000             286
_exptl_crystal_size_max          0.28
_exptl_crystal_size_mid          0.22
_exptl_crystal_size_min          0.2
_refine_diff_density_max         0.313
_refine_diff_density_min         -0.358
_refine_diff_density_rms         0.056
_refine_ls_extinction_coef       .
_refine_ls_extinction_method     none
_refine_ls_goodness_of_fit_ref   1.041
_refine_ls_hydrogen_treatment    constr
_refine_ls_matrix_type           full
_refine_ls_number_parameters     159
_refine_ls_number_reflns         2760
_refine_ls_number_restraints     1
_refine_ls_restrained_S_all      1.044
_refine_ls_R_factor_all          0.0330
_refine_ls_R_factor_gt           0.0245
_refine_ls_shift/su_max          0.000
_refine_ls_shift/su_mean         0.000
_refine_ls_structure_factor_coef Fsqd
_refine_ls_weighting_details
'w=1/[\s^2^(Fo^2^)+(0.0393P)^2^+0.1234P] where P=(Fo^2^+2Fc^2^)/3'
_refine_ls_weighting_scheme      calc
_refine_ls_wR_factor_gt          0.0659
_refine_ls_wR_factor_ref         0.0701
_reflns_Friedel_coverage         0.000
_reflns_Friedel_fraction_full    .
_reflns_Friedel_fraction_max     .
_reflns_number_gt                2241
_reflns_number_total             2760
_reflns_threshold_expression     'I > 2\s(I)'
_iucr_refine_instructions_details
;
TITL 1_a.res in P-1
    1.res
    created by SHELXL-2018/3 at 19:20:48 on 01-Feb-2019
REM Old TITL 111205B in P-1 P-1
REM SHELXT solution in P-1: R1 0.132, Rweak 0.002, Alpha 0.038
REM <I/s> 0.000 for 0 systematic absences, Orientation as input
REM Formula found by SHELXT: C10 Cu N3 O3
CELL 0.71073 6.3568 8.8323 10.8584 103.891 94.868 105.453
ZERR 2 0.0004 0.0006 0.0007 0.001 0.001 0.001
LATT 1
SFAC C H Cu N O
UNIT 18 16 2 8 6
DELU 0.001 0.001 N1 N2

L.S. 8
PLAN  20
SIZE 0.28 0.22 0.2
TEMP 23
BIND O3 Cu1
BIND O3 Cu2
BOND
list 4
fmap 2
acta
REM <olex2.extras>
REM <HklSrc "%.\\1.hkl">
REM </olex2.extras>

WGHT    0.039300    0.123400
FVAR       1.04742
CU1   3    0.000000    1.000000    1.000000    10.50000    0.01957    0.02535 =
         0.02972   -0.00704    0.00189    0.00667
CU2   3    0.500000    1.000000    1.000000    10.50000    0.01843    0.02688 =
         0.02724   -0.00622    0.00401    0.00493
O1    5    0.330330    0.795895    0.872698    11.00000    0.02446    0.03217 =
         0.03794   -0.01169    0.00523    0.00381
O2    5   -0.023375    0.791157    0.878157    11.00000    0.02702    0.03016 =
         0.04216   -0.01192    0.00064    0.00922
O3    5    0.280990    1.135606    0.888299    11.00000    0.04657    0.03293 =
         0.03168    0.00171    0.00621    0.00759
AFIX 147
H3    2    0.264365    1.095471    0.810449    11.00000   -1.50000
AFIX   0
N1    4    0.740232    1.016631    0.892700    11.00000    0.02295    0.03508 =
         0.02986   -0.00177    0.00441    0.00910
N2    4    0.701186    0.944735    0.778608    11.00000    0.02889    0.05287 =
         0.03157    0.00270    0.00641    0.01405
N3    4    0.665498    0.878246    0.671948    11.00000    0.05433    0.10007 =
         0.03161   -0.00200    0.00586    0.02819
N4    4   -0.223752   -0.002431    0.380507    11.00000    0.06416    0.04118 =
         0.04103   -0.01128   -0.00420    0.01458
C1    1    0.125821    0.732404    0.839707    11.00000    0.02850    0.02433 =
         0.02696   -0.00063    0.00434    0.00593
C2    1    0.050504    0.568628    0.741264    11.00000    0.03038    0.02362 =
         0.02833   -0.00237    0.00330    0.00715
C3    1   -0.167918    0.472584    0.721899    11.00000    0.03339    0.03553 =
         0.04731   -0.01018    0.01221    0.00235
AFIX  43
H3A   2   -0.267317    0.509875    0.770006    11.00000   -1.20000
AFIX   0
C4    1   -0.238662    0.322342    0.631908    11.00000    0.03718    0.03492 =
         0.05209   -0.01158    0.00809   -0.00268
AFIX  43
H4    2   -0.384243    0.257263    0.620428    11.00000   -1.20000
AFIX   0
C5    1   -0.090479    0.269495    0.558845    11.00000    0.04361    0.02674 =
         0.03127   -0.00355    0.00037    0.00944
C6    1    0.127591    0.365341    0.575885    11.00000    0.03939    0.03624 =
         0.03654   -0.00432    0.00700    0.01525
AFIX  43
H6    2    0.225658    0.329723    0.525654    11.00000   -1.20000
AFIX   0
C7    1    0.197405    0.513867    0.668005    11.00000    0.02923    0.03178 =
         0.03855   -0.00335    0.00488    0.00839
AFIX  43
H7    2    0.343952    0.577650    0.681034    11.00000   -1.20000
AFIX   0
C8    1   -0.165296    0.116230    0.460208    11.00000    0.04780    0.03500 =
         0.03566   -0.00155   -0.00088    0.01314
C9    1    0.345099    1.306427    0.915503    11.00000    0.11193    0.03604 =
         0.06412    0.01319    0.02516    0.01209
AFIX 137
H9A   2    0.474228    1.342503    0.877934    11.00000   -1.50000
H9B   2    0.377800    1.353577    1.006881    11.00000   -1.50000
H9C   2    0.227142    1.340111    0.880311    11.00000   -1.50000
AFIX   0
HKLF 4




REM  1_a.res in P-1
REM wR2 = 0.0701, GooF = S = 1.041, Restrained GooF = 1.044 for all data
REM R1 = 0.0245 for 2241 Fo > 4sig(Fo) and 0.0330 for all 2760 data
REM 159 parameters refined using 1 restraints

END  
     
WGHT      0.0393      0.1233 

REM Highest difference peak  0.313,  deepest hole -0.358,  1-sigma level  0.056
Q1    1   0.4760  1.0769  0.9603  11.00000  0.05    0.31
Q2    1   0.0120  0.3234  0.5571  11.00000  0.05    0.29
Q3    1   0.0978  0.6385  0.7925  11.00000  0.05    0.29
Q4    1   0.8145  1.0180  0.9028  11.00000  0.05    0.29
Q5    1   0.0307  0.9363  1.0585  11.00000  0.05    0.29
Q6    1   0.3696  1.3608  0.8389  11.00000  0.05    0.28
Q7    1   0.1132  0.5377  0.7116  11.00000  0.05    0.27
Q8    1  -0.1520  0.2929  0.5923  11.00000  0.05    0.26
Q9    1   0.7546  1.0790  0.8911  11.00000  0.05    0.26
Q10   1  -0.0353  0.5165  0.7466  11.00000  0.05    0.26
Q11   1   0.7149  0.9671  0.9197  11.00000  0.05    0.25
Q12   1   0.3726  0.8437  0.9292  11.00000  0.05    0.22
Q13   1   0.3426  0.8008  0.9303  11.00000  0.05    0.21
Q14   1  -0.2899  0.3070  0.6217  11.00000  0.05    0.21
Q15   1   0.0515  0.5403  0.7612  11.00000  0.05    0.21
Q16   1  -0.1221  0.2054  0.5349  11.00000  0.05    0.20
Q17   1   0.2425  0.7816  0.8587  11.00000  0.05    0.19
Q18   1  -0.2435  0.0027  0.4422  11.00000  0.05    0.19
Q19   1  -0.1801  0.3917  0.6773  11.00000  0.05    0.18
Q20   1  -0.1570  0.0553  0.4772  11.00000  0.05    0.17

  REM The information below was added by Olex2.
  REM
  REM R1 = 0.0245 for 2241 Fo > 4sig(Fo) and 0.0330 for all 3767 data
  REM n/a parameters refined using n/a restraints
  REM Highest difference peak 0.31, deepest hole -0.36
  REM Mean Shift 0, Max Shift 0.000.

  REM +++ Tabular Listing of Refinement Information +++
  REM R1_all = 0.0330
  REM R1_gt = 0.0245
  REM wR_ref = 0.0701
  REM GOOF = 1.041
  REM Shift_max = 0.000
  REM Shift_mean = 0
  REM Reflections_all = 3767
  REM Reflections_gt = 2241
  REM Parameters = n/a
  REM Hole = -0.36
  REM Peak = 0.31
  REM Flack = n/a

  
;
_cod_data_source_file            suppl_ncrs-2019-0115_suppl.cif
_cod_data_source_block           1
_cod_database_code               8105852
_chemical_oxdiff_formula         'Cu C H O N S'
_chemical_oxdiff_usercomment     Jl10091503
_shelx_space_group_comment
;
The symmetry employed for this shelxl refinement is uniquely defined
by the following loop, which should always be used as a source of
symmetry information in preference to the above space-group names.
They are only intended as comments.
;
_shelx_estimated_absorpt_t_max   0.698
_shelx_estimated_absorpt_t_min   0.613
_reflns_odcompleteness_completeness 99.76
_reflns_odcompleteness_iscentric 1
_reflns_odcompleteness_theta     26.32
_olex2_refinement_description
;
1. Fixed Uiso
 At 1.2 times of:
  All C(H) groups
 At 1.5 times of:
  All C(H,H,H) groups, All O(H) groups
2. Rigid bond restraints
 N1, N2
 with sigma for 1-2 distances of 0.001 and sigma for 1-3 distances of 0.001
3.a Aromatic/amide H refined with riding coordinates:
 C3(H3A), C4(H4), C6(H6), C7(H7)
3.b Idealised Me refined as rotating group:
 C9(H9A,H9B,H9C)
3.c Idealised tetrahedral OH refined as rotating group:
 O3(H3)
;
_olex2_submission_special_instructions 'No special instructions were received'
_publcif_funding_html
;
;
loop_
_space_group_symop_operation_xyz
'x, y, z'
'-x, -y, -z'
loop_
_atom_site_label
_atom_site_type_symbol
_atom_site_fract_x
_atom_site_fract_y
_atom_site_fract_z
_atom_site_U_iso_or_equiv
_atom_site_adp_type
_atom_site_occupancy
_atom_site_site_symmetry_order
_atom_site_calc_flag
_atom_site_refinement_flags_posn
_atom_site_refinement_flags_adp
_atom_site_refinement_flags_occupancy
_atom_site_disorder_assembly
_atom_site_disorder_group
Cu1 Cu 0.000000 1.000000 1.000000 0.02763(9) Uani 1 2 d S T P . .
Cu2 Cu 0.500000 1.000000 1.000000 0.02698(9) Uani 1 2 d S T P . .
O1 O 0.3303(2) 0.79590(16) 0.87270(13) 0.0363(3) Uani 1 1 d . . . . .
O2 O -0.0234(2) 0.79116(16) 0.87816(13) 0.0372(3) Uani 1 1 d . . . . .
O3 O 0.2810(2) 1.13561(17) 0.88830(13) 0.0392(3) Uani 1 1 d . . . . .
H3 H 0.264365 1.095471 0.810449 0.059 Uiso 1 1 calc GR . . . .
N1 N 0.7402(2) 1.01663(19) 0.89270(14) 0.0311(3) Uani 1 1 d . U . . .
N2 N 0.7012(3) 0.9447(2) 0.77861(15) 0.0389(4) Uani 1 1 d . U . . .
N3 N 0.6655(4) 0.8782(3) 0.67195(18) 0.0646(6) Uani 1 1 d . . . . .
N4 N -0.2238(4) -0.0024(2) 0.38051(18) 0.0538(5) Uani 1 1 d . . . . .
C1 C 0.1258(3) 0.7324(2) 0.83971(16) 0.0284(3) Uani 1 1 d . . . . .
C2 C 0.0505(3) 0.5686(2) 0.74126(16) 0.0294(4) Uani 1 1 d . . . . .
C3 C -0.1679(3) 0.4726(3) 0.7219(2) 0.0438(5) Uani 1 1 d . . . . .
H3A H -0.267317 0.509875 0.770006 0.053 Uiso 1 1 calc R . . . .
C4 C -0.2387(4) 0.3223(3) 0.6319(2) 0.0483(6) Uani 1 1 d . . . . .
H4 H -0.384243 0.257263 0.620428 0.058 Uiso 1 1 calc R . . . .
C5 C -0.0905(3) 0.2695(2) 0.55884(18) 0.0365(4) Uani 1 1 d . . . . .
C6 C 0.1276(3) 0.3653(2) 0.57588(19) 0.0391(4) Uani 1 1 d . . . . .
H6 H 0.225658 0.329723 0.525654 0.047 Uiso 1 1 calc R . . . .
C7 C 0.1974(3) 0.5139(2) 0.66801(18) 0.0357(4) Uani 1 1 d . . . . .
H7 H 0.343952 0.577650 0.681034 0.043 Uiso 1 1 calc R . . . .
C8 C -0.1653(4) 0.1162(2) 0.46021(19) 0.0418(5) Uani 1 1 d . . . . .
C9 C 0.3451(6) 1.3064(3) 0.9155(3) 0.0721(9) Uani 1 1 d . . . . .
H9A H 0.474228 1.342503 0.877934 0.108 Uiso 1 1 calc GR . . . .
H9B H 0.377800 1.353577 1.006881 0.108 Uiso 1 1 calc GR . . . .
H9C H 0.227142 1.340111 0.880311 0.108 Uiso 1 1 calc GR . . . .
loop_
_atom_site_aniso_label
_atom_site_aniso_U_11
_atom_site_aniso_U_22
_atom_site_aniso_U_33
_atom_site_aniso_U_23
_atom_site_aniso_U_13
_atom_site_aniso_U_12
Cu1 0.01957(14) 0.02535(16) 0.02972(16) -0.00704(12) 0.00189(11) 0.00667(11)
Cu2 0.01843(14) 0.02688(16) 0.02724(16) -0.00622(12) 0.00401(11) 0.00493(11)
O1 0.0245(6) 0.0322(7) 0.0379(7) -0.0117(6) 0.0052(5) 0.0038(5)
O2 0.0270(6) 0.0302(7) 0.0422(7) -0.0119(6) 0.0006(6) 0.0092(5)
O3 0.0466(8) 0.0329(7) 0.0317(7) 0.0017(6) 0.0062(6) 0.0076(6)
N1 0.0230(7) 0.0351(8) 0.0299(6) -0.0018(6) 0.0044(6) 0.0091(6)
N2 0.0289(8) 0.0529(11) 0.0316(7) 0.0027(7) 0.0064(6) 0.0140(7)
N3 0.0543(12) 0.1001(18) 0.0316(9) -0.0020(11) 0.0059(9) 0.0282(12)
N4 0.0642(13) 0.0412(11) 0.0410(10) -0.0113(9) -0.0042(9) 0.0146(9)
C1 0.0285(8) 0.0243(8) 0.0270(8) -0.0006(7) 0.0043(7) 0.0059(6)
C2 0.0304(9) 0.0236(8) 0.0283(8) -0.0024(7) 0.0033(7) 0.0072(7)
C3 0.0334(10) 0.0355(11) 0.0473(12) -0.0102(9) 0.0122(9) 0.0023(8)
C4 0.0372(11) 0.0349(11) 0.0521(12) -0.0116(10) 0.0081(9) -0.0027(8)
C5 0.0436(11) 0.0267(9) 0.0313(9) -0.0036(7) 0.0004(8) 0.0094(8)
C6 0.0394(10) 0.0362(10) 0.0365(10) -0.0043(8) 0.0070(8) 0.0152(8)
C7 0.0292(9) 0.0318(10) 0.0386(10) -0.0033(8) 0.0049(8) 0.0084(7)
C8 0.0478(12) 0.0350(11) 0.0357(10) -0.0015(9) -0.0009(9) 0.0131(9)
C9 0.112(3) 0.0360(13) 0.0641(17) 0.0132(12) 0.0252(17) 0.0121(14)
loop_
_atom_type_symbol
_atom_type_description
_atom_type_scat_dispersion_real
_atom_type_scat_dispersion_imag
_atom_type_scat_source
C C 0.0033 0.0016 'International Tables Vol C Tables 4.2.6.8 and 6.1.1.4'
H H 0.0000 0.0000 'International Tables Vol C Tables 4.2.6.8 and 6.1.1.4'
Cu Cu 0.3201 1.2651 'International Tables Vol C Tables 4.2.6.8 and 6.1.1.4'
N N 0.0061 0.0033 'International Tables Vol C Tables 4.2.6.8 and 6.1.1.4'
O O 0.0106 0.0060 'International Tables Vol C Tables 4.2.6.8 and 6.1.1.4'
loop_
_geom_angle_atom_site_label_1
_geom_angle_atom_site_label_2
_geom_angle_atom_site_label_3
_geom_angle
_geom_angle_site_symmetry_1
_geom_angle_site_symmetry_3
O2 Cu1 O2 180.00(8) . 2_577
O2 Cu1 O3 91.00(5) 2_577 .
O2 Cu1 O3 89.00(5) . .
O2 Cu1 N1 89.40(6) . 1_455
O2 Cu1 N1 90.60(6) . 2_677
O2 Cu1 N1 89.40(6) 2_577 2_677
O2 Cu1 N1 90.60(6) 2_577 1_455
N1 Cu1 O3 96.08(6) 1_455 .
N1 Cu1 O3 83.92(6) 2_677 .
N1 Cu1 N1 180.0 2_677 1_455
O1 Cu2 O1 180.00(7) . 2_677
O1 Cu2 O3 93.46(5) 2_677 .
O1 Cu2 O3 86.54(5) . .
O1 Cu2 N1 91.34(6) . 2_677
O1 Cu2 N1 88.66(6) 2_677 2_677
O1 Cu2 N1 88.66(6) . .
O1 Cu2 N1 91.34(6) 2_677 .
N1 Cu2 O3 83.35(6) 2_677 .
N1 Cu2 O3 96.65(6) . .
N1 Cu2 N1 180.00(10) 2_677 .
C1 O1 Cu2 130.58(11) . .
C1 O2 Cu1 129.74(12) . .
Cu1 O3 Cu2 80.24(4) . .
C9 O3 Cu1 119.22(15) . .
C9 O3 Cu2 120.07(16) . .
Cu2 N1 Cu1 105.55(7) . 1_655
N2 N1 Cu1 118.40(13) . 1_655
N2 N1 Cu2 120.71(12) . .
N3 N2 N1 179.6(3) . .
O1 C1 C2 116.56(15) . .
O2 C1 O1 127.20(16) . .
O2 C1 C2 116.23(15) . .
C3 C2 C1 120.09(16) . .
C7 C2 C1 120.32(16) . .
C7 C2 C3 119.59(17) . .
C4 C3 C2 120.55(19) . .
C3 C4 C5 119.26(19) . .
C4 C5 C6 120.79(17) . .
C4 C5 C8 119.71(19) . .
C6 C5 C8 119.46(18) . .
C7 C6 C5 119.39(18) . .
C6 C7 C2 120.41(18) . .
N4 C8 C5 178.4(2) . .
loop_
_geom_bond_atom_site_label_1
_geom_bond_atom_site_label_2
_geom_bond_distance
_geom_bond_site_symmetry_2
Cu1 O2 1.9554(12) .
Cu1 O2 1.9554(12) 2_577
Cu1 O3 2.4538(14) .
Cu1 N1 1.9977(15) 1_455
Cu1 N1 1.9977(15) 2_677
Cu2 O1 1.9592(12) 2_677
Cu2 O1 1.9591(12) .
Cu2 O3 2.4786(15) .
Cu2 N1 1.9939(15) 2_677
Cu2 N1 1.9939(15) .
O1 C1 1.253(2) .
O2 C1 1.252(2) .
O3 C9 1.403(3) .
N1 N2 1.219(2) .
N2 N3 1.138(2) .
N4 C8 1.135(3) .
C1 C2 1.505(2) .
C2 C3 1.389(3) .
C2 C7 1.386(2) .
C3 C4 1.379(3) .
C4 C5 1.385(3) .
C5 C6 1.389(3) .
C5 C8 1.442(3) .
C6 C7 1.379(3) .
loop_
_refln_index_h
_refln_index_k
_refln_index_l
_refln_F_squared_meas
_refln_F_squared_sigma
-1 0 0 1329.91 12.16
-2 0 0 64.93 1.54
2 0 0 73.07 2.2
-3 0 0 225.76 3.42
3 0 0 225.7 5.05
3 0 0 225.76 4.63
-4 0 0 1500.72 14.25
4 0 0 1472.19 17.4
4 0 0 1455.98 18.13
5 0 0 39.32 2.98
5 0 0 33.64 2.95
6 0 0 568.95 11.95
7 0 0 7.49 2.5
8 0 0 125.48 6.84
8 -1 0 275.28 9.6
7 -1 0 28.55 3.43
6 -1 0 394.47 9.46
6 -1 0 408.05 9.58
5 -1 0 8.77 1.96
5 -1 0 16.12 2.26
-4 1 0 2809.44 24.41
4 -1 0 2762.83 29.32
-3 1 0 256.82 3.58
3 -1 0 257.24 5.28
2 -1 0 7.57 1.14
-2 1 0 4.22 0.69
1 -1 0 964.64 9.87
1 -1 0 966.62 8.95
0 -1 0 6215.76 56.7
-1 -1 0 315.24 4.09
2 1 0 1459.06 15.74
2 1 0 1505.52 14.67
-2 -1 0 1469.96 14.08
3 1 0 591.38 7.9
3 1 0 589.55 9.28
-3 -1 0 586.4 7.25
4 1 0 1510.71 19.04
4 1 0 1468.96 17
-4 -1 0 1516.57 15.24
5 1 0 111.02 5
6 1 0 301.94 8.9
7 1 0 4.15 2.64
8 1 0 87.98 6.5
8 -2 0 123.99 6.41
7 -2 0 1.18 1.79
6 -2 0 401.92 9.8
5 -2 0 220.34 6.65
4 -2 0 3656.23 31.67
4 -2 0 3707.41 37.41
3 -2 0 697.67 7.59
3 -2 0 693.52 9.96
2 -2 0 78.98 2.62
2 -2 0 80.35 1.99
1 -2 0 164.55 2.85
0 -2 0 2767.19 24.31
0 2 0 2769 25.51
-1 -2 0 381.81 5.51
1 2 0 387.27 6.07
2 2 0 529.78 8.26
2 2 0 547.33 6.32
-2 -2 0 547.92 7.31
-3 -2 0 49.64 2.27
3 2 0 46.61 2.89
3 2 0 49.48 2.09
-4 -2 0 862.63 10.82
5 2 0 17.25 2.72
6 2 0 211.55 7.98
7 2 0 -1.68 2.15
8 -3 0 204.91 8.01
7 -3 0 4.74 2.57
6 -3 0 2.29 1.99
5 -3 0 145.74 5.67
4 -3 0 2377.25 26.64
4 -3 0 2325.88 21.69
3 -3 0 193.38 4.89
3 -3 0 188.34 3.65
2 -3 0 441.66 7.03
2 -3 0 449.86 6.03
1 -3 0 265.72 4.54
0 -3 0 2179.4 20.67
-1 -3 0 487.56 7.12
1 3 0 486.79 7.77
2 3 0 1591.55 18.53
2 3 0 1582.1 15.25
-2 -3 0 1570.2 16.86
3 3 0 25.27 2.68
-3 -3 0 25.22 2.06
4 3 0 421.05 9.56
5 3 0 1.59 2.16
6 3 0 231.9 8.62
7 3 0 7.07 3.16
8 -4 0 131.89 7.3
7 -4 0 17.32 3.17
6 -4 0 324.41 9.13
5 -4 0 14.39 2.56
4 -4 0 1914.34 22.99
4 -4 0 1859.38 18.75
3 -4 0 9.76 1.55
3 -4 0 10.29 1.26
2 -4 0 595.42 8.95
2 -4 0 601.11 8.11
1 -4 0 690.34 9.15
0 -4 0 3307.78 30.81
-1 -4 0 3.75 1.37
1 4 0 -1.06 1.27
2 4 0 1654.28 20.19
-2 -4 0 1671.77 18.69
-3 -4 0 21.51 2.23
3 4 0 14.61 2.49
4 4 0 399.84 9.94
5 4 0 49.92 4.44
6 4 0 192.57 8.67
8 -5 0 210.09 9.19
7 -5 0 5.76 2.79
6 -5 0 433.26 10.91
5 -5 0 6.95 2.09
4 -5 0 1108.21 13.16
4 -5 0 1078.34 15.93
3 -5 0 52.93 2.73
3 -5 0 50.6 2.98
2 -5 0 1240.25 14.57
2 -5 0 1263.35 15.56
1 -5 0 198.67 4.9
0 -5 0 1036.13 13.44
-1 -5 0 271 6.43
1 5 0 274.39 7.31
2 5 0 1719.24 22
-2 -5 0 1722.83 20.26
-3 -5 0 198.24 5.74
3 5 0 201.8 6.89
4 5 0 613.96 13.2
5 5 0 5.91 3.05
6 5 0 129.46 7.48
8 -6 0 245.44 9.81
7 -6 0 1.79 2.59
6 -6 0 353.83 10.11
5 -6 0 43.61 3.59
4 -6 0 694.87 10.41
4 -6 0 694.97 12.48
3 -6 0 52.34 3.23
3 -6 0 52.52 2.93
2 -6 0 1365.73 16.62
2 -6 0 1360.14 17.11
1 -6 0 12.42 2.01
0 -6 0 1375.1 17.48
-1 -6 0 45.19 3.42
1 6 0 46.97 3.9
2 6 0 48.38 3.98
-2 -6 0 44.24 3.3
3 6 0 56 4.5
-3 -6 0 71.6 4.14
4 6 0 567.21 13.41
5 6 0 7.16 3.3
8 -7 0 158.84 8.33
7 -7 0 0.02 2.48
6 -7 0 49.56 4.35
5 -7 0 19.15 2.81
4 -7 0 562.7 9.91
4 -7 0 558.06 11.39
3 -7 0 34.18 2.83
3 -7 0 35.41 2.84
2 -7 0 487.24 9.38
2 -7 0 485.31 9.15
1 -7 0 10.02 2.14
0 -7 0 713.27 12.34
-1 -7 0 22.68 2.81
-2 -7 0 211.11 6.87
2 7 0 203.77 7.84
-3 -7 0 40.3 3.54
3 7 0 43.92 4.64
4 7 0 135.5 7.59
5 7 0 2.71 3.43
7 -8 0 24.56 4.08
6 -8 0 158.03 7.25
5 -8 0 15.99 2.83
4 -8 0 127.57 5.6
4 -8 0 124.3 5.05
3 -8 0 295.62 7.62
3 -8 0 294.38 7.81
2 -8 0 52.95 3.71
2 -8 0 64.03 3.65
1 -8 0 39.28 3.4
0 -8 0 517.7 11.06
-1 -8 0 0.81 2
-2 -8 0 184.6 7
-3 -8 0 4.1 2.29
3 8 0 1.2 3.43
4 8 0 114.93 7.49
7 -9 0 0.04 2.55
6 -9 0 112.62 6.49
5 -9 0 18.14 3.02
4 -9 0 570.06 12.47
4 -9 0 560.71 11.45
3 -9 0 11.11 2.52
3 -9 0 10.29 2.36
2 -9 0 116.13 5.48
2 -9 0 120.56 5
1 -9 0 -1.25 1.92
0 -9 0 355.73 9.86
-1 -9 0 0 2.11
-2 -9 0 185.56 7.87
6 -10 0 143.29 7.65
5 -10 0 5.89 2.58
4 -10 0 189.99 7.52
4 -10 0 206.33 7.47
3 -10 0 11.97 2.81
3 -10 0 11.71 2.59
2 -10 0 135.41 6.31
1 -10 0 1.03 2.3
0 -10 0 208.71 8.27
5 -11 0 5.64 2.92
4 -11 0 81.03 5.49
3 -11 1 3.86 2.64
4 -11 1 72.15 5.07
4 -11 1 66.57 4.98
5 -11 1 1.08 2.44
-1 -10 1 0.83 2.79
0 -10 1 159.38 7.17
1 -10 1 31.42 3.78
2 -10 1 325.15 9.52
3 -10 1 10.7 2.75
3 -10 1 14.44 2.55
4 -10 1 61.39 4.52
4 -10 1 59.74 4.8
5 -10 1 7.28 2.81
6 -10 1 110 6.93
-2 -9 1 228.35 8.23
-1 -9 1 0.83 2.34
0 -9 1 112.79 5.76
1 -9 1 0.94 1.99
2 -9 1 207.7 7.11
3 -9 1 -0.08 1.78
3 -9 1 0.44 1.9
4 -9 1 251.93 7.46
4 -9 1 250.72 8.22
5 -9 1 -0.89 1.97
6 -9 1 112.5 6.68
7 -9 1 8.95 3.21
4 8 -1 120.22 7.72
3 8 -1 0.01 3.14
-3 -8 1 5.13 2.35
-2 -8 1 177.51 6.83
-1 -8 1 18.48 2.9
0 -8 1 112.81 5.21
1 -8 1 8.63 2.22
2 -8 1 390.15 8.47
2 -8 1 380.72 8.82
3 -8 1 30.77 2.99
3 -8 1 26.22 2.79
4 -8 1 320.99 8.81
4 -8 1 321.59 7.82
5 -8 1 16.81 2.89
6 -8 1 28.65 3.77
7 -8 1 0.59 2.56
5 7 -1 13.65 4.01
4 7 -1 140.72 7.46
-3 -7 1 -1.53 1.74
3 7 -1 -0.85 2.53
2 7 -1 202.27 7.72
-2 -7 1 215.6 6.99
-1 -7 1 30.43 3.07
0 -7 1 380.49 8.71
1 -7 1 -2.57 1.53
1 -7 1 0.99 1.21
2 -7 1 514.27 9.56
2 -7 1 530.13 9.59
3 -7 1 3.45 1.82
3 -7 1 7.39 1.84
4 -7 1 591.6 9.97
4 -7 1 584.54 11.78
5 -7 1 -1.86 1.58
6 -7 1 204 7.93
7 -7 1 15.5 3.58
8 -7 1 168.55 8.75
6 6 -1 112.62 7.43
5 6 -1 6.07 3.18
-4 -6 1 299.52 7.95
4 6 -1 307.13 9.69
3 6 -1 59.96 4.58
-3 -6 1 68.34 3.97
-2 -6 1 634.79 11.45
2 6 -1 645.61 12.66
1 6 -1 68.38 4.56
-1 -6 1 74.06 3.89
0 -6 1 1379.45 15.44
0 -6 1 1400.67 17.58
1 -6 1 371.29 7.54
1 -6 1 364.54 6.76
2 -6 1 485.02 8.52
2 -6 1 478.99 8.64
3 -6 1 219.48 6.14
3 -6 1 222.09 5.44
4 -6 1 667.23 12.31
4 -6 1 657.65 9.8
5 -6 1 8.59 2.34
6 -6 1 483.2 11.88
7 -6 1 19.33 3.66
8 -6 1 68.69 6.1
6 5 -1 108.75 6.88
5 5 -1 0.39 2.69
-4 -5 1 409.42 8.56
4 5 -1 402.68 10.42
-3 -5 1 2.37 1.53
3 5 -1 -0.19 1.98
-2 -5 1 550.36 9.75
2 5 -1 556.55 10.81
1 5 -1 110.37 4.71
-1 -5 1 103.62 4.17
0 -5 1 3775.93 35.8
0 -5 1 3806.24 35.15
1 -5 1 104.63 3.59
1 -5 1 103.23 3.24
2 -5 1 1104.3 14.25
2 -5 1 1121.89 13.27
3 -5 1 398.54 8.16
3 -5 1 413.82 6.78
4 -5 1 1488.55 20.01
4 -5 1 1467.87 15.91
5 -5 1 45.8 3.63
6 -5 1 478.37 11.7
7 -5 1 22.48 3.71
8 -5 1 51.39 5.42
7 4 -1 9.52 3.69
6 4 -1 250.44 9.5
5 4 -1 1.62 2.3
-4 -4 1 270.16 6.49
4 4 -1 266.02 8.05
3 4 -1 35.62 3.17
-3 -4 1 47.1 2.97
-2 -4 1 1467.79 17.13
2 4 -1 1491.35 18.43
-1 -4 1 48.23 2.62
1 4 -1 43.15 2.9
0 -4 1 892.4 11.12
1 -4 1 8.66 1.35
1 -4 1 8.07 1.12
2 -4 1 467.54 7.69
2 -4 1 481.06 6.84
3 -4 1 81.45 2.58
3 -4 1 86.88 3.55
4 -4 1 370.24 5.67
4 -4 1 376.69 8.41
5 -4 1 187.73 6.44
6 -4 1 689.4 13.84
7 -4 1 68.26 5.19
8 -4 1 56.34 5.52
7 3 -1 19.36 4.13
6 3 -1 230.26 8.62
5 3 -1 55.14 4.35
4 3 -1 855.19 14.12
-4 -3 1 851.22 11.78
3 3 -1 25.84 2.55
-3 -3 1 32.18 2.39
2 3 -1 1129.69 14.35
-2 -3 1 1127.7 13.17
-1 -3 1 65.94 2.56
0 -3 1 1343.2 13.92
0 -3 1 1325.28 13.18
1 -3 1 499.19 6.82
1 -3 1 507.56 6.53
2 -3 1 2399.85 24.48
2 -3 1 2440.74 21.79
3 -3 1 44.1 2.7
3 -3 1 46.89 1.69
4 -3 1 446.59 5.64
4 -3 1 452.05 8.92
5 -3 1 88.18 4.52
6 -3 1 338.96 9.34
7 -3 1 -0.29 2.37
8 -3 1 80.98 5.33
7 2 -1 -2.33 2.41
6 2 -1 102.29 5.77
5 2 -1 125.08 5.51
-4 -2 1 1145.92 13.51
3 2 -1 37.17 2.57
3 2 -1 31.53 1.6
-3 -2 1 30.29 2
-2 -2 1 75.63 2.58
2 2 -1 71.4 2.82
1 2 -1 18.04 1.5
-1 -2 1 20.3 1.53
1 -2 1 442.42 5.95
1 -2 1 446.49 5.22
2 -2 1 5469.46 49.47
2 -2 1 5474.4 55.68
3 -2 1 45.08 1.32
3 -2 1 47.91 2.66
4 -2 1 487.88 9.1
5 -2 1 9.42 2.13
6 -2 1 593.07 12.32
7 -2 1 4.11 2.01
8 -2 1 212.06 8.26
8 1 -1 96.68 6.44
7 1 -1 5.28 2.53
6 1 -1 448.8 10.85
5 1 -1 80.07 4.33
4 1 -1 1867.42 19.88
4 1 -1 1846.51 21.9
-4 -1 1 1873.26 18.55
-3 -1 1 525.5 7.03
3 1 -1 538.66 7.09
3 1 -1 532.27 8.52
-2 -1 1 1497.36 14.56
2 1 -1 1515.76 15.83
-1 -1 1 93.2 2.21
1 1 -1 94.35 2.27
0 -1 1 8120.36 74.44
1 -1 1 415.37 4.39
2 -1 1 4328.74 42.35
2 -1 1 4281.57 39.5
3 -1 1 178.55 4.48
4 -1 1 682.95 10.77
5 -1 1 -1.32 1.27
5 -1 1 6.3 1.86
6 -1 1 702.1 13.17
6 -1 1 707.49 13.18
7 -1 1 1.07 1.73
8 -1 1 165.61 7.64
8 0 -1 225.15 8.92
7 0 -1 7.6 2.32
6 0 -1 443.21 10.3
5 0 -1 1.55 1.5
5 0 -1 2.46 1.6
-4 0 1 2074.47 19.39
4 0 -1 2016.92 22.18
4 0 -1 2038.08 22.86
3 0 -1 595.1 8.12
3 0 -1 581.7 8.63
-3 0 1 572.16 6.91
2 0 -1 1915.13 18.34
-2 0 1 1868.86 17.01
-1 0 1 988.44 9.33
0 0 1 3674.89 35.62
1 0 1 190.09 3.13
-1 0 -1 192.75 2.25
2 0 1 3833.2 35.23
-2 0 -1 3776.71 33.32
2 0 1 3838.91 34.82
3 0 1 1305.84 15.08
3 0 1 1288.84 15.5
-3 0 -1 1333.58 12.05
4 0 1 1612.96 19.56
4 0 1 1587.68 18.81
5 0 1 70.14 3.93
5 0 1 66.77 4.13
6 0 1 471.78 11.02
7 0 1 9.08 2.65
8 0 1 92.46 6.15
7 -1 -1 7.79 2.28
6 -1 -1 254.08 7.35
6 -1 -1 247.06 7.3
5 -1 -1 70.58 3.84
5 -1 -1 69.71 3.66
-4 1 1 3437.85 30.11
4 -1 -1 3390.22 34.42
-3 1 1 48.95 1.81
3 -1 -1 47.17 2.31
-2 1 1 753.47 7.95
1 -1 -1 471.65 5.35
0 -1 -1 3808.67 36.49
0 1 1 3734.15 36.95
1 1 1 622.16 7.03
-1 -1 -1 617.52 6.55
1 1 1 606.81 7.41
2 1 1 787.64 9.15
2 1 1 777.97 10.01
-2 -1 -1 796.39 8.42
3 1 1 122.79 3.45
-3 -1 -1 119.7 2.76
3 1 1 123.14 4.09
4 1 1 886.24 11.9
4 1 1 880.42 13.52
5 1 1 134.87 5.55
6 1 1 84.18 5.02
7 1 1 -1.25 2.2
8 -2 -1 326.84 10.07
7 -2 -1 3.49 1.98
6 -2 -1 25.1 3.08
5 -2 -1 204.73 6.26
4 -2 -1 2079.57 23.53
4 -2 -1 2079.3 19.79
3 -2 -1 240.01 4.14
3 -2 -1 238.98 5.21
2 -2 -1 4133.7 35.47
1 -2 -1 508.82 6.3
0 -2 -1 90.31 2.38
0 2 1 94.16 2.66
1 2 1 160.93 3.82
-1 -2 -1 163.88 3.31
1 2 1 166.48 3.15
2 2 1 1953.49 18.94
-2 -2 -1 1898.72 18.49
2 2 1 1908.06 20.62
-3 -2 -1 36.33 2
3 2 1 34.34 2.2
3 2 1 31.08 2.65
4 2 1 922.07 14.62
5 2 1 11.94 2.58
6 2 1 301.24 9.48
7 2 1 -1.83 2.34
8 -3 -1 241.08 8.76
7 -3 -1 16.2 3.12
6 -3 -1 438.91 10.51
5 -3 -1 16.89 2.43
4 -3 -1 940.13 11.02
4 -3 -1 941.03 13.68
3 -3 -1 1270.6 15.58
3 -3 -1 1273.17 13.57
2 -3 -1 1021.75 11.36
1 -3 -1 114.24 3.03
0 -3 -1 1175.74 12.68
0 3 1 1155.45 13.45
-1 -3 -1 308.41 5.45
1 3 1 298.68 4.65
1 3 1 302.58 5.99
2 3 1 2103.96 20.49
-2 -3 -1 2090.1 21.1
2 3 1 2092.55 23.12
3 3 1 32.54 2.85
-3 -3 -1 31.04 2.33
4 3 1 366.26 9.12
5 3 1 2.64 2.3
6 3 1 364.54 10.98
7 3 1 -0.38 2.93
8 -4 -1 316.99 10.73
7 -4 -1 1.39 2.33
6 -4 -1 424.82 10.42
5 -4 -1 23.02 2.64
4 -4 -1 1494.68 19.11
4 -4 -1 1455.5 16.06
3 -4 -1 120.83 3.58
2 -4 -1 1842.96 18.91
1 -4 -1 405.26 6.71
0 -4 -1 4020.07 36.69
-1 -4 -1 4.08 1.44
1 4 1 4.03 1.68
2 4 1 1714.89 20.85
2 4 1 1731.79 17.48
-2 -4 -1 1666.79 18.96
-3 -4 -1 58.33 3.3
3 4 1 55.87 4.19
4 4 1 344.95 9.34
5 4 1 0.98 2.41
6 4 1 262.75 10.14
8 -5 -1 183.95 8.7
7 -5 -1 13.02 3.05
6 -5 -1 608.64 13.15
5 -5 -1 61.85 3.05
5 -5 -1 62.14 3.94
4 -5 -1 686.54 11.94
4 -5 -1 686.92 10.07
3 -5 -1 70.9 3.27
2 -5 -1 2149.71 22.38
1 -5 -1 65.24 3.08
0 -5 -1 967.21 12.89
-1 -5 -1 102.19 4.17
1 5 1 101.4 4.78
-2 -5 -1 492.89 9.13
2 5 1 492.56 10.28
-3 -5 -1 48.31 3.42
3 5 1 43.65 3.74
4 5 1 377.75 10.25
5 5 1 7.78 3.31
6 5 1 169.86 8.6
8 -6 -1 267.12 10.35
7 -6 -1 2.56 2.59
6 -6 -1 284.19 9.02
5 -6 -1 8.86 2.28
5 -6 -1 10.78 1.89
4 -6 -1 421.15 8.14
4 -6 -1 438.12 9.6
3 -6 -1 16.94 2.08
2 -6 -1 1403.12 17.27
1 -6 -1 281.5 6.69
0 -6 -1 439.57 8.74
1 6 1 169.18 6.65
-1 -6 -1 161.42 5.45
-2 -6 -1 536.3 10.33
2 6 1 525.42 11.51
-3 -6 -1 32.18 3.17
3 6 1 33.53 3.85
4 6 1 146.16 7.04
5 6 1 12.09 3.74
8 -7 -1 121.7 7.46
7 -7 -1 3.09 2.45
6 -7 -1 173.67 7.26
5 -7 -1 31.48 3.28
5 -7 -1 38.57 2.91
4 -7 -1 207.19 6.05
4 -7 -1 198.97 6.59
3 -7 -1 76.6 4.02
3 -7 -1 79.33 4.16
2 -7 -1 163.02 5.5
1 -7 -1 20.47 2.62
0 -7 -1 566.45 10.88
-1 -7 -1 0.47 1.86
-2 -7 -1 239.17 7.49
2 7 1 231.47 8.41
3 7 1 16.36 3.46
-3 -7 -1 20.69 3.05
4 7 1 195.95 8.96
5 7 1 1.51 3.5
7 -8 -1 -1.52 2.53
6 -8 -1 110.27 6.21
5 -8 -1 1.26 2.07
5 -8 -1 1.14 1.83
4 -8 -1 1067.6 17.28
4 -8 -1 1035.81 15.83
3 -8 -1 162.17 5.85
3 -8 -1 178.96 6.12
2 -8 -1 165.86 5.96
1 -8 -1 49.32 3.73
0 -8 -1 217.22 7.19
-1 -8 -1 3.85 2.23
-2 -8 -1 301.88 9.11
-3 -8 -1 3.88 2.46
3 8 1 -0.93 3.05
4 8 1 106.18 7.72
7 -9 -1 2.33 2.96
6 -9 -1 122.95 6.67
5 -9 -1 9.35 2.57
5 -9 -1 11.16 2.64
4 -9 -1 192.78 7.17
4 -9 -1 204.25 6.88
3 -9 -1 34.99 3.33
3 -9 -1 32.96 3.57
2 -9 -1 366.58 9.64
2 -9 -1 376.86 8.95
1 -9 -1 5.19 2.32
0 -9 -1 391.85 10.48
-1 -9 -1 7.08 2.84
-2 -9 -1 171.59 7.47
6 -10 -1 63.88 5.56
5 -10 -1 -1.97 2
5 -10 -1 1.08 2.17
4 -10 -1 169.37 7.16
4 -10 -1 174.68 7.02
3 -10 -1 30.04 3.81
3 -10 -1 28.73 3.32
2 -10 -1 182.77 7.38
1 -10 -1 3.08 2.5
0 -10 -1 155.44 7.31
5 -11 -1 -0.43 2.48
4 -11 -1 68.4 5.17
5 -12 2 -1.34 2.77
2 -11 2 173.22 7.5
3 -11 2 30.84 3.78
4 -11 2 78.43 5.28
4 -11 2 73.55 5.45
5 -11 2 1.43 2.75
6 -11 2 61.67 5.87
-1 -10 2 1.02 2.49
0 -10 2 82.55 5.32
1 -10 2 10.19 3
2 -10 2 60.19 4.63
3 -10 2 29.53 3.44
3 -10 2 24.22 3.12
4 -10 2 393.1 10.1
4 -10 2 409.55 10.92
5 -10 2 24.86 3.8
6 -10 2 105.69 6.88
-3 -9 2 0.3 2.47
-2 -9 2 168.89 7.14
-1 -9 2 -0.93 2.04
0 -9 2 137.01 6.22
1 -9 2 2.73 2.29
2 -9 2 138.14 5.78
3 -9 2 92.52 4.77
3 -9 2 90.88 4.91
4 -9 2 25.35 3.07
4 -9 2 23.84 3.16
5 -9 2 10.69 2.76
6 -9 2 113.34 6.72
7 -9 2 11.27 3.44
4 8 -2 21.12 4.28
-3 -8 2 41.63 3.82
-2 -8 2 290.12 8.49
-1 -8 2 115.74 5.59
0 -8 2 307.77 8.4
1 -8 2 5.48 2.1
2 -8 2 356.06 8.12
2 -8 2 338.73 8.26
3 -8 2 2.56 1.85
3 -8 2 1.93 1.83
4 -8 2 301.75 8.69
4 -8 2 312.13 7.49
5 -8 2 -0.44 2.07
6 -8 2 85.21 5.65
7 -8 2 2.68 2.71
5 7 -2 3.25 3.38
-4 -7 2 258.28 7.93
4 7 -2 245.03 9.21
3 7 -2 7.94 3.11
-3 -7 2 12.41 2.41
2 7 -2 20.49 3.65
-2 -7 2 25.6 2.92
-1 -7 2 90.54 4.6
0 -7 2 592.35 10.98
1 -7 2 7.38 2.03
1 -7 2 7.74 1.57
2 -7 2 547.61 9.78
2 -7 2 542.77 9.86
3 -7 2 96.05 4.13
3 -7 2 96.38 4.63
4 -7 2 555.17 11.48
4 -7 2 543.45 9.44
5 -7 2 -2.52 1.59
6 -7 2 337.32 10.33
7 -7 2 7.17 2.85
8 -7 2 74.09 6.25
6 6 -2 133.42 7.85
5 6 -2 -1.96 2.87
-4 -6 2 231.72 7.07
4 6 -2 240.33 8.36
-3 -6 2 100.19 4.69
3 6 -2 95.74 5.33
2 6 -2 627.21 12.25
-2 -6 2 605.3 10.99
-1 -6 2 32.47 2.89
0 -6 2 2297.07 22.95
0 -6 2 2249.11 24.83
1 -6 2 78.06 3.16
1 -6 2 78.58 3.67
2 -6 2 401.96 7.91
2 -6 2 392.98 7.43
3 -6 2 456.01 7.94
3 -6 2 472.06 9.41
4 -6 2 681.5 12.67
4 -6 2 697.22 9.91
5 -6 2 26.7 3.25
6 -6 2 486.58 12.07
7 -6 2 6.11 2.87
8 -6 2 69.87 6.22
6 5 -2 109.88 6.84
5 5 -2 10.65 3
4 5 -2 452.73 10.83
-4 -5 2 445.53 9.3
-3 -5 2 13.79 2.13
3 5 -2 12.3 2.78
2 5 -2 461.7 9.7
-2 -5 2 472.22 8.86
-1 -5 2 181.99 5.34
0 -5 2 2100.82 22.3
0 -5 2 2092.64 20.8
1 -5 2 368.85 6.43
1 -5 2 370.38 6.84
2 -5 2 724.71 10.81
2 -5 2 735.93 9.88
3 -5 2 110.58 3.39
3 -5 2 103.23 4.19
4 -5 2 258.97 7.15
5 -5 2 157.97 6.41
6 -5 2 676.86 14.28
7 -5 2 84.26 5.8
8 -5 2 82.34 6.53
7 4 -2 1.58 3.14
6 4 -2 103.05 6.58
5 4 -2 36.59 4.12
-4 -4 2 764.07 11.91
4 4 -2 783.58 13.98
3 4 -2 276.13 7.21
-3 -4 2 280.28 6.46
2 4 -2 792.7 12.01
-2 -4 2 781.92 11.17
1 4 -2 403.85 7.58
-1 -4 2 406.61 7.2
0 -4 2 446.56 7.25
0 -4 2 459.66 6.11
1 -4 2 929.13 11.1
1 -4 2 916.47 11.19
2 -4 2 2143.54 22.97
2 -4 2 2175.69 20.63
3 -4 2 442.01 6.15
3 -4 2 435.06 8.28
4 -4 2 594.35 11.06
5 -4 2 295.63 8.14
6 -4 2 35.18 3.83
7 -4 2 34.55 4.22
8 -4 2 77 6.25
7 3 -2 2.39 3.09
6 3 -2 65.51 4.97
5 3 -2 2.66 2.05
4 3 -2 773.54 13.15
-4 -3 2 782.33 11.27
3 3 -2 641.02 10.7
-3 -3 2 645.12 9.69
-2 -3 2 340.48 6.25
2 3 -2 338.77 6.69
1 3 -2 367.58 6.43
-1 -3 2 356.51 6.02
0 -3 2 611.03 7.14
0 -3 2 601.39 7.98
1 -3 2 1125.44 11.79
1 -3 2 1126.55 12.56
2 -3 2 4793.7 42.08
2 -3 2 4855.96 45.11
3 -3 2 97.1 3.72
3 -3 2 97.43 2.19
4 -3 2 425.42 8.8
5 -3 2 87.73 4.68
6 -3 2 768.57 14.79
7 -3 2 3.81 2.62
8 -3 2 97.1 5.93
7 2 -2 5.31 2.9
6 2 -2 274.54 8.69
5 2 -2 0.19 1.91
-4 -2 2 1077.42 13.26
4 2 -2 1077.42 15.51
-3 -2 2 11.25 1.48
3 2 -2 9.23 1.58
3 2 -2 12.27 0.94
-2 -2 2 4301.31 37.95
2 2 -2 4275.45 39.43
-1 -2 2 4322.64 38.1
1 2 -2 4491.96 39.31
0 -2 2 16.94 1.17
0 -2 2 14.39 1.16
1 -2 2 9999 88.51
1 -2 2 9981.12 99.52
2 -2 2 4439.57 39.49
2 -2 2 4426.51 41.39
3 -2 2 367.15 7.06
4 -2 2 805.8 12.52
5 -2 2 76.16 4.42
6 -2 2 565.37 12.17
6 -2 2 563.98 11.51
7 -2 2 -3.53 2.1
7 -2 2 1.46 1.79
8 -2 2 192.25 8.05
8 1 -2 158.61 8.06
7 1 -2 11.46 3.02
6 1 -2 457.19 10.78
5 1 -2 119.66 5.1
-4 -1 2 766.61 9.84
4 1 -2 766.04 11.84
4 1 -2 749.05 10.05
3 1 -2 388.77 5.77
-3 -1 2 391.73 6.03
3 1 -2 398.34 7.02
-2 -1 2 4199.81 36.46
2 1 -2 4232.47 37.94
-1 -1 2 3297.36 28.75
1 1 -2 3342.3 29.45
0 -1 2 9583.88 89.16
0 -1 2 9220.06 84.72
1 -1 2 1742.7 16.46
1 -1 2 1744.77 17.43
2 -1 2 3167.3 30.53
3 -1 2 1.1 1.15
4 -1 2 1110.47 15.24
5 -1 2 0.05 1.51
5 -1 2 -0.58 1.65
6 -1 2 472.32 10.7
6 -1 2 460.86 10.81
7 -1 2 1.38 2.05
8 -1 2 110.07 6.4
8 0 -2 315.41 10.3
7 0 -2 -0.46 1.93
6 0 -2 529.15 11.3
5 0 -2 82.57 3.91
5 0 -2 90.71 4.4
4 0 -2 358.57 6.8
4 0 -2 356.98 7.28
-4 0 2 351.95 5.83
3 0 -2 176.66 3.85
3 0 -2 173.05 4.2
-3 0 2 171.92 3.6
-2 0 2 7140.3 64.72
2 0 -2 7247.08 69.57
-1 0 2 324.13 4.38
0 0 2 1691.48 16.17
-1 0 -2 262.8 3.18
1 0 2 259.51 3.9
1 0 2 257.77 4.36
-2 0 -2 659.18 6.48
2 0 2 664.01 8.76
2 0 2 654.47 8.65
-3 0 -2 9.96 0.7
3 0 2 8.21 1.39
3 0 2 9.47 1.56
4 0 2 1618.74 19.98
4 0 2 1598.88 19.31
5 0 2 63.48 3.81
5 0 2 68.7 4.17
6 0 2 141.95 6.24
7 0 2 -0.49 2.02
8 0 2 102.8 6.55
8 -1 -2 142.29 7.07
7 -1 -2 38.31 3.75
6 -1 -2 413.73 9.49
5 -1 -2 220 6.16
5 -1 -2 226.84 6.37
4 -1 -2 1138.04 14.63
-4 1 2 1143.24 12.66
-3 1 2 543.91 7.16
-2 1 2 2221.89 20.37
-1 1 2 -1.53 0.67
0 -1 -2 1669.55 15.39
0 1 2 1657.65 16.39
1 1 2 300.48 4.75
1 1 2 292.28 4.79
-1 -1 -2 301.38 4.15
2 1 2 634.29 8.92
2 1 2 639.32 8.48
-2 -1 -2 633.38 7.11
3 1 2 41.45 2.67
3 1 2 41.57 2.58
-3 -1 -2 41.67 1.77
4 1 2 1295.28 15.96
4 1 2 1251.64 17.36
5 1 2 1.13 1.7
6 1 2 240.12 8.37
7 1 2 0.69 2.38
8 -2 -2 200.61 7.93
7 -2 -2 7.01 2.29
6 -2 -2 207.14 6.96
5 -2 -2 1.52 1.02
5 -2 -2 -0.11 1.37
4 -2 -2 1203.05 13.46
4 -2 -2 1218.37 15.69
3 -2 -2 1011.47 11.57
2 -2 -2 452.77 6.43
1 -2 -2 469.01 6.41
0 2 2 1610.88 16.5
0 2 2 1664.88 16.38
0 -2 -2 1633.13 15.92
-1 -2 -2 788.27 9.18
1 2 2 808.2 9.66
1 2 2 804.22 10.12
2 2 2 1143.51 13.08
2 2 2 1149.7 14.22
-2 -2 -2 1127.03 12.23
-3 -2 -2 10.01 1.39
3 2 2 11.2 1.71
3 2 2 11.29 1.9
4 2 2 734.79 12.92
5 2 2 25.51 3.15
6 2 2 193.83 7.93
7 2 2 54.86 5.4
8 -3 -2 196.47 7.87
7 -3 -2 7.57 2.6
6 -3 -2 502.83 11.29
5 -3 -2 7.05 1.88
5 -3 -2 4.85 1.29
4 -3 -2 1665.85 17.76
4 -3 -2 1680.33 20.28
3 -3 -2 19.34 1.62
2 -3 -2 1335.71 14.55
1 -3 -2 786.24 9.81
0 -3 -2 8961.87 79
0 3 2 8858.57 79.65
1 3 2 -1.03 1.11
1 3 2 0.04 0.86
-1 -3 -2 -2.47 0.81
2 3 2 1059.01 14.33
-2 -3 -2 1047.37 12.58
2 3 2 1048.46 12.49
-3 -3 -2 34.37 2.42
3 3 2 32.55 2.53
3 3 2 31.79 3.08
4 3 2 282.61 8.07
5 3 2 1.62 2.17
6 3 2 304.86 10.34
7 3 2 -1.67 2.98
8 -4 -2 161.09 7.93
7 -4 -2 26.44 3.55
6 -4 -2 758.92 14.36
5 -4 -2 88.96 4.58
5 -4 -2 97.33 3.63
4 -4 -2 988.94 12.69
4 -4 -2 1000.33 14.68
3 -4 -2 16.01 1.82
2 -4 -2 1352.39 15.43
1 -4 -2 2.21 1.13
0 -4 -2 1325.17 15.28
1 4 2 91.21 4.19
-1 -4 -2 98.19 3.63
2 4 2 2465.33 24.63
2 4 2 2422.56 27.34
-2 -4 -2 2428.72 25.08
-3 -4 -2 872.9 12.39
3 4 2 889.34 14.68
4 4 2 595.34 12.73
5 4 2 44.28 4.61
6 4 2 132.69 7.5
8 -5 -2 338.22 11.18
7 -5 -2 2.01 2.44
6 -5 -2 501 11.68
5 -5 -2 135.09 5.56
5 -5 -2 139.09 4.55
4 -5 -2 902.6 12.51
3 -5 -2 63.54 3.24
2 -5 -2 1541.27 17.89
1 -5 -2 124.82 4.18
0 -5 -2 553.16 9.36
1 5 2 132.32 5.52
-1 -5 -2 123.91 4.44
-2 -5 -2 184.57 5.61
2 5 2 176.74 6.33
3 5 2 32.52 3.71
-3 -5 -2 28.17 2.83
4 5 2 429.15 11.14
5 5 2 -5.25 2.36
6 5 2 60.73 6.07
8 -6 -2 138.16 7.73
7 -6 -2 18.57 3.48
6 -6 -2 82.16 5.02
5 -6 -2 9.09 1.87
5 -6 -2 12.65 2.41
4 -6 -2 412.65 8.3
3 -6 -2 10.76 1.98
2 -6 -2 1739.17 20.47
1 -6 -2 4.73 1.85
0 -6 -2 207.37 6.01
-1 -6 -2 -1.65 1.57
1 6 2 4.71 2.66
-2 -6 -2 294.24 7.69
2 6 2 282.12 8.5
3 6 2 39.65 4.34
-3 -6 -2 36.6 3.26
4 6 2 276.39 9.55
5 6 2 -3.23 3.15
8 -7 -2 85.12 6.52
7 -7 -2 2.11 2.42
6 -7 -2 301.43 9.45
5 -7 -2 6.24 1.9
5 -7 -2 6.1 2.22
4 -7 -2 189.13 5.93
4 -7 -2 187.18 6.5
3 -7 -2 61.19 3.84
2 -7 -2 331.38 7.97
1 -7 -2 -0.2 1.67
0 -7 -2 534.67 10.71
-1 -7 -2 2.4 2.06
-2 -7 -2 283.46 8.24
2 7 2 267.96 9.31
3 7 2 -0.03 3.02
4 7 2 161.19 8.16
7 -8 -2 1.88 2.62
6 -8 -2 258.71 9.17
5 -8 -2 2.68 2
5 -8 -2 7.56 2.29
4 -8 -2 349.19 9.28
4 -8 -2 364.64 8.95
3 -8 -2 12.93 2.63
2 -8 -2 266.55 7.72
1 -8 -2 41.66 3.59
0 -8 -2 752.8 14
-1 -8 -2 2.51 2.16
-2 -8 -2 237.38 8.06
3 8 2 67.23 6.35
4 8 2 186.85 9.39
7 -9 -2 -0.9 2.54
6 -9 -2 160.36 7.65
5 -9 -2 -0.73 2.08
5 -9 -2 5.72 2.5
4 -9 -2 305.16 9.12
4 -9 -2 313.63 8.87
3 -9 -2 24.87 3.25
2 -9 -2 221.47 7.76
1 -9 -2 -0.11 2.07
0 -9 -2 355.28 10.01
-1 -9 -2 10.6 2.97
-2 -9 -2 -0.8 2.47
6 -10 -2 149.21 7.6
5 -10 -2 10.27 3.07
5 -10 -2 6.59 2.77
4 -10 -2 140.15 6.44
4 -10 -2 133.55 6.37
3 -10 -2 -0.44 1.93
3 -10 -2 0.06 2.53
2 -10 -2 176.31 7.45
1 -10 -2 -0.02 2.54
5 -11 -2 -0.08 2.57
4 -11 -2 69.26 5.28
5 -12 3 1.99 3.05
2 -11 3 121.14 6.35
3 -11 3 2.51 2.61
4 -11 3 85.1 5.81
5 -11 3 0.27 2.72
6 -11 3 79.47 6.2
-1 -10 3 0.49 2.34
0 -10 3 85.99 5.36
1 -10 3 7.3 2.59
2 -10 3 108.8 5.73
3 -10 3 14.51 3
4 -10 3 15.8 3.15
5 -10 3 10.09 3.09
6 -10 3 143.96 7.74
-3 -9 3 7.04 2.71
-2 -9 3 101.64 5.62
-1 -9 3 -0.21 1.98
0 -9 3 127.55 5.9
1 -9 3 2.78 2.13
2 -9 3 321.64 8.59
3 -9 3 -0.94 1.63
3 -9 3 0.06 1.93
4 -9 3 78.75 5.02
5 -9 3 0.38 2.16
6 -9 3 72.02 5.45
7 -9 3 4.83 3.3
4 8 -3 122.72 7.39
-4 -8 3 139.69 6.41
-3 -8 3 2.05 2.19
3 8 -3 -2.41 3.03
-2 -8 3 34.55 3.53
-1 -8 3 59.22 4.06
0 -8 3 51.67 3.99
1 -8 3 0.49 1.76
2 -8 3 982.37 14.78
2 -8 3 977.26 14.87
3 -8 3 0.69 1.73
3 -8 3 5.16 1.95
4 -8 3 122.16 5.65
5 -8 3 36.1 3.87
6 -8 3 239.55 9.04
7 -8 3 2.49 2.71
5 7 -3 1.69 3.14
4 7 -3 122.07 6.66
-4 -7 3 113.78 5.55
3 7 -3 40.77 4.23
-3 -7 3 40.22 3.64
2 7 -3 881.6 16.11
-2 -7 3 874.77 14.6
-1 -7 3 61.63 4.03
0 -7 3 361.59 8.45
1 -7 3 43.31 3.28
1 -7 3 42.07 2.9
2 -7 3 405.04 8.37
2 -7 3 402.95 8.3
3 -7 3 3.96 1.74
3 -7 3 1.88 1.74
4 -7 3 228.26 7.32
5 -7 3 7.3 2.51
6 -7 3 348 10.61
7 -7 3 1.23 2.57
8 -7 3 73.46 6.61
6 6 -3 52.23 5.55
5 6 -3 -4.39 2.6
-4 -6 3 207.81 6.67
4 6 -3 200.03 7.76
3 6 -3 15.47 2.99
-3 -6 3 13.6 2.31
-2 -6 3 477.23 9.71
2 6 -3 489.01 10.68
-1 -6 3 4.83 1.85
0 -6 3 1633.83 19.69
1 -6 3 137.49 4.13
1 -6 3 137.16 4.62
2 -6 3 727.79 11.3
2 -6 3 714.82 10.67
3 -6 3 26.54 2.29
3 -6 3 22.48 2.61
4 -6 3 603.73 11.97
5 -6 3 16.64 2.89
6 -6 3 336.17 10.06
7 -6 3 1.88 2.6
8 -6 3 55.67 5.86
6 5 -3 200.23 8.69
5 5 -3 3.27 2.45
-4 -5 3 194.72 6.13
4 5 -3 190.95 6.95
-3 -5 3 63.19 3.76
3 5 -3 58.26 4.16
-2 -5 3 479.91 8.99
2 5 -3 475.68 9.68
-1 -5 3 4.1 1.56
1 5 -3 2.07 2.04
0 -5 3 661.02 8.54
0 -5 3 646.88 9.99
1 -5 3 12.01 1.54
1 -5 3 13.23 1.71
2 -5 3 1009.88 12.35
2 -5 3 1007.55 13.63
3 -5 3 114.54 4.54
3 -5 3 123.74 3.56
4 -5 3 333.72 8.26
5 -5 3 2.47 2.13
6 -5 3 145.46 6.61
7 -5 3 4 2.72
8 -5 3 74.43 6.42
7 4 -3 12.36 3.84
6 4 -3 83.63 6.04
5 4 -3 43.65 4.07
-4 -4 3 787.69 12.22
4 4 -3 797.55 13.95
-3 -4 3 289.72 6.71
3 4 -3 287.82 7.27
-2 -4 3 754.6 11.05
2 4 -3 732.5 11.37
1 4 -3 177.42 5.04
-1 -4 3 176.19 4.69
0 -4 3 140.57 3.91
0 -4 3 145.48 3.26
1 -4 3 75.75 2.77
1 -4 3 70.23 2.77
2 -4 3 1692.03 19.34
2 -4 3 1711.72 17.06
3 -4 3 208.53 3.92
3 -4 3 206.19 5.68
4 -4 3 491.7 9.93
5 -4 3 51.96 3.88
6 -4 3 438.63 11.31
7 -4 3 -4.08 2.25
8 -4 3 51.9 4.6
8 -4 3 54.44 5.76
7 3 -3 2.07 3.05
6 3 -3 94.92 5.64
5 3 -3 1.01 1.93
4 3 -3 636.03 11.55
-4 -3 3 652.94 10.28
3 3 -3 182.56 5.42
-3 -3 3 188.98 4.94
-2 -3 3 1374.5 15.81
2 3 -3 1374.94 16.17
1 3 -3 248.27 5.05
-1 -3 3 249.54 5.02
0 -3 3 757.97 9.42
0 -3 3 778.32 8.95
1 -3 3 564.27 7.97
1 -3 3 552.68 7.17
2 -3 3 1732.85 19.32
2 -3 3 1737.39 16.24
3 -3 3 -0.36 0.55
3 -3 3 1.4 1.14
4 -3 3 532.72 10.26
5 -3 3 41.21 3.49
6 -3 3 524.94 12.12
7 -3 3 1.2 1.89
7 -3 3 0.38 2.36
8 -3 3 165.63 7.51
8 2 -3 89.64 6.75
7 2 -3 24.87 3.89
6 2 -3 403.84 10.46
5 2 -3 47.08 3.67
-5 -2 3 47.32 2.91
4 2 -3 612.18 10.74
-4 -2 3 608.83 9.37
3 2 -3 36.17 2.64
-3 -2 3 32.57 2.27
2 2 -3 1708.29 17.99
-2 -2 3 1694.41 17.63
-1 -2 3 226.08 3.22
1 2 -3 228.07 4.16
-1 -2 3 216.92 4.26
0 -2 3 9564.91 86.65
0 -2 3 9944.18 94.5
1 -2 3 2722.95 24.05
1 -2 3 2765.74 26.7
2 -2 3 4651.88 43.64
2 -2 3 4595.53 39.88
3 -2 3 33.76 2.52
4 -2 3 178.73 5.8
5 -2 3 5.32 2.16
6 -2 3 701.13 13.98
6 -2 3 666.56 12.98
7 -2 3 -1.69 1.6
7 -2 3 -2.21 2.37
8 -2 3 88.12 5.84
8 1 -3 229.2 9.37
7 1 -3 18 3.28
6 1 -3 703.42 13.62
-5 -1 3 100.17 3.7
5 1 -3 93.03 4.46
4 1 -3 264.69 5.49
4 1 -3 309.04 6.82
-4 -1 3 285.22 5.65
3 1 -3 2.59 1.01
3 1 -3 4.12 0.86
-3 -1 3 5.39 1.15
-2 -1 3 5428.53 46.81
2 1 -3 5505.83 48
1 1 -3 462.61 5.5
-1 -1 3 451.13 6.12
-1 -1 3 452.77 5.65
0 -1 3 11.45 0.94
0 -1 3 9.02 1.07
1 -1 3 150.24 3.58
1 -1 3 151.63 2.4
2 -1 3 3645.79 35.1
-2 1 -3 3620.93 32.76
3 -1 3 105.19 4.01
4 -1 3 1241.63 16.91
5 -1 3 4.96 2.12
5 -1 3 1.6 1.68
6 -1 3 431.69 10.58
6 -1 3 443.9 10.55
7 -1 3 1.24 2.05
8 -1 3 66.03 5.52
8 0 -3 99.69 6.08
7 0 -3 74.54 4.98
6 0 -3 724.59 13.39
5 0 -3 580.02 10.7
-5 0 3 606.74 9.01
-4 0 3 1281.44 14.48
4 0 -3 1301.38 15.55
4 0 -3 1303.49 16.11
3 0 -3 -0.71 0.84
-3 0 3 -0.72 0.76
2 0 -3 2667.93 24.41
-2 0 3 2630.79 24.24
-1 0 3 2554.01 24.21
-1 0 3 2624.95 23.23
0 0 3 1135.01 12.21
0 0 3 1125.72 11.04
1 0 3 517.07 7.34
1 0 3 517.64 6.35
-1 0 -3 523.04 5.81
2 0 3 683.09 9.47
2 0 3 688.05 9.09
-2 0 -3 689.72 6.95
3 0 3 372.68 7.22
3 0 3 370.12 7.19
4 0 3 801.52 12.76
4 0 3 785.9 12.25
5 0 3 16.73 2.58
5 0 3 14.77 2.58
6 0 3 114.76 5.71
7 0 3 5.48 2.53
8 -1 -3 163.41 7.5
7 -1 -3 18.59 3
6 -1 -3 78.94 4.41
5 -1 -3 517.28 9.56
5 -1 -3 490.2 9.33
-5 1 3 494.72 8.1
4 -1 -3 527.36 8.8
-4 1 3 517.77 7.85
-3 1 3 171.76 4
-2 1 3 2816.2 25.77
-1 1 3 123.21 2.91
-1 1 3 121.16 3.07
0 -1 -3 2253.92 20.7
0 1 3 2264.53 22.23
0 1 3 2250.28 20.48
-1 -1 -3 20.57 1.34
1 1 3 22.68 1.57
1 1 3 17.88 1.53
2 1 3 1387.2 15.7
-2 -1 -3 1365.41 13.39
2 1 3 1371.12 15.8
3 1 3 102.38 4.08
3 1 3 105.12 3.94
4 1 3 692.74 11.11
4 1 3 680.95 12.03
5 1 3 16.53 2.66
6 1 3 194.76 7.62
7 1 3 2.39 2.79
8 -2 -3 77.44 5.28
7 -2 -3 0.71 1.77
6 -2 -3 752.63 13.59
-5 2 3 51.77 2.95
5 -2 -3 52.31 3.43
-4 2 3 1436.05 16.15
3 -2 -3 20.08 1.71
2 -2 -3 216.6 4.5
1 -2 -3 139.37 3.45
0 2 3 3454 31.28
0 -2 -3 3433.89 30.76
0 2 3 3414.23 32.56
1 2 3 68.57 2.82
1 2 3 76.06 2.89
-1 -2 -3 74.06 2.55
-2 -2 -3 1653.79 16.84
2 2 3 1698.56 19.14
2 2 3 1696.56 18.58
3 2 3 0.9 1.44
3 2 3 1.46 1.45
4 2 3 591.04 10.08
4 2 3 586.83 11.56
5 2 3 9.08 2.53
6 2 3 271.4 9.4
7 2 3 1.36 3.1
8 -3 -3 207.47 8.15
7 -3 -3 3.39 2.26
6 -3 -3 622.25 12.43
5 -3 -3 -0.95 1.16
5 -3 -3 0.1 1.46
4 -3 -3 1865.38 20.15
3 -3 -3 125.25 3.84
2 -3 -3 1154.25 13.7
1 -3 -3 28.46 1.99
0 3 3 3798.62 36.27
0 -3 -3 3807.32 34.71
1 3 3 -0.81 1.28
1 3 3 -0.99 0.96
-1 -3 -3 0.45 1.06
2 3 3 1336.91 15.78
2 3 3 1316.71 16.94
-2 -3 -3 1314.87 15.06
3 3 3 533.52 10.53
3 3 3 546.91 9.08
4 3 3 1100.5 17.56
5 3 3 12.24 3.08
6 3 3 156.07 7.65
8 -4 -3 227.52 9.06
7 -4 -3 4.94 2.4
6 -4 -3 475.37 10.93
5 -4 -3 72.05 4.06
5 -4 -3 79.89 3.59
4 -4 -3 1346.48 16.38
3 -4 -3 12.22 1.86
2 -4 -3 1255.88 15.24
1 -4 -3 24.25 2.06
0 -4 -3 3021.91 29.55
-1 -4 -3 22.97 2.16
1 4 3 19.98 2.41
1 4 3 22.35 2.01
2 4 3 39.02 3.33
2 4 3 36.49 2.64
-2 -4 -3 36.65 2.71
3 4 3 69.73 4.51
4 4 3 417.33 10.66
5 4 3 0.32 2.5
6 4 3 257.89 10.14
8 -5 -3 246.74 9.65
7 -5 -3 5.54 2.59
6 -5 -3 137.24 6.08
5 -5 -3 4.05 1.76
5 -5 -3 2.87 1.58
4 -5 -3 789.71 12.06
3 -5 -3 18.73 2.17
2 -5 -3 1685.5 19.77
1 -5 -3 49.45 3.07
0 -5 -3 455.2 8.55
1 5 3 5.17 2.43
-1 -5 -3 3.36 1.77
2 5 3 693.98 12.89
-2 -5 -3 675.83 11.36
3 5 3 0.27 2.47
4 5 3 166.08 7.26
5 5 3 27.1 4.45
8 -6 -3 136.37 7.57
7 -6 -3 2.48 2.42
6 -6 -3 284.6 9.05
5 -6 -3 17.69 2.49
5 -6 -3 16.06 2.54
4 -6 -3 240.98 6.75
3 -6 -3 1041.63 15.03
2 -6 -3 84.58 4.14
1 -6 -3 15.16 2.29
0 -6 -3 782.59 12.72
-1 -6 -3 15.59 2.54
2 6 3 383.53 10.12
-2 -6 -3 391.64 9.04
3 6 3 18.13 3.62
4 6 3 165.47 7.82
5 6 3 -4.42 3.03
8 -7 -3 105.22 7.11
7 -7 -3 -0.29 2.39
6 -7 -3 191.6 7.67
5 -7 -3 2.52 1.86
5 -7 -3 1.34 1.8
4 -7 -3 1020.66 15.72
3 -7 -3 170.85 5.92
2 -7 -3 332.28 8.33
1 -7 -3 44.78 3.59
0 -7 -3 557.55 11.16
-1 -7 -3 0.14 1.98
-2 -7 -3 350.66 9.38
2 7 3 352.21 10.67
3 7 3 7.32 3.52
4 7 3 118.93 7.43
7 -8 -3 6.99 2.95
6 -8 -3 284.74 9.66
5 -8 -3 1.54 1.92
5 -8 -3 2.88 2.08
4 -8 -3 420.27 9.92
3 -8 -3 55.81 4.21
2 -8 -3 252.63 7.78
1 -8 -3 0.91 2
0 -8 -3 627.19 12.87
-1 -8 -3 0.71 2.31
-2 -8 -3 171.4 7.25
3 8 3 10.24 4.21
6 -9 -3 80.68 5.68
5 -9 -3 -0.15 2.18
5 -9 -3 0.55 2
4 -9 -3 323.65 9.38
4 -9 -3 311.29 9.31
3 -9 -3 12.33 2.99
2 -9 -3 217.77 7.75
1 -9 -3 0.15 2.17
0 -9 -3 262.42 8.8
-1 -9 -3 1.93 2.81
5 -10 -3 2.25 2.24
4 -10 -3 158.85 6.98
4 -11 -3 240.57 9
1 -11 4 6.38 2.68
2 -11 4 55.38 4.87
3 -11 4 2.67 2.65
5 -11 4 4.58 3.03
-1 -10 4 0.09 2.39
0 -10 4 11.6 2.77
1 -10 4 3.57 2.31
2 -10 4 130.76 6.03
3 -10 4 2.89 2.23
4 -10 4 23.57 3.37
5 -10 4 2.59 2.49
6 -10 4 60.08 5.58
-2 -9 4 143.32 6.62
-1 -9 4 27.85 3.37
0 -9 4 111.46 5.6
1 -9 4 10.95 2.58
2 -9 4 320.9 8.59
3 -9 4 -2.74 1.68
3 -9 4 1.02 2.06
4 -9 4 41.05 3.96
5 -9 4 10.52 3
6 -9 4 117.6 6.91
7 -9 4 3.08 3.15
4 8 -4 86.77 6.75
-4 -8 4 93.89 5.52
-3 -8 4 -0.4 1.95
3 8 -4 -1.33 2.99
-2 -8 4 180.17 6.85
-1 -8 4 2.61 1.99
0 -8 4 99.49 4.86
1 -8 4 22.4 2.95
2 -8 4 660.12 11.56
2 -8 4 628.61 11.6
3 -8 4 -0.83 1.68
3 -8 4 -0.73 1.66
4 -8 4 92.38 5.04
5 -8 4 31.74 3.68
6 -8 4 211.67 8.61
7 -8 4 3.86 3
5 7 -4 -0.87 3.37
4 7 -4 52.82 4.83
-4 -7 4 62.22 4.43
3 7 -4 0.43 2.69
-3 -7 4 1.94 1.87
-2 -7 4 638.11 12.14
-1 -7 4 -2.45 1.44
0 -7 4 251.74 6.94
1 -7 4 150.49 4.69
1 -7 4 141.5 5.14
2 -7 4 926.98 13.86
2 -7 4 916.89 13.52
3 -7 4 3.22 1.77
3 -7 4 2.52 1.72
4 -7 4 371.81 9.46
5 -7 4 55.11 4.3
6 -7 4 226.26 8.57
7 -7 4 7.46 3.39
6 6 -4 179.24 8.89
5 6 -4 2.04 3.05
4 6 -4 26.06 3.58
-4 -6 4 23.29 2.78
-3 -6 4 4.08 1.92
3 6 -4 4.97 2.43
-2 -6 4 961.38 14.74
2 6 -4 990.14 15.96
-1 -6 4 89.42 4.28
0 -6 4 193.75 5.62
1 -6 4 195.67 5.06
1 -6 4 193.02 5.49
2 -6 4 582.29 10.1
2 -6 4 576.77 9.36
3 -6 4 217.47 5.37
3 -6 4 213.89 6.35
4 -6 4 122.81 5.34
5 -6 4 5.7 2.13
6 -6 4 248.3 9
7 -6 4 31.74 4.45
8 -6 4 104.33 7.56
6 5 -4 122.92 7.14
-5 -5 4 13.66 2.46
5 5 -4 10.67 3.1
4 5 -4 288.4 8.37
-4 -5 4 291.32 7.5
-3 -5 4 -1.42 1.44
3 5 -4 -1.54 1.98
-2 -5 4 908.37 13.42
2 5 -4 898.17 13.86
-1 -5 4 53.45 3.14
0 -5 4 288.36 6.31
0 -5 4 285.05 5.26
1 -5 4 22.46 1.98
1 -5 4 25.43 2.05
2 -5 4 872.55 11.14
2 -5 4 854.18 12.49
3 -5 4 53.72 3.55
3 -5 4 53.14 2.63
4 -5 4 509.32 10.57
5 -5 4 16.61 2.8
6 -5 4 21.42 3.43
7 -5 4 12.16 3.35
8 -5 4 67.34 6.16
7 4 -4 -1.76 3.07
6 4 -4 114.83 6.62
-5 -4 4 47.93 3.45
5 4 -4 48.46 4.31
4 4 -4 284.37 7.96
-4 -4 4 293.43 7.09
3 4 -4 20.54 2.51
-3 -4 4 19.26 2.3
2 4 -4 420.88 8.23
-1 -4 4 259.72 5.83
-1 -4 4 263.5 3.88
1 4 -4 271.49 6.01
0 -4 4 261.68 4.8
0 -4 4 259.44 5.45
1 -4 4 119.15 3.69
1 -4 4 122.26 3.53
2 -4 4 2509.79 26.94
2 -4 4 2520.91 23.62
3 -4 4 3.98 1.63
3 -4 4 7.66 1.12
4 -4 4 546.58 10.96
5 -4 4 0.14 1.85
6 -4 4 303.95 9.47
7 -4 4 2.35 2.97
8 -4 4 102.65 7.51
8 -4 4 107.16 6.31
7 3 -4 -1.04 2.83
6 3 -4 332.57 9.8
-5 -3 4 3.45 1.62
5 3 -4 8.68 2.51
-4 -3 4 328.55 7.27
4 3 -4 329.21 8.03
3 3 -4 156.75 5.08
-3 -3 4 161.24 4.7
-2 -3 4 2650.91 26.49
2 3 -4 2666.21 26.8
-1 -3 4 27.24 1.48
-1 -3 4 24.02 1.85
1 3 -4 23.7 1.8
0 -3 4 1243.1 13.78
0 -3 4 1240.31 13.48
1 -3 4 453.66 6.49
1 -3 4 453.85 7.39
2 -3 4 1155.97 14.86
2 -3 4 1165.24 11.83
3 -3 4 326.85 7.45
4 -3 4 579.31 11.13
5 -3 4 1.14 1.9
6 -3 4 549.09 12.79
7 -3 4 3.91 2.94
7 -3 4 1.62 1.97
8 -3 4 99.78 6.41
7 2 -4 12.83 3.44
6 2 -4 517.27 11.88
5 2 -4 6.08 1.98
-5 -2 4 6.46 1.74
-4 -2 4 417.72 7.74
4 2 -4 411.48 8.45
-3 -2 4 128.59 4.01
3 2 -4 124.94 4.07
-2 -2 4 2394.95 23.69
2 2 -4 2405.9 23.71
1 2 -4 8.23 1.08
-1 -2 4 7.18 0.95
-1 -2 4 14.81 1.38
0 -2 4 3469.28 30.78
0 -2 4 3451.51 32.2
1 -2 4 72.22 2.09
1 -2 4 69.78 2.76
2 -2 4 2507.4 21.65
2 -2 4 2485.21 26.31
3 -2 4 607.51 10.48
4 -2 4 609.57 11.33
5 -2 4 15.28 2.69
6 -2 4 498.8 11.39
6 -2 4 509.01 12
7 -2 4 6.66 2.6
7 -2 4 4.44 3.05
8 -2 4 67.31 5.49
8 1 -4 134.03 7.23
7 1 -4 -0.32 2.26
6 1 -4 622.95 12.68
-5 -1 4 18.27 2.12
5 1 -4 15.54 2.29
4 1 -4 474.17 8.64
-4 -1 4 448.54 7.81
3 1 -4 5.76 1.25
-3 -1 4 6.66 1.31
-2 -1 4 3529.45 32.15
2 1 -4 3550.28 32.02
-1 -1 4 16.19 1.31
-1 -1 4 14.07 1.24
0 -1 4 315.18 5.3
0 -1 4 319.4 4.84
1 -1 4 43.22 1.51
1 -1 4 45.18 2.34
2 -1 4 2252.77 23.98
-2 1 -4 2250.19 19.59
3 -1 4 31.74 2.58
4 -1 4 370.26 8.42
4 -1 4 368.94 7.97
5 -1 4 37.3 3.28
5 -1 4 33.35 3.39
6 -1 4 133.87 6.26
6 -1 4 132.07 6.04
7 -1 4 10.75 2.84
8 0 -4 67.17 5.47
7 0 -4 5.82 2.48
6 0 -4 311.59 8.34
-5 0 4 39.91 2.74
5 0 -4 47.08 3.2
4 0 -4 241.59 5.77
-4 0 4 238.62 5.4
3 0 -4 141.79 3.66
-3 0 4 145.4 3.91
2 0 -4 5841.59 55.92
-2 0 4 5859.82 50.19
-1 0 4 135.68 3.16
-1 0 4 132.27 3.29
0 0 4 24.69 1.53
0 0 4 21.87 1.86
-1 0 -4 21.08 1.28
1 0 4 19.63 1.71
1 0 4 23.3 1.36
2 0 4 2475.27 26.15
2 0 4 2518.16 24.83
-2 0 -4 2532.19 22.15
3 0 4 147.22 4.99
3 0 4 147.63 4.64
4 0 4 526.82 10.14
4 0 4 535.8 10.22
5 0 4 27.34 2.98
5 0 4 24.88 3.13
6 0 4 352.51 9.93
7 0 4 2.8 2.43
8 -1 -4 47.91 4.61
7 -1 -4 0.32 1.99
6 -1 -4 641.25 12.03
5 -1 -4 13.8 2.03
-5 1 4 11.1 1.91
5 -1 -4 14.19 2.06
-4 1 4 517.92 8.41
-3 1 4 334.19 6.19
-2 1 4 939.71 11.26
-1 1 4 -0.51 0.81
-1 1 4 -1.03 0.87
0 -1 -4 393.4 5.91
0 1 4 383.49 6.52
0 1 4 392.48 4.91
-1 -1 -4 453.74 6.33
1 1 4 460.37 7.57
1 1 4 474.41 6.67
2 1 4 1870.46 20.18
2 1 4 1896.93 21.01
-2 -1 -4 1892.37 18.01
3 1 4 2.03 1.43
3 1 4 -0.14 1.63
4 1 4 542.72 10.81
4 1 4 571.01 10.5
5 1 4 7.72 2.45
6 1 4 269.8 9.23
7 1 4 11.01 3.52
8 -2 -4 112.74 6.25
7 -2 -4 24.22 3.16
6 -2 -4 728.26 12.85
6 -2 -4 755.41 13.5
5 -2 -4 60.93 3.63
-5 2 4 62.32 3.34
-4 2 4 1020.48 13.26
-3 2 4 306.15 6.25
3 -2 -4 313.14 6.25
2 -2 -4 2196.54 22.4
1 -2 -4 147.94 3.89
0 -2 -4 5409.79 46.91
0 2 4 5423.21 47.51
0 2 4 5353.04 49.94
1 2 4 348.65 6.76
-1 -2 -4 359.08 6.02
1 2 4 364.08 6.31
2 2 4 1712.86 19.65
2 2 4 1696.03 19.48
-2 -2 -4 1669.29 17.34
3 2 4 3.36 1.73
3 2 4 -0.44 1.51
4 2 4 252.92 6.86
4 2 4 240.74 7.34
5 2 4 2.63 2.41
6 2 4 329.08 10.62
7 2 4 2.41 3.39
8 -3 -4 80.18 5.52
7 -3 -4 6.69 2.41
6 -3 -4 694.03 13.27
5 -3 -4 22.26 2.26
4 -3 -4 854.37 12.18
3 -3 -4 68.56 3.21
2 -3 -4 2523.55 25.59
1 -3 -4 107.52 3.61
0 -3 -4 1249.67 14.57
0 3 4 1222.14 15.05
-1 -3 -4 37.07 2.48
1 3 4 32.74 2.49
1 3 4 38.08 2.82
2 3 4 1147.84 15.02
2 3 4 1150.04 15.64
-2 -3 -4 1145.94 13.95
3 3 4 249.98 7.38
3 3 4 270.66 6.66
4 3 4 565.59 12.13
5 3 4 53.15 4.78
6 3 4 253.65 9.94
7 -4 -4 0.7 2.1
6 -4 -4 424.71 10.34
5 -4 -4 75.43 3.76
4 -4 -4 881.01 13.05
3 -4 -4 2.63 1.42
2 -4 -4 1367.33 16.82
1 -4 -4 52.82 3.08
0 -4 -4 849.74 11.95
1 4 4 49.92 3.6
1 4 4 50.98 3.12
-1 -4 -4 44.47 2.98
2 4 4 429.66 8.25
-2 -4 -4 422.08 8.1
2 4 4 421.54 9.28
3 4 4 36.09 3.66
4 4 4 249.7 8.4
5 4 4 79.78 5.8
6 4 4 125.55 7.67
8 -5 -4 164.69 8.13
7 -5 -4 3.49 2.19
6 -5 -4 132.02 4.96
6 -5 -4 124.74 5.84
5 -5 -4 16.18 2.24
4 -5 -4 554.6 10.27
3 -5 -4 128.2 4.81
2 -5 -4 539.4 9.89
1 -5 -4 56.86 3.48
0 -5 -4 406.53 8.25
-1 -5 -4 119.57 4.63
1 5 4 129.3 5.65
-2 -5 -4 695.02 11.84
2 5 4 704.9 13.29
3 5 4 1.4 2.56
4 5 4 120.14 6.46
5 5 4 -0.39 2.89
8 -6 -4 95.51 6.64
7 -6 -4 0.38 2.04
6 -6 -4 178.81 6.2
6 -6 -4 189.9 7.5
5 -6 -4 1.01 1.67
4 -6 -4 770.37 13.07
3 -6 -4 1.37 1.72
2 -6 -4 717.65 12.29
1 -6 -4 57.02 3.61
0 -6 -4 109.11 4.69
-1 -6 -4 125.68 5.2
2 6 4 846.64 15.9
-2 -6 -4 890.02 14.62
3 6 4 16.49 3.75
4 6 4 29 4.66
5 6 4 -0.47 3.61
7 -7 -4 0.53 2.42
6 -7 -4 325.86 8.75
6 -7 -4 309.72 9.85
5 -7 -4 6.73 2.36
4 -7 -4 281.29 7.99
3 -7 -4 3.47 2.07
2 -7 -4 713.58 12.96
1 -7 -4 101.81 4.92
0 -7 -4 482.16 10.55
-1 -7 -4 2.76 2.11
2 7 4 677.78 15.07
-2 -7 -4 671.35 13.35
3 7 4 151.96 8.02
4 7 4 125.73 7.98
7 -8 -4 1.78 2.73
6 -8 -4 171.19 6.73
6 -8 -4 172.78 7.8
5 -8 -4 0.3 2.06
4 -8 -4 207.89 7.26
3 -8 -4 22 3.23
2 -8 -4 544.78 11.89
1 -8 -4 0.54 2.02
0 -8 -4 188.29 7.13
-1 -8 -4 23.97 3.36
6 -9 -4 227.07 9.22
5 -9 -4 21.66 3.38
5 -9 -4 19.21 3.46
4 -9 -4 132.48 6.36
3 -9 -4 7.37 2.69
2 -9 -4 431.54 11.26
1 -9 -4 5.6 2.87
0 -9 -4 74.67 5.26
5 -10 -4 3 2.46
1 -11 5 -0.04 2.45
2 -11 5 31.5 3.87
3 -11 5 26.17 3.67
5 -11 5 1.37 2.81
-1 -10 5 16.55 3.29
0 -10 5 139.84 6.63
1 -10 5 12.54 2.83
2 -10 5 92.84 5.33
3 -10 5 9.83 2.73
4 -10 5 84.08 5.4
5 -10 5 0.66 2.36
6 -10 5 14.77 3.9
-2 -9 5 10.28 2.7
-1 -9 5 78.02 4.85
0 -9 5 40.91 3.77
1 -9 5 7.07 2.2
2 -9 5 295.29 8.09
3 -9 5 14.14 2.69
3 -9 5 13.32 2.57
4 -9 5 128.82 6.17
5 -9 5 15.07 3.15
6 -9 5 92.08 6.27
4 8 -5 58.57 5.61
-4 -8 5 59.8 4.55
-3 -8 5 11.99 2.87
-2 -8 5 305.94 8.77
-1 -8 5 25.76 3.07
0 -8 5 258.71 7.53
1 -8 5 4.69 2.11
2 -8 5 211.15 6.55
2 -8 5 206.49 6.38
3 -8 5 1.45 1.71
3 -8 5 1.27 1.73
4 -8 5 163.53 6.53
5 -8 5 13.55 2.93
6 -8 5 115.86 6.91
7 -8 5 1.86 2.88
-5 -7 5 2.96 2.27
5 7 -5 -5.3 2.71
-4 -7 5 80.11 4.68
4 7 -5 79.33 5.57
-3 -7 5 2.91 1.97
3 7 -5 4.41 2.74
-2 -7 5 454.34 10.2
-1 -7 5 -0.26 1.69
0 -7 5 272.6 7.29
1 -7 5 100.84 4.13
1 -7 5 106.54 4.65
2 -7 5 346.83 7.59
2 -7 5 338.72 7.99
3 -7 5 30.81 2.58
3 -7 5 25.3 2.76
4 -7 5 276.57 8.29
5 -7 5 1.77 2.33
6 -7 5 129.65 6.79
7 -7 5 -0.1 2.8
6 6 -5 172.38 8.55
5 6 -5 0.33 2.61
-5 -6 5 -0.23 1.9
-4 -6 5 32.27 3.22
4 6 -5 40.19 3.97
-3 -6 5 3.81 2.01
3 6 -5 3.13 2.34
2 6 -5 647.26 12.31
-2 -6 5 636.67 11.75
-1 -6 5 116.72 4.73
0 -6 5 215.41 6.05
1 -6 5 95.58 3.94
1 -6 5 94.45 3.86
2 -6 5 276.53 6.24
2 -6 5 278.88 6.93
3 -6 5 33.7 2.54
3 -6 5 30.75 2.97
4 -6 5 521.85 11.29
5 -6 5 0.13 2.14
6 -6 5 4.99 2.66
7 -6 5 39.89 4.8
6 5 -5 129.08 6.92
5 5 -5 12.05 3.18
-5 -5 5 12.22 2.45
4 5 -5 144.72 6.25
-4 -5 5 161.64 5.7
3 5 -5 8 2.27
-3 -5 5 5.1 1.79
-2 -5 5 293.07 7.2
2 5 -5 292.8 7.41
-1 -5 5 200.1 5.68
0 -5 5 490.48 8.66
0 -5 5 487.89 7.55
1 -5 5 9.51 1.73
1 -5 5 7.26 1.63
2 -5 5 620.74 10.6
2 -5 5 642.76 9.23
3 -5 5 20.85 2.53
4 -5 5 483.09 10.56
5 -5 5 51.47 4.18
6 -5 5 202.05 8.24
7 -5 5 -1.12 2.89
8 -5 5 66.95 6.51
7 4 -5 -3.62 2.92
6 4 -5 186.11 7.73
5 4 -5 70.28 4.93
-5 -4 5 75.9 4.2
4 4 -5 327.69 8.35
-4 -4 5 325.73 7.76
3 4 -5 73.79 4.18
-3 -4 5 69.8 3.61
2 4 -5 706.4 11.03
-1 -4 5 106.7 2.74
-1 -4 5 108.98 3.87
0 -4 5 1416.31 16.19
0 -4 5 1377.28 15.42
1 -4 5 795.5 11.25
1 -4 5 792.56 10.4
2 -4 5 46.08 2.33
2 -4 5 34.17 2.7
3 -4 5 4.51 1.78
4 -4 5 861.63 14.65
5 -4 5 71.63 4.73
6 -4 5 275.5 9.45
7 -4 5 -2.17 2.79
8 -4 5 106.68 7.61
8 -4 5 118.06 7.03
7 3 -5 -2.72 2.75
6 3 -5 271.92 8.81
5 3 -5 20.48 2.87
-5 -3 5 18.74 2.32
-4 -3 5 569.61 10.09
4 3 -5 567.98 10.62
3 3 -5 58.02 3.44
-3 -3 5 49.3 2.97
2 3 -5 422.53 7.3
-1 -3 5 12.55 1.55
-1 -3 5 7.12 1.09
0 -3 5 6575.52 59.14
0 -3 5 6615.1 56.63
1 -3 5 1122.23 12.51
1 -3 5 1126.51 14.08
2 -3 5 1145.91 12.08
2 -3 5 1175.81 15.45
3 -3 5 4.97 1.84
4 -3 5 390.77 9.37
5 -3 5 8.57 2.47
6 -3 5 325.2 9.87
7 -3 5 0.94 2.17
7 -3 5 0.75 2.77
8 -3 5 65.41 5.54
8 2 -5 124.87 7.57
7 2 -5 21.7 3.57
6 2 -5 496.83 11.6
-5 -2 5 0.36 1.43
5 2 -5 0.86 1.81
4 2 -5 251.79 6.52
-4 -2 5 254.36 6.24
3 2 -5 35.96 2.57
-3 -2 5 31.56 2.4
2 2 -5 993.67 11.7
-2 -2 5 1006.65 12.65
-2 -2 5 1007.62 11.14
-1 -2 5 15.16 1.45
-1 -2 5 17.69 1.6
0 -2 5 2081.22 21.31
0 -2 5 2033.6 20.07
1 -2 5 61.03 2.12
1 -2 5 58.73 3.01
2 -2 5 865.83 12.41
2 -2 5 833.54 8.77
3 -2 5 65.88 3.77
4 -2 5 728.69 12.82
5 -2 5 12.38 2.83
5 -2 5 15.72 2.46
6 -2 5 233.07 7.93
6 -2 5 224.4 8.29
7 -2 5 3.26 2.37
7 -2 5 -1.19 2.86
8 1 -5 50.3 5.12
7 1 -5 17.36 3.2
6 1 -5 269.13 8.09
-5 -1 5 248.93 6.21
5 1 -5 237.9 6.79
4 1 -5 1909.72 21.56
-4 -1 5 1902.59 21.01
-3 -1 5 173.81 4.62
3 1 -5 180.66 4.31
2 1 -5 673.52 8.04
-2 -1 5 662.16 9.29
-1 -1 5 6.94 1.26
-1 -1 5 0.5 0.83
0 -1 5 344.86 6.16
0 -1 5 341.29 5.47
1 -1 5 118.68 2.7
1 -1 5 114.64 3.81
2 -1 5 1161.6 15.28
-2 1 -5 1183.86 11.56
3 -1 5 78.31 3.96
3 -1 5 83.05 3.53
4 -1 5 468.88 9.88
4 -1 5 454.92 9.32
5 -1 5 2.29 1.73
5 -1 5 1.95 2.21
6 -1 5 214.71 7.76
6 -1 5 214.83 7.97
7 -1 5 -1.78 2.29
8 0 -5 118.02 6.85
7 0 -5 -0.29 2.1
6 0 -5 92.89 4.85
-5 0 5 70.94 3.41
5 0 -5 68.55 3.78
4 0 -5 532.07 8.8
-4 0 5 540.81 8.95
-3 0 5 358.49 6.69
3 0 -5 357.08 5.91
2 0 -5 2000.12 18.58
-2 0 5 2012.35 20.43
-1 0 5 133.34 3.47
-1 0 5 130.02 3.67
0 0 5 210.02 4.84
0 0 5 206.63 4.07
-1 0 -5 59.13 2.13
1 0 5 61.3 2.03
1 0 5 59.33 2.94
2 0 5 1572.5 17.27
2 0 5 1576.74 19.09
-2 0 -5 1580.8 15.29
3 0 5 53.38 3.79
3 0 5 53.82 3.17
4 0 5 402.08 9.05
4 0 5 397.36 8.86
5 0 5 6.9 2.49
5 0 5 5.32 2.17
6 0 5 235.1 8.36
7 0 5 0.95 2.71
8 -1 -5 78.96 5.7
7 -1 -5 0.32 2.08
6 -1 -5 575.34 11.38
-5 1 5 1 1.45
5 -1 -5 2.47 1.41
-4 1 5 545.92 9.21
4 -1 -5 548.8 8.77
-3 1 5 1.21 1.18
-2 1 5 1923.72 20.18
-1 1 5 8.18 1.23
-1 1 5 9.56 1.46
0 1 5 2759.82 25.07
0 -1 -5 2835.01 26.42
0 1 5 2794.43 28.59
-1 -1 -5 144.38 3.55
1 1 5 144.66 3.55
1 1 5 138.38 4.48
2 1 5 1801.56 19.68
2 1 5 1756.19 20.95
-2 -1 -5 1789.63 17.75
3 1 5 -1.12 1.48
3 1 5 -0.83 1.69
4 1 5 112.72 5.09
4 1 5 110.48 5.12
5 1 5 -1.94 2.06
5 1 5 -0.43 2.02
6 1 5 399.59 11.44
7 1 5 -1.37 2.69
8 -2 -5 102.97 6.27
7 -2 -5 3.88 2.21
6 -2 -5 797.75 14.1
6 -2 -5 833.66 13.86
6 -2 -5 797.8 12.83
-6 2 5 811.35 12.99
-5 2 5 3.24 1.76
-4 2 5 662.61 10.6
-3 2 5 136.78 4.54
3 -2 -5 141.15 4.55
1 -2 -5 29.41 2.14
-1 2 5 24.7 2.1
0 -2 -5 1483.99 16.51
0 2 5 1504.42 17.86
1 2 5 44.84 3.14
-1 -2 -5 43.55 2.34
1 2 5 44.22 2.53
2 2 5 1680.88 19.53
2 2 5 1635.01 20
-2 -2 -5 1618.42 17.43
3 2 5 735.99 12.18
3 2 5 722.61 12.2
4 2 5 1084.78 16.23
4 2 5 1059.47 17.07
5 2 5 0.93 2.38
6 2 5 148.42 7.65
7 -3 -5 -0.44 1.8
7 -3 -5 2.91 2.08
6 -3 -5 614.96 11.02
6 -3 -5 627.79 12.63
5 -3 -5 51.29 3.15
4 -3 -5 894.96 13.2
3 -3 -5 27.89 2.46
2 -3 -5 1320.23 16.42
1 -3 -5 24.77 2.17
0 3 5 1439.23 17.64
0 -3 -5 1422.5 16.71
1 3 5 2.28 1.7
-1 -3 -5 2.49 1.38
1 3 5 5.12 1.78
-2 -3 -5 125.1 4.13
2 3 5 116.08 4.66
2 3 5 112.56 4.68
3 3 5 100.75 4.67
3 3 5 92.7 4.83
4 3 5 341 9.53
5 3 5 -0.41 2.66
6 3 5 207.95 9.39
7 -4 -5 2.02 2.23
6 -4 -5 123.47 5
6 -4 -5 113.28 5.61
5 -4 -5 50.05 3.43
4 -4 -5 449.15 9.22
3 -4 -5 0.66 1.47
2 -4 -5 2362.3 25.9
1 -4 -5 155.71 4.99
0 -4 -5 544.56 9.49
1 4 5 118.28 4.62
1 4 5 113.54 4.84
-1 -4 -5 116.24 4.26
2 4 5 361.28 8.52
2 4 5 359.78 8.05
-2 -4 -5 357.91 7.63
3 4 5 3.28 2.41
4 4 5 187.56 7.64
5 4 5 -0.55 3.09
6 4 5 72.52 6.55
8 -5 -5 114.48 6.98
7 -5 -5 1.19 2.28
6 -5 -5 309.39 8.05
6 -5 -5 311.61 9.44
5 -5 -5 3.78 1.92
4 -5 -5 415.63 9.19
3 -5 -5 853.65 13.77
2 -5 -5 30.51 2.8
1 -5 -5 169.19 5.57
0 -5 -5 819.32 12.89
1 5 5 59.88 4.34
-1 -5 -5 64.12 3.79
2 5 5 646.03 12.8
-2 -5 -5 628.2 11.42
3 5 5 -0.11 2.57
4 5 5 104.92 6.63
5 5 5 1.73 3.64
8 -6 -5 135.89 7.71
7 -6 -5 -1.32 2.22
6 -6 -5 266.38 7.93
6 -6 -5 261.47 9.04
5 -6 -5 7.15 2.19
4 -6 -5 775.29 13.75
3 -6 -5 11.35 2.37
2 -6 -5 453.81 9.88
1 -6 -5 142.57 5.57
0 -6 -5 460.9 9.92
-1 -6 -5 16.16 2.68
2 6 5 654.47 14.12
3 6 5 34.75 4.42
4 6 5 155.58 8.28
7 -7 -5 33.59 4.24
6 -7 -5 298.87 8.92
6 -7 -5 309.25 10.2
5 -7 -5 94.01 5.35
4 -7 -5 373.11 9.7
3 -7 -5 1.37 2.13
2 -7 -5 780.85 14.19
1 -7 -5 21.64 2.94
0 -7 -5 300.06 8.54
-1 -7 -5 -0.56 1.94
6 -8 -5 251.71 8.64
6 -8 -5 286.65 10.17
5 -8 -5 74.66 5.04
4 -8 -5 117.17 6.09
3 -8 -5 8.57 2.63
2 -8 -5 613.36 13.13
1 -8 -5 4.53 2.52
0 -8 -5 167.31 7.01
-1 -8 -5 10.38 3.05
2 -11 6 36.92 4.1
5 -11 6 2.86 3.08
-1 -10 6 8.94 3.02
0 -10 6 40.83 4.17
1 -10 6 2.05 2.22
2 -10 6 98.06 5.21
4 -10 6 110.82 6.28
5 -10 6 1.65 2.67
6 -10 6 23.37 4.26
-2 -9 6 106.96 5.94
-1 -9 6 -1.13 1.97
0 -9 6 190.05 6.98
1 -9 6 2.73 1.99
2 -9 6 22.02 2.96
3 -9 6 0.23 2.14
4 -9 6 139.58 6.63
5 -9 6 -1.24 2.48
6 -9 6 52.38 5.3
5 8 -6 0.88 3.87
4 8 -6 46.51 5.4
-3 -8 6 23.78 3.39
-2 -8 6 122.37 5.83
-1 -8 6 0.52 1.92
0 -8 6 424.85 9.81
1 -8 6 15.3 2.48
2 -8 6 176.52 6.09
2 -8 6 166.36 5.76
3 -8 6 17.62 2.87
4 -8 6 210.59 7.58
5 -8 6 5.47 2.63
6 -8 6 132.94 7.39
7 -8 6 -1.62 2.87
5 7 -6 1.13 2.96
4 7 -6 41.06 4.67
-4 -7 6 41.36 3.75
-3 -7 6 16.71 2.75
3 7 -6 11.9 3.28
-2 -7 6 154.04 6.15
-1 -7 6 2.17 1.96
0 -7 6 173.64 5.85
1 -7 6 2.94 1.92
1 -7 6 3.99 1.86
2 -7 6 263.93 6.69
2 -7 6 259.32 7.2
3 -7 6 31.25 3.09
4 -7 6 72.21 4.82
5 -7 6 2.16 2.5
6 -7 6 100.49 6.46
7 -7 6 2.38 3.29
6 6 -6 35.4 5.03
5 6 -6 -1.4 2.85
-5 -6 6 1.64 2.06
4 6 -6 240.61 8.29
-4 -6 6 226.8 7.32
-3 -6 6 2.3 1.79
3 6 -6 -1.45 2.02
-2 -6 6 328.57 8.17
-1 -6 6 8.32 2
0 -6 6 221.02 6.31
1 -6 6 20.18 2.38
1 -6 6 18.66 2.26
2 -6 6 357.5 7.31
2 -6 6 358.33 8.28
3 -6 6 90.11 4.66
4 -6 6 150.43 6.24
5 -6 6 5.52 2.47
6 -6 6 89.05 6.11
7 -6 6 1.5 3.32
6 5 -6 79.27 6.07
-5 -5 6 60.33 4.16
5 5 -6 58.11 4.72
4 5 -6 161.82 6.41
-4 -5 6 176.25 6.23
-3 -5 6 14.03 2.22
3 5 -6 10.31 2.56
-2 -5 6 186.13 5.9
2 5 -6 178.96 6.03
-1 -5 6 127.98 4.66
0 -5 6 401.78 7.94
0 -5 6 410.29 7.07
1 -5 6 14.55 2.12
1 -5 6 13.29 1.96
2 -5 6 810.24 13.07
2 -5 6 840.74 11.17
3 -5 6 14.72 2.5
4 -5 6 235.08 7.67
5 -5 6 39.26 4.11
6 -5 6 168.17 7.69
7 -5 6 1.03 3.19
7 4 -6 -0.41 3.15
6 4 -6 184.04 7.83
5 4 -6 48.25 3.97
-5 -4 6 48.09 3.66
-4 -4 6 338.39 8.15
4 4 -6 325.95 8.12
-3 -4 6 97.7 4.42
3 4 -6 104.26 4.59
2 4 -6 431.99 8.23
-1 -4 6 16.96 2.04
-1 -4 6 17.6 1.66
0 -4 6 1490.58 17.14
0 -4 6 1459.87 16.75
1 -4 6 312.23 6.81
1 -4 6 316.61 6.07
2 -4 6 1286.53 14.38
2 -4 6 1297.28 17.33
3 -4 6 26.48 2.93
4 -4 6 221.15 7.29
5 -4 6 0.76 2.41
6 -4 6 211.3 8.34
7 -4 6 2.3 2.08
7 -4 6 -0.68 2.74
8 -4 6 66.59 6.52
7 3 -6 3.37 2.96
6 3 -6 209.62 7.76
-5 -3 6 9.25 2.11
5 3 -6 1.76 2.21
4 3 -6 391.14 8.52
-4 -3 6 396.03 8.48
3 3 -6 53.42 3.44
-3 -3 6 46.82 3.06
2 3 -6 917.47 11.88
-2 -3 6 918.81 12.74
-1 -3 6 166.89 4.6
-1 -3 6 157.63 3.98
0 -3 6 961.62 12.36
0 -3 6 956.97 12.06
1 -3 6 113.51 3.37
1 -3 6 105.71 3.94
2 -3 6 625.4 7.97
2 -3 6 619.29 10.66
3 -3 6 36.84 3.14
4 -3 6 801.89 14.14
5 -3 6 -1.48 2.03
6 -3 6 234.52 8.02
6 -3 6 219.98 8.61
7 -3 6 3.57 2.4
7 -3 6 7.53 3.62
7 2 -6 1.94 2.8
6 2 -6 162.8 6.67
5 2 -6 30.11 2.89
-5 -2 6 29.47 2.79
4 2 -6 1118.99 15
-4 -2 6 1093.81 14.99
-3 -2 6 110.18 4.06
3 2 -6 108.3 3.89
2 2 -6 830.55 10.01
-2 -2 6 814.06 10.24
-2 -2 6 822.23 11.46
-1 -2 6 714.42 9.8
-1 -2 6 720.66 10.04
0 -2 6 675.27 9.86
0 -2 6 703.88 9.31
1 -2 6 73.48 3.56
1 -2 6 71.85 2.58
2 -2 6 413.65 8.49
2 -2 6 414.63 5.65
3 -2 6 31.02 3.16
4 -2 6 383.39 9.42
5 -2 6 24.7 3.26
5 -2 6 30.13 3.07
6 -2 6 88.15 5.57
6 -2 6 90.55 5.47
7 -2 6 11.69 3.26
7 -2 6 3.83 3.5
7 1 -6 -1.63 2.34
-6 -1 6 60.62 3.9
6 1 -6 61.47 4.44
-5 -1 6 222.01 6.18
5 1 -6 217.07 6.36
-4 -1 6 297.89 6.85
4 1 -6 298.24 6.51
3 1 -6 10.52 1.5
-3 -1 6 10.56 1.7
-2 -1 6 1699.45 18.5
-2 -1 6 1696.28 18.7
2 1 -6 1707.71 16.44
-1 -1 6 99.43 3.3
-1 -1 6 97.12 3.36
0 -1 6 609.46 8.35
0 -1 6 617.18 9.44
1 -1 6 52.58 2.23
1 -1 6 53.4 3.09
2 -1 6 1309.69 17.31
-2 1 -6 1301.1 13.29
2 -1 6 1318.41 14.91
3 -1 6 8.38 2.19
3 -1 6 8.65 1.75
4 -1 6 243.45 7.53
4 -1 6 224.85 6.63
5 -1 6 4.86 2.15
5 -1 6 5.22 2.65
6 -1 6 279.65 9.18
6 -1 6 282.96 9.22
7 -1 6 3.36 2.66
-6 0 6 262.35 7.13
6 0 -6 258.3 7.61
5 0 -6 1.17 1.55
-5 0 6 1.4 1.6
4 0 -6 771.54 10.92
-4 0 6 771.87 11.67
3 0 -6 124.51 3.25
-3 0 6 129.21 4.21
-2 0 6 424.73 7.41
-2 0 6 416.79 7.41
-1 0 6 23.86 1.9
-1 0 6 23.53 2.03
0 0 6 584.3 9.47
0 0 6 586.23 8.3
1 0 6 269.09 6.41
1 0 6 273.62 4.55
-1 0 -6 262.71 5.01
-2 0 -6 1412.58 14.63
2 0 6 1430.21 18.43
2 0 6 1404.23 16.05
3 0 6 0.49 2.06
3 0 6 -0.25 1.33
4 0 6 215.89 6.61
4 0 6 209.35 7.13
5 0 6 53.3 4.44
5 0 6 52.8 4.03
6 0 6 368.56 10.93
7 0 6 0.65 2.98
-6 1 6 656.49 11.84
-5 1 6 2.59 1.57
-4 1 6 551.24 9.72
-3 1 6 108 4.17
-2 1 6 1835.82 20.24
-1 1 6 2.63 1.38
-1 1 6 1.89 1.08
0 1 6 1908.04 21.88
0 -1 -6 1909.78 20
1 1 6 115.68 4.42
-1 -1 -6 112.18 3.5
1 1 6 112.66 3.3
2 1 6 1906 20.85
-2 -1 -6 1854.82 19.07
2 1 6 1867.65 22.68
3 1 6 11.2 2.29
3 1 6 10.95 2.04
4 1 6 195.56 6.85
4 1 6 187.44 6.58
5 1 6 26.92 3.62
5 1 6 32.95 3.69
6 1 6 313.33 10.41
7 1 6 14.34 3.84
6 -2 -6 613.36 12.42
6 -2 -6 627.85 11.79
-6 2 6 631.38 11.8
-5 2 6 13.22 2.28
-4 2 6 477.49 9.28
-3 2 6 82.86 3.98
3 -2 -6 80.65 3.88
2 -2 -6 2048.04 22.79
-1 2 6 51.97 3.1
1 -2 -6 46.65 2.78
0 -2 -6 895.93 12.15
0 2 6 906.52 13.27
-1 -2 -6 108.98 3.75
1 2 6 102.57 4.39
2 2 6 1021.06 15.26
2 2 6 1032.8 14.2
-2 -2 -6 1036.79 12.98
3 2 6 104.39 4.74
3 2 6 108.67 4.89
4 2 6 136.52 5.93
4 2 6 127.75 5.86
5 2 6 37.32 4.14
6 2 6 256.43 9.87
6 -3 -6 336.03 8.4
5 -3 -6 2.56 1.59
4 -3 -6 495.57 9.81
3 -3 -6 0.43 1.41
2 -3 -6 2142.27 24.17
1 -3 -6 4.67 1.58
0 -3 -6 153.44 4.85
0 3 6 158.72 5.35
1 3 6 65.35 4.03
-1 -3 -6 62.21 3.33
2 3 6 825.2 13.45
2 3 6 820.24 12.99
3 3 6 125.52 5.44
3 3 6 121.91 5.48
4 3 6 212.66 7.78
5 3 6 -2.84 2.29
6 3 6 50.61 5.57
7 -4 -6 0.67 1.97
6 -4 -6 230.85 7.08
5 -4 -6 0.46 1.72
4 -4 -6 353.79 8.47
3 -4 -6 322.82 8.01
2 -4 -6 221.73 6.39
1 -4 -6 172.56 5.51
0 4 6 375.83 8.45
0 -4 -6 378.83 8.19
1 4 6 215.06 6.46
-1 -4 -6 214.6 6.04
2 4 6 675.73 12.18
8 -5 -6 92.98 6.5
7 -5 -6 0.6 2.13
6 -5 -6 257.3 7.82
5 -5 -6 22.26 2.82
4 -5 -6 639.42 12.31
3 -5 -6 193.94 6.45
2 -5 -6 930.73 14.89
1 -5 -6 50.99 3.67
0 -5 -6 254.16 7
-1 -5 -6 1.9 1.79
7 -6 -6 37.29 4.34
6 -6 -6 307.66 9
5 -6 -6 23.96 3.23
4 -6 -6 483.62 11.15
3 -6 -6 26.84 3.08
2 -6 -6 534.63 11.32
1 -6 -6 -1.24 1.55
0 -6 -6 531.49 10.97
-1 -6 -6 16.28 2.74
7 -7 -6 2.95 2.89
6 -7 -6 187.27 7.53
5 -7 -6 -0.65 2.19
4 -7 -6 138.84 6.36
3 -7 -6 23.06 3.35
2 -7 -6 690.99 13.77
1 -7 -6 15.91 2.75
0 -7 -6 204.25 7.37
-1 -7 -6 9.39 2.8
4 -8 -6 85.83 5.69
3 -8 -6 1.25 2.25
2 -8 -6 424.98 11.13
1 -8 -6 9.24 3.04
0 -8 -6 95.85 5.84
2 -11 7 18.35 3.41
5 -11 7 -4.33 2.9
0 -10 7 49 4.38
1 -10 7 2.3 2.26
2 -10 7 51.2 4.28
4 -10 7 86.39 5.91
5 -10 7 -1.82 2.59
-2 -9 7 65.51 5.01
-1 -9 7 -0.64 2
0 -9 7 214.4 7.49
1 -9 7 2 2.03
2 -9 7 33.08 3.38
3 -9 7 7.93 2.72
4 -9 7 123.18 6.32
5 -9 7 -0.86 2.74
6 -9 7 52.33 5.42
5 8 -7 -3.06 3.33
-3 -8 7 -0.69 2.08
-2 -8 7 53.15 4.15
-1 -8 7 0.49 1.94
0 -8 7 292.41 8.35
1 -8 7 -0.76 1.8
2 -8 7 79.02 4.6
2 -8 7 80.63 4.34
3 -8 7 3.35 2.14
4 -8 7 50.98 4.54
5 -8 7 18.23 3.66
6 -8 7 65.24 5.61
5 7 -7 0.97 3.31
4 7 -7 153.82 7.55
-4 -7 7 171.15 7
-3 -7 7 5.32 2.17
-2 -7 7 77.63 4.48
-1 -7 7 16.43 2.7
0 -7 7 184.16 6.21
1 -7 7 15.65 2.45
2 -7 7 241.65 6.5
2 -7 7 243.95 7.24
3 -7 7 -0.62 1.99
4 -7 7 130.56 6.34
5 -7 7 3.71 2.8
6 -7 7 7.34 3.19
7 -7 7 9.33 4.01
6 6 -7 15.37 4.11
5 6 -7 4.25 2.93
-5 -6 7 1.37 2.16
4 6 -7 166.44 6.99
-4 -6 7 157.1 6.33
3 6 -7 30.19 3.67
-3 -6 7 27.91 3.05
-1 -6 7 9.49 2.04
0 -6 7 17.31 2.32
1 -6 7 1.74 1.88
1 -6 7 2.03 1.63
2 -6 7 809.95 13.56
2 -6 7 828.03 12.01
3 -6 7 30.83 3.28
4 -6 7 219.32 7.84
5 -6 7 3.22 2.69
6 -6 7 92.78 6.46
7 -6 7 -0.84 3.02
-5 -5 7 2.97 2.2
5 5 -7 1.25 2.64
-4 -5 7 129.24 5.47
4 5 -7 134.09 5.95
-3 -5 7 1.86 1.82
3 5 -7 1.84 2.13
-2 -5 7 652.94 11.66
-1 -5 7 50.38 3.39
0 -5 7 362.74 7.66
0 -5 7 361.22 7.04
1 -5 7 186.71 5.62
1 -5 7 190.59 5.25
2 -5 7 95.5 3.73
2 -5 7 96.46 4.52
3 -5 7 0.34 1.86
4 -5 7 313.67 9.12
5 -5 7 31.09 3.75
6 -5 7 171.56 7.87
7 -5 7 0.62 3.43
-6 -4 7 119.53 5.73
5 4 -7 3.02 2.49
-5 -4 7 6.5 2.25
-4 -4 7 229.24 6.97
4 4 -7 226.99 6.94
3 4 -7 59.3 3.92
-3 -4 7 62.9 3.67
-2 -4 7 683.88 11.47
-1 -4 7 3.43 1.51
-1 -4 7 1.24 1.32
0 -4 7 1178.13 14.94
0 -4 7 1164.56 14.85
1 -4 7 148.17 4.37
1 -4 7 145.02 5.11
2 -4 7 657.85 9.32
2 -4 7 675.64 11.79
3 -4 7 7.44 2.5
4 -4 7 312.2 8.96
5 -4 7 -1.16 2.17
6 -4 7 143.56 7.28
7 -4 7 -4.9 3.02
7 -4 7 4.17 2.34
-6 -3 7 289.86 8.34
-5 -3 7 -0.43 1.68
-4 -3 7 89.16 4.38
-3 -3 7 12.48 2.04
3 3 -7 12.52 2.06
2 3 -7 850.33 11.22
-2 -3 7 860.35 12.58
-1 -3 7 29.63 2.36
-1 -3 7 30.31 2.4
0 -3 7 684.46 10.02
0 -3 7 666.7 10.27
1 -3 7 51.27 3.32
1 -3 7 49.51 2.61
2 -3 7 333.95 8.03
2 -3 7 337.37 5.73
3 -3 7 7.99 2.26
4 -3 7 433.45 10.39
5 -3 7 0.7 2.51
6 -3 7 54.17 4.31
6 -3 7 49.9 4.73
7 -3 7 12.33 4.05
7 -3 7 11.76 3.08
-6 -2 7 128.87 5.6
-5 -2 7 1.39 1.68
-4 -2 7 502.94 9.82
-3 -2 7 0.36 1.42
-2 -2 7 703 9.98
-2 -2 7 701.12 10.79
-1 -2 7 31.98 2.59
-1 -2 7 33.95 2.49
0 -2 7 603.83 9.92
0 -2 7 615.32 9.12
1 -2 7 8.49 1.32
1 -2 7 4.15 1.81
2 -2 7 364.89 8.34
2 -2 7 368.48 5.73
3 -2 7 23.47 3.16
4 -2 7 362.15 9.55
4 -2 7 372.38 8.47
5 -2 7 3.49 2.5
5 -2 7 7.49 2.29
6 -2 7 136.46 7.25
6 -2 7 134.9 6.54
7 -2 7 1.31 3.29
7 -2 7 1.97 2.57
-6 -1 7 124.17 5.34
-5 -1 7 61.58 3.9
-4 -1 7 540.38 9.92
-3 -1 7 25.78 2.38
-2 -1 7 161.66 4.58
-2 -1 7 152.31 4.65
-1 -1 7 8 1.46
-1 -1 7 8.15 1.65
0 -1 7 792.77 11.91
0 -1 7 799.19 10.6
1 -1 7 323.46 7.51
1 -1 7 317.05 5.73
2 -1 7 568.8 10.91
3 -1 7 7.73 2.39
3 -1 7 6.45 1.66
4 -1 7 303.15 7.81
4 -1 7 298.87 8.66
5 -1 7 44.99 4.44
5 -1 7 43.07 3.8
6 -1 7 137.58 6.66
6 -1 7 152.44 7.64
7 -1 7 -3.28 2.41
-6 0 7 338.75 8.6
-5 0 7 16.69 2.37
-4 0 7 660.54 11.19
-3 0 7 -1.99 1.2
-2 0 7 794.06 11.81
-2 0 7 813.53 11.73
-1 0 7 194.73 5.52
-1 0 7 189.94 4.98
0 0 7 1526.46 16.89
0 0 7 1511.79 18.97
1 0 7 99.88 4.6
-1 0 -7 104.52 3.4
2 0 7 1905.99 23.66
3 0 7 13.64 2.54
4 0 7 29.99 3.04
4 0 7 27.85 3.52
5 0 7 1.42 2.2
5 0 7 3.78 2.73
-6 1 7 358.07 9.01
-5 1 7 25.57 2.82
-4 1 7 443.61 9.14
-3 1 7 0.48 1.5
-2 1 7 1806.67 20.75
-1 1 7 -0.14 1.23
1 -1 -7 0.08 1.19
-1 1 7 2.67 1.59
0 -1 -7 310.91 6.46
0 1 7 321.62 7.41
1 1 7 2.22 1.88
-1 -1 -7 5.23 1.39
2 1 7 1348.56 18.92
3 1 7 159.85 6.07
4 1 7 703.5 13.88
5 1 7 2.23 2.65
-6 2 7 479.04 10.72
6 -2 -7 482.54 10.82
-5 2 7 99.38 4.87
4 -2 -7 465.4 9.79
-4 2 7 481.93 9.85
3 -2 -7 4.88 1.74
2 -2 -7 1674.92 20.41
-1 2 7 281.52 7.04
1 -2 -7 286.69 6.79
0 -2 -7 133.2 4.53
0 2 7 129.79 5.05
1 2 7 47.43 3.6
-1 -2 -7 50.57 3.01
2 2 7 488.53 10.47
3 2 7 84.02 4.99
4 2 7 295.69 8.83
6 -3 -7 204.06 6.98
5 -3 -7 53.57 3.85
4 -3 -7 87.46 4.38
3 -3 -7 0.83 1.61
2 -3 -7 2498.39 27.97
1 -3 -7 0.56 1.45
0 3 7 90.79 4.62
0 -3 -7 85.35 3.98
-1 -3 -7 5.84 1.67
1 3 7 9.43 2.22
2 3 7 417.98 9.72
3 3 7 105.09 5.41
7 -4 -7 1.09 2.46
6 -4 -7 380.68 9.71
5 -4 -7 22.25 2.85
4 -4 -7 147.65 5.89
3 -4 -7 5.03 1.9
2 -4 -7 736.5 12.83
1 -4 -7 52.1 3.45
0 4 7 306.82 8.1
0 -4 -7 310.42 7.58
-1 -4 -7 6.51 1.86
1 4 7 8.31 2.17
2 4 7 346.2 9.12
8 -5 -7 28.02 4.5
7 -5 -7 3.03 2.57
6 -5 -7 536.13 11.95
5 -5 -7 26.09 3.14
4 -5 -7 219.76 7.35
3 -5 -7 118.6 5.4
2 -5 -7 480.18 10.56
1 -5 -7 15.7 2.49
0 -5 -7 913.4 14.82
-1 -5 -7 10.36 2.37
2 5 7 317.78 8.87
7 -6 -7 4.91 2.9
6 -6 -7 387.58 10.65
5 -6 -7 35.82 3.97
4 -6 -7 195.89 7.37
3 -6 -7 118.38 5.68
2 -6 -7 471.5 11.05
1 -6 -7 3.44 2.08
0 -6 -7 462.56 10.57
-1 -6 -7 2.16 2.04
5 -7 -7 11.92 2.94
4 -7 -7 228.98 8.41
3 -7 -7 -2.72 1.94
2 -7 -7 514.05 12.17
1 -7 -7 14.9 2.85
0 -7 -7 201.9 7.56
-1 -7 -7 1.37 2.28
2 -11 8 49.22 4.51
0 -10 8 75.56 5.15
1 -10 8 2.82 2.49
2 -10 8 19.25 3.23
4 -10 8 50.05 4.99
5 -10 8 0.87 3.16
-1 -9 8 2.58 2.33
0 -9 8 138.04 6.28
1 -9 8 12.36 2.76
2 -9 8 43.65 3.74
3 -9 8 1 2.47
4 -9 8 114.7 6.63
5 -9 8 1.06 3.06
6 -9 8 29.76 5
-3 -8 8 8.07 2.66
-2 -8 8 25.5 3.37
-1 -8 8 2.9 2.15
0 -8 8 139.86 5.88
1 -8 8 0.06 1.68
2 -8 8 38.71 3.3
2 -8 8 31.01 3.42
3 -8 8 0.57 2.13
4 -8 8 126.2 6.65
5 -8 8 2 3.03
6 -8 8 15.73 4.22
-4 -7 8 165.61 6.97
-3 -7 8 3.68 2.12
-2 -7 8 33.5 3.37
-1 -7 8 3.37 1.95
0 -7 8 190.4 6.37
1 -7 8 14.7 2.39
2 -7 8 132.46 5.03
2 -7 8 143.09 5.83
3 -7 8 -2.36 1.81
4 -7 8 109.17 6.12
5 -7 8 -1.6 2.38
6 -7 8 51.6 5.18
-4 -6 8 148.12 6.36
-3 -6 8 15.61 2.6
-2 -6 8 116.03 5.17
-1 -6 8 38.56 3.16
0 -6 8 241.88 6.66
1 -6 8 55.54 3.44
1 -6 8 56.25 3.69
2 -6 8 65.19 3.49
2 -6 8 63.2 4.29
3 -6 8 12.65 2.62
4 -6 8 137.52 6.35
5 -6 8 19.42 3.49
6 -6 8 108.86 6.7
-5 -5 8 3.17 2.17
-4 -5 8 123 5.66
-3 -5 8 -1.59 1.56
-2 -5 8 254.26 7.15
-1 -5 8 -1.8 1.48
0 -5 8 805.55 12.54
0 -5 8 792.32 12.03
1 -5 8 160.58 5.44
1 -5 8 156.67 5.03
2 -5 8 572.71 9.45
2 -5 8 585.78 11.35
3 -5 8 5.72 2.3
4 -5 8 70.53 5.1
5 -5 8 -4.71 2.22
6 -5 8 108.65 6.95
7 -5 8 1.45 3.64
-6 -4 8 188.89 7.42
-5 -4 8 5.91 2.18
-4 -4 8 72.03 4.38
-3 -4 8 22.9 2.61
-2 -4 8 246.95 6.76
-1 -4 8 8.25 1.71
-1 -4 8 13.86 2.1
0 -4 8 610.97 10.24
0 -4 8 608.93 10.21
1 -4 8 13.5 1.88
1 -4 8 18.5 2.62
2 -4 8 354.58 8.71
3 -4 8 -0.97 1.86
4 -4 8 304.39 8.98
5 -4 8 8.94 2.89
6 -4 8 69.44 5.79
7 -4 8 -1.73 3.05
-6 -3 8 79.6 5.06
-5 -3 8 21 2.86
-4 -3 8 764.73 13.16
-3 -3 8 50.09 3.33
-2 -3 8 375.51 8.06
-1 -3 8 210.13 5.52
-1 -3 8 218.28 5.83
0 -3 8 121.18 4.3
0 -3 8 110.63 4.3
1 -3 8 44.49 2.67
1 -3 8 40.14 3.3
2 -3 8 298.53 7.95
3 -3 8 156.68 6.24
4 -3 8 305.29 9.17
5 -3 8 4.2 2.75
6 -3 8 9.41 3.37
7 -3 8 3.22 3.65
-6 -2 8 63.9 4.52
-5 -2 8 114.17 5.12
-4 -2 8 140.88 5.45
-3 -2 8 4.08 1.66
-2 -2 8 656.96 10.19
-2 -2 8 639.6 10.72
-1 -2 8 3.21 1.6
-1 -2 8 2.96 1.54
0 -2 8 469.87 8.21
0 -2 8 462.12 8.99
1 -2 8 48.98 3.55
1 -2 8 47 2.59
2 -2 8 327.66 8.6
3 -2 8 95.28 5.35
4 -2 8 422.65 10.85
5 -2 8 13.17 3.21
6 -2 8 31.65 4.59
7 -2 8 -3.17 3.29
-6 -1 8 124.75 5.71
-5 -1 8 36.73 3.32
-4 -1 8 501.26 9.94
-3 -1 8 6.64 1.92
-2 -1 8 185.34 5.37
-2 -1 8 169.72 5.14
-1 -1 8 34.39 2.59
-1 -1 8 32.75 2.69
0 -1 8 1258.38 17.08
0 -1 8 1271.37 15.39
1 -1 8 21.72 1.94
1 -1 8 22.76 2.72
2 -1 8 315.83 8.3
3 -1 8 17.85 3.12
4 -1 8 355.95 10.12
5 -1 8 2.91 2.68
6 -1 8 65.4 5.85
-6 0 8 302.29 8.45
-5 0 8 3.73 2.07
-4 0 8 556.41 10.67
-3 0 8 51.44 3.37
-2 0 8 472.59 9.14
-2 0 8 478.96 9.12
-1 0 8 16.86 2.16
-1 0 8 11.86 2.15
0 0 8 1381.24 18.47
0 0 8 1331.93 16.18
-1 0 -8 16.47 1.83
1 0 8 17.86 2.81
2 0 8 281.31 7.89
3 0 8 85.78 5.29
4 0 8 1021.36 17.84
5 0 8 9.96 3.33
-6 1 8 271.51 8.22
-5 1 8 16.92 2.67
-4 1 8 530.17 10.66
-3 1 8 29.66 2.86
-2 1 8 835.84 12.85
1 -1 -8 158.8 5.15
-1 1 8 147.66 5.39
0 1 8 882.27 14.17
0 -1 -8 897.41 12.78
1 1 8 74.45 4.7
-1 -1 -8 82.09 3.56
2 1 8 67.42 4.33
3 1 8 60 4.7
4 1 8 298.39 9.16
5 1 8 3.14 2.98
6 -2 -8 194.97 7.21
-5 2 8 22.43 3.21
5 -2 -8 21.15 2.96
4 -2 -8 164.6 6.03
-4 2 8 151.48 5.95
3 -2 -8 5.96 1.78
2 -2 -8 1479.3 19.37
-1 2 8 25.23 2.82
1 -2 -8 25.83 2.59
0 2 8 868.99 14.36
0 -2 -8 831.23 12.77
1 2 8 0.65 1.81
-1 -2 -8 -0.26 1.38
2 2 8 67.24 4.42
3 2 8 32.52 3.76
4 2 8 277.54 9.17
6 -3 -8 243.6 8.03
5 -3 -8 13.52 2.62
4 -3 -8 367.64 9.25
3 -3 -8 120.92 5.3
2 -3 -8 7.49 1.96
1 -3 -8 129.19 5.04
-1 3 8 134.8 5.48
0 3 8 782.85 13.83
0 -3 -8 798.2 12.8
-1 -3 -8 49.56 3.41
1 3 8 50.39 3.93
2 3 8 380.85 9.86
3 3 8 28.19 3.68
6 -4 -8 398.39 10.51
5 -4 -8 56.39 4.22
4 -4 -8 427.18 10.38
3 -4 -8 110.2 5.41
2 -4 -8 368.85 9.16
1 -4 -8 13.73 2.49
0 4 8 561.47 11.88
0 -4 -8 571.58 11.1
-1 -4 -8 0.82 1.81
1 4 8 1.34 1.98
2 4 8 293.69 8.9
6 -5 -8 219.67 8.09
5 -5 -8 -1.26 2.03
4 -5 -8 585.64 12.84
3 -5 -8 131.17 6.02
2 -5 -8 258.15 8.01
1 -5 -8 22.39 2.93
0 -5 -8 761.13 13.7
2 5 8 137.14 6.51
5 -6 -8 23.27 3.47
4 -6 -8 334.86 10
3 -6 -8 34.15 3.87
2 -6 -8 220.62 7.87
1 -6 -8 4.07 2.21
0 -6 -8 405.01 10.19
3 -7 -8 31.9 4.11
2 -7 -8 63.25 4.96
1 -7 -8 4.17 2.72
0 -7 -8 221.91 8.1
1 -10 9 0.09 2.18
4 -10 9 28.66 4.43
5 -10 9 6.08 3.69
-1 -9 9 0.19 2.12
0 -9 9 30.54 3.52
1 -9 9 6.11 2.28
3 -9 9 -0.16 2.6
4 -9 9 24.68 4.07
5 -9 9 1.65 3.29
-2 -8 9 55.03 4.39
-1 -8 9 2.12 2.12
0 -8 9 116.14 5.53
1 -8 9 6.99 2.28
3 -8 9 5.15 2.67
4 -8 9 40.54 4.26
5 -8 9 1.23 3.05
-3 -7 9 0.01 2.01
-2 -7 9 16.71 2.81
-1 -7 9 13.36 2.55
0 -7 9 77.29 4.44
1 -7 9 8.62 2.24
2 -7 9 198.81 6.98
3 -7 9 26.22 3.45
4 -7 9 93.35 5.72
5 -7 9 0.99 2.88
6 -7 9 31.97 4.63
-4 -6 9 121.47 5.98
-3 -6 9 -0.03 1.98
-2 -6 9 91.36 4.82
-1 -6 9 28.36 2.95
0 -6 9 222.88 6.7
1 -6 9 16.99 2.53
1 -6 9 14.97 2.32
2 -6 9 160.58 6.34
3 -6 9 -0.29 2.29
4 -6 9 84.68 5.68
5 -6 9 -2.82 2.41
6 -6 9 66.64 5.99
-5 -5 9 -2.35 1.89
-4 -5 9 109.99 5.55
-3 -5 9 -0.02 1.88
-2 -5 9 299.04 8.04
-1 -5 9 -1.31 1.42
0 -5 9 252.57 6.77
0 -5 9 254.48 6.63
1 -5 9 4.47 1.69
1 -5 9 -0.64 1.72
2 -5 9 231.13 7.43
3 -5 9 13.35 3.05
4 -5 9 183.07 7.36
5 -5 9 -0.22 2.72
6 -5 9 59.29 5.53
-5 -4 9 6.72 2.44
-4 -4 9 133.94 5.71
-3 -4 9 -0.31 1.62
-2 -4 9 365.7 8.58
-1 -4 9 30.38 2.71
-1 -4 9 30.45 2.8
0 -4 9 125.92 4.74
0 -4 9 114.85 4.77
1 -4 9 3 2.19
1 -4 9 3.98 1.63
2 -4 9 246.34 7.66
3 -4 9 9.17 2.61
4 -4 9 176.15 7.36
5 -4 9 2.74 2.77
6 -4 9 10.79 3.88
-6 -3 9 64.16 4.88
-5 -3 9 6.86 2.33
-4 -3 9 110.56 5.27
-3 -3 9 12.93 2.38
-2 -3 9 512.95 10.07
-1 -3 9 4.32 1.71
-1 -3 9 5.81 1.9
0 -3 9 174.66 5.78
0 -3 9 181.64 5.37
1 -3 9 5.07 1.57
1 -3 9 5.13 2.12
2 -3 9 303.97 8.52
3 -3 9 24.24 3.31
4 -3 9 283.31 9.16
5 -3 9 -0.65 2.55
6 -3 9 32.18 4.91
-6 -2 9 70.28 4.85
-5 -2 9 23.14 3.01
-4 -2 9 213.67 6.77
-3 -2 9 1.64 1.54
-2 -2 9 236.73 6.53
-2 -2 9 233.82 6.14
-1 -2 9 93.23 4.08
-1 -2 9 100.23 4.45
0 -2 9 367.35 7.52
0 -2 9 369.29 8.39
1 -2 9 -0.72 1.18
1 -2 9 -1.56 1.82
2 -2 9 42.05 3.78
3 -2 9 27.99 3.47
4 -2 9 386.93 10.91
5 -2 9 10.69 3.66
6 -2 9 93.29 6.8
-6 -1 9 297.68 8.72
-5 -1 9 18.85 2.97
-4 -1 9 216.12 6.72
-3 -1 9 128.26 5.02
-2 -1 9 306.07 7.46
-2 -1 9 308.45 7.36
-1 -1 9 85.23 4.19
-1 -1 9 77.17 3.79
0 -1 9 1587.87 18.8
0 -1 9 1562.68 20.84
1 -1 9 147.7 4.6
1 -1 9 140.97 5.68
2 -1 9 259.6 8.14
3 -1 9 8.3 2.86
4 -1 9 154.99 7.28
5 -1 9 25.41 3.99
6 -1 9 74.17 6.25
-6 0 9 156.16 6.66
-5 0 9 20.85 2.93
-4 0 9 395.12 9.37
-3 0 9 83.07 4.29
-2 0 9 196.07 6.18
-2 0 9 204.82 6.23
-1 0 9 33.05 3.1
-1 0 9 35.28 2.89
0 0 -9 1387.41 17.57
0 0 9 1382.8 19.41
0 0 9 1372.39 17.35
1 0 9 3.46 1.96
-1 0 -9 1.44 1.3
2 0 9 169.85 6.8
3 0 9 60.32 4.8
4 0 9 302.69 9.85
5 0 9 14.36 3.54
-6 1 9 123.46 6.08
-5 1 9 3.92 2.34
-4 1 9 758.72 13.73
-3 1 9 26.36 2.9
-2 1 9 214.7 6.5
-2 1 9 214.8 6.66
-1 1 9 41 3.38
1 -1 -9 35.39 2.92
0 -1 -9 519.05 9.74
0 1 9 527.77 11
1 1 9 10.16 2.44
-1 -1 -9 7.81 1.76
2 1 9 162.26 6.82
3 1 9 0.7 2.52
4 1 9 190.15 8.04
5 1 9 23.04 4.11
6 -2 -9 68.42 4.96
5 -2 -9 51.4 4.12
4 -2 -9 488.29 11.15
3 -2 -9 13.8 2.49
2 -2 -9 109.59 4.87
1 -2 -9 6.73 1.81
-1 2 9 6.2 2.29
0 -2 -9 356.11 8.28
0 2 9 370.19 9.31
1 2 9 10.88 2.74
2 2 9 418.75 10.61
3 2 9 -0.58 2.46
4 2 9 74.53 5.83
6 -3 -9 100.86 5.87
5 -3 -9 50.33 4.12
4 -3 -9 518.65 11.77
3 -3 -9 3.25 1.93
2 -3 -9 296.19 8.24
-1 3 9 29.2 3.26
1 -3 -9 31.88 3.03
0 -3 -9 179.78 6.14
0 3 9 187.66 6.86
1 3 9 76.32 5.06
2 3 9 431.37 11.06
3 3 9 -1.29 2.39
6 -4 -9 90.57 5.56
5 -4 -9 -0.63 2.01
4 -4 -9 596.54 13.06
3 -4 -9 16.57 2.91
2 -4 -9 303.61 8.69
1 -4 -9 1.14 1.92
0 -4 -9 336.29 8.77
0 4 9 328.79 9.42
1 4 9 5.28 2.44
2 4 9 427.38 11.18
5 -5 -9 24.58 3.55
4 -5 -9 108.73 5.91
3 -5 -9 17.81 3.03
2 -5 -9 563.56 12.57
1 -5 -9 28.93 3.36
0 -5 -9 171.77 6.71
2 5 9 84.93 5.81
3 -6 -9 7.82 2.83
2 -6 -9 441.43 11.61
1 -6 -9 -2.37 2.06
0 -6 -9 146.71 6.71
1 -10 10 0.73 2.36
0 -9 10 20.96 3.19
1 -9 10 2.02 2.05
4 -9 10 41.42 4.86
5 -9 10 -4.81 2.85
-2 -8 10 40.72 4.1
-1 -8 10 5.53 2.33
0 -8 10 22.36 3.21
1 -8 10 1.18 2.01
3 -8 10 9.18 3.06
4 -8 10 109.98 6.67
5 -8 10 0.54 3.06
-3 -7 10 -1.66 2.08
-2 -7 10 45.72 4.14
-1 -7 10 6.72 2.31
0 -7 10 197.75 6.75
1 -7 10 46.59 3.61
2 -7 10 0.41 2.38
3 -7 10 3.44 2.74
4 -7 10 96.35 6.15
5 -7 10 0.34 3.03
-3 -6 10 2.05 2.04
-2 -6 10 80.82 4.71
-1 -6 10 13.26 2.53
0 -6 10 314.62 8.26
1 -6 10 2.45 1.83
1 -6 10 -0.16 2.23
2 -6 10 110.54 5.56
3 -6 10 13.33 3.29
4 -6 10 99.68 6.28
5 -6 10 14.02 3.87
-4 -5 10 45.84 4.04
-3 -5 10 78.95 4.69
-2 -5 10 58.79 4.16
-1 -5 10 -0.25 1.79
0 -5 10 314.53 7.89
0 -5 10 309.07 7.85
1 -5 10 -2.12 1.84
1 -5 10 -0.89 1.58
2 -5 10 62.27 4.51
3 -5 10 14.66 3.32
4 -5 10 171.24 7.72
5 -5 10 8.33 3.58
6 -5 10 33.93 5.16
-5 -4 10 9.91 2.97
-4 -4 10 285.22 8.69
-3 -4 10 -0.96 1.74
-2 -4 10 146.96 5.68
-1 -4 10 3.19 1.89
-1 -4 10 5.16 1.99
0 -4 10 161.93 5.57
0 -4 10 167 5.85
1 -4 10 26.57 2.64
1 -4 10 33.13 3.44
2 -4 10 71.87 4.75
3 -4 10 4.56 2.5
4 -4 10 121.38 6.7
5 -4 10 14.18 3.86
6 -4 10 54.64 5.64
-5 -3 10 9.2 2.84
-4 -3 10 119.86 5.68
-3 -3 10 16.86 2.7
-2 -3 10 105.58 4.81
-1 -3 10 10.49 2.21
-1 -3 10 15.6 2.38
0 -3 10 280.98 7.08
0 -3 10 291.16 7.81
1 -3 10 62.38 4.23
1 -3 10 63.19 3.46
2 -3 10 132.48 6.22
3 -3 10 1.06 2.35
4 -3 10 110.48 6.72
5 -3 10 0.94 3.14
6 -3 10 85.79 6.81
-5 -2 10 4.96 2.38
-4 -2 10 208.12 7.01
-3 -2 10 0.01 1.63
-2 -2 10 130.74 4.99
-2 -2 10 133.16 5.31
-1 -2 10 6.34 1.78
-1 -2 10 8.25 2.19
0 -2 10 594.68 11.59
0 -2 10 587.24 10.52
1 -2 10 -0.44 1.48
1 -2 10 0.16 2.06
2 -2 10 357.88 9.88
3 -2 10 17.26 3.49
4 -2 10 37.94 4.58
5 -2 10 31.25 4.81
-6 -1 10 133.12 6.6
-5 -1 10 4.81 2.29
-4 -1 10 237.83 7.46
-3 -1 10 9.2 2.3
-2 -1 10 154.76 5.77
-2 -1 10 155.48 5.5
-1 -1 10 -0.2 1.46
-1 -1 10 -1.51 1.72
0 -1 10 687.95 11.61
0 -1 10 694.72 13.01
1 -1 10 27.08 3.27
2 -1 10 191.57 7.38
3 -1 10 170.56 7.37
4 -1 10 413.75 11.84
5 -1 10 1.37 3.28
-6 0 10 105.69 6.12
-5 0 10 0.72 2.13
-4 0 10 595.31 12.23
-3 0 10 26.34 3.01
-2 0 10 140.96 5.58
-2 0 10 146.82 5.73
-1 0 10 30.03 2.94
-1 0 10 25.01 3.09
0 0 10 267.57 8.01
0 0 -10 267.73 7
1 0 10 51.12 4.31
2 0 10 132.19 6.48
3 0 10 -0.64 2.49
4 0 10 156.54 7.82
5 0 10 0.34 3.2
-6 1 10 19.63 3.47
-5 1 10 19.79 3.17
-4 1 10 281.68 8.53
-3 1 10 77.59 4.57
2 -1 -10 518.63 11.03
-2 1 10 523.8 11.21
-1 1 10 355.57 9.17
1 -1 -10 367.74 8.76
0 1 10 421.68 10.43
0 -1 -10 421.12 9.21
1 1 10 83.84 5.23
2 1 10 74.85 5.15
3 1 10 1.4 2.65
4 1 10 155.37 7.89
5 1 10 4.75 3.13
5 -2 -10 0.69 2.06
4 -2 -10 434.42 11.09
3 -2 -10 193.59 7.04
2 -2 -10 27.11 3.01
-1 2 10 12.51 2.64
1 -2 -10 7.45 2.08
0 2 10 320.84 9.38
0 -2 -10 321.65 8.22
1 2 10 16.7 3.26
2 2 10 195.85 7.86
3 2 10 2.79 2.59
4 2 10 108.39 6.9
5 -3 -10 4.84 2.36
4 -3 -10 309.89 9.47
3 -3 -10 22.92 3.27
2 -3 -10 212.3 7.32
1 -3 -10 37.55 3.42
0 -3 -10 389.21 9.51
0 3 10 391.86 10.42
1 3 10 9.46 3.01
2 3 10 224.74 8.59
3 3 10 38.34 4.68
3 -4 -10 0.83 2.05
2 -4 -10 383 10.31
1 -4 -10 9.17 2.57
0 -4 -10 274.81 8.24
1 4 10 -0.56 2.34
2 4 10 98.74 6.28
3 -5 -10 1.27 2.23
2 -5 -10 445.15 11.64
1 -5 -10 5.52 2.65
0 -5 -10 214.57 7.79
2 5 10 47.07 4.9
4 -9 11 9 3.46
-1 -8 11 4.16 2.41
0 -8 11 18.25 2.99
3 -8 11 -3.31 2.66
4 -8 11 33.87 4.49
-2 -7 11 36.88 3.98
-1 -7 11 4.58 2.22
0 -7 11 146.6 6.06
2 -7 11 66.4 5.1
3 -7 11 2.81 3.05
4 -7 11 30.98 4.6
5 -7 11 5.77 3.89
-3 -6 11 -0.12 2.03
-2 -6 11 21.12 3.07
-1 -6 11 -1.1 1.83
0 -6 11 194.77 6.83
1 -6 11 0.42 2.31
2 -6 11 60.7 4.86
3 -6 11 20.18 3.69
4 -6 11 65.57 5.7
5 -6 11 9.05 3.87
-3 -5 11 7.11 2.39
-2 -5 11 82.9 4.76
-1 -5 11 3.3 2.15
0 -5 11 50.79 3.77
0 -5 11 59.63 4.13
1 -5 11 23.75 3.3
2 -5 11 73.18 5.06
3 -5 11 6.19 2.94
4 -5 11 38.4 4.81
5 -5 11 9.92 3.93
-4 -4 11 76.01 4.95
-3 -4 11 34.79 3.64
-2 -4 11 85.87 4.71
-1 -4 11 48.88 3.83
0 -4 11 176.51 6.19
0 -4 11 174.47 6.38
1 -4 11 45.55 4.07
2 -4 11 170.04 7.22
3 -4 11 16.14 3.65
4 -4 11 39.19 4.86
5 -4 11 1.96 3.28
-4 -3 11 165.3 6.8
-3 -3 11 18.36 2.82
-2 -3 11 39.09 3.48
-1 -3 11 32.24 3.11
-1 -3 11 26.92 3.07
0 -3 11 148.01 5.9
0 -3 11 143.03 5.46
1 -3 11 90.04 5.28
2 -3 11 190.63 7.52
3 -3 11 -1.32 2.4
4 -3 11 22.42 3.98
5 -3 11 6.42 3.51
-5 -2 11 10.39 2.94
-4 -2 11 171.53 6.67
-3 -2 11 13.13 2.51
-2 -2 11 194.49 6.65
-2 -2 11 200.7 6.45
-1 -2 11 34.95 3.4
-1 -2 11 39.05 3.29
0 -2 11 173.12 6.04
0 -2 11 173.71 6.7
1 -2 11 1.89 2.23
2 -2 11 316.63 9.6
3 -2 11 1.62 2.81
4 -2 11 89.58 6.52
5 -2 11 9.91 3.93
-5 -1 11 16.63 3.2
-4 -1 11 137.49 6.11
-3 -1 11 9.22 2.43
-2 -1 11 317.78 8.63
-2 -1 11 315.67 8.4
-1 -1 11 1.14 2.16
-1 -1 11 0.7 1.88
0 -1 11 142.78 6.1
0 -1 11 155.74 5.66
1 -1 11 10.85 2.88
2 -1 11 174.8 7.51
3 -1 11 10.93 3.24
4 -1 11 77.12 6.16
5 -1 11 3.59 3.56
-5 0 11 4.84 2.59
-4 0 11 155.49 6.63
-3 0 11 12.32 2.73
-2 0 11 416.99 10.19
-2 0 11 421.72 10.11
-1 0 11 12.25 2.45
-1 0 11 14.87 2.94
1 0 -11 14.16 2.39
0 0 -11 250.31 7.13
0 0 11 248.03 8.07
1 0 11 4.89 2.46
2 0 11 70.68 5.52
3 0 11 40.22 4.76
4 0 11 113.54 6.98
-5 1 11 -2.46 2.12
-4 1 11 234.1 8.3
-3 1 11 63.95 4.78
3 -1 -11 58.55 4.42
2 -1 -11 23.5 3.06
-1 1 11 71.68 4.81
1 -1 -11 65.29 4.11
0 -1 -11 159.33 5.91
0 1 11 158.6 6.76
1 1 11 36.23 3.9
2 1 11 214.06 8.38
3 1 11 6.55 3.35
4 1 11 96.82 6.98
3 -2 -11 1.37 1.92
2 -2 -11 176.62 6.86
-1 2 11 -2.32 1.89
1 -2 -11 1.51 1.81
0 -2 -11 252.03 7.59
0 2 11 248.54 8.66
1 2 11 4.11 2.62
2 2 11 120.47 6.66
3 2 11 -0.08 2.63
4 -3 -11 406.51 11.51
3 -3 -11 43.79 4.17
2 -3 -11 134.28 6.29
1 -3 -11 2.59 2.03
0 -3 -11 414.57 10.35
0 3 11 414.93 11.36
1 3 11 -2.67 2.4
2 3 11 132.91 7.35
3 3 11 38.02 4.81
3 -4 -11 1.22 2.29
2 -4 -11 197.42 7.82
1 -4 -11 2.59 2.39
1 4 11 -2.27 2.78
2 4 11 86.19 6.07
0 -8 12 16.13 3.13
3 -8 12 -0.43 3.09
4 -8 12 7.1 3.41
-1 -7 12 3.23 2.31
0 -7 12 49.81 4.27
2 -7 12 57.2 5.1
3 -7 12 4.09 3.28
4 -7 12 17.06 3.99
-2 -6 12 28.18 3.54
-1 -6 12 -0.27 1.89
0 -6 12 50.95 4.04
1 -6 12 -0.07 2.41
2 -6 12 73.1 5.55
3 -6 12 -3.32 2.83
4 -6 12 31.73 4.9
-3 -5 12 0.25 2.24
-2 -5 12 79.91 5.12
-1 -5 12 9.27 2.47
0 -5 12 34.33 3.49
1 -5 12 4.25 2.51
2 -5 12 100.99 6.14
3 -5 12 -1.85 2.86
4 -5 12 27.54 4.42
-3 -4 12 16.92 2.99
-2 -4 12 76.51 4.9
-1 -4 12 8.23 2.48
0 -4 12 40.24 3.83
0 -4 12 40.49 3.63
1 -4 12 22.49 3.54
2 -4 12 65.4 5.32
3 -4 12 6.63 3.08
4 -4 12 24.42 4.46
-3 -3 12 13.93 2.88
-2 -3 12 120.03 5.57
-1 -3 12 24.39 3.04
-1 -3 12 24.01 3.11
0 -3 12 112.11 5.31
1 -3 12 2.11 2.53
2 -3 12 286.32 9.68
3 -3 12 4.78 3.05
4 -3 12 2.48 2.98
-4 -2 12 44.57 4.3
-3 -2 12 32.13 3.53
-2 -2 12 189.04 7.14
-2 -2 12 196.02 6.8
-1 -2 12 6.97 2.38
-1 -2 12 1.33 2.17
0 -2 12 94.09 4.99
0 -2 12 90.28 5.2
1 -2 12 4.64 2.83
2 -2 12 210.93 8.39
3 -2 12 14.01 3.77
4 -2 12 99.6 7.15
-4 -1 12 85.32 5.52
-3 -1 12 0.58 2.14
-2 -1 12 413.57 10.2
-2 -1 12 402.32 10.41
-1 -1 12 46.65 3.89
-1 -1 12 45.76 4.1
0 -1 12 3.58 2.29
0 1 -12 1.73 1.72
0 -1 12 2.08 2.09
1 -1 12 -0.9 2.32
2 -1 12 121.48 6.7
3 -1 12 0.5 2.9
4 -1 12 68.61 6.26
-4 0 12 13.26 3.11
-3 0 12 4.81 2.43
-2 0 12 354.33 9.9
-1 0 12 1.01 2.33
1 0 -12 0.55 1.76
0 0 12 97.06 5.61
1 0 12 -0.34 2.2
2 0 12 116.12 6.92
3 0 12 -1.19 3.04
3 -1 -12 -1.08 1.82
2 -1 -12 118.53 5.96
1 -1 -12 -0.52 1.75
-1 1 12 2.14 2.32
0 1 12 122.3 6.51
1 1 12 11.47 3.32
2 1 12 110.13 6.61
3 1 12 -0.66 2.76
3 -2 -12 10.27 2.72
2 -2 -12 118.04 6.08
-1 2 12 1.69 2.47
1 -2 -12 -3.75 1.64
0 2 12 210.22 8.46
1 2 12 3.93 2.83
2 2 12 130.61 7.54
2 -3 -12 174.72 7.5
1 -3 -12 3.85 2.36
1 3 12 6.01 3.05
3 -8 13 -2.14 3.3
0 -7 13 22.66 3.55
2 -7 13 49.15 5.02
3 -7 13 -1.76 3.16
-1 -6 13 5.97 2.69
0 -6 13 2.84 2.16
2 -6 13 35.77 4.57
3 -6 13 9.27 3.52
-2 -5 13 58.81 4.65
-1 -5 13 -0.97 1.93
0 -5 13 24.37 3.19
1 -5 13 2.91 2.8
2 -5 13 43.16 4.74
3 -5 13 5.88 3.3
-2 -4 13 63.81 4.66
-1 -4 13 5.68 2.32
0 -4 13 74.14 5.18
0 -4 13 72.12 4.76
1 -4 13 -1.66 2.59
2 -4 13 50.15 5.07
3 -4 13 -0.94 2.81
-2 -3 13 76.32 5.09
-1 -3 13 3.72 2.22
-1 -3 13 2.49 2.37
0 -3 13 134.7 6.53
1 -3 13 -2.26 2.6
2 -3 13 42.32 4.92
3 -3 13 21.98 4.38
-3 -2 13 3.82 2.62
-2 -2 13 117.06 6.17
-2 -2 13 125.09 5.95
-1 -2 13 0.02 2.07
-1 -2 13 5.49 2.4
0 -2 13 35.35 4.07
1 -2 13 17.96 3.72
2 -2 13 52.79 5.38
3 -2 13 1 3.3
-3 -1 13 18.49 3.41
-2 -1 13 196.06 7.65
-2 -1 13 202.14 7.53
-1 -1 13 64.37 4.81
-1 -1 13 59.7 4.67
0 -1 13 171.86 7.57
1 -1 13 1.44 2.84
2 -1 13 30.9 4.42
3 -1 13 13.98 4.1
-2 0 13 31.98 4.04
2 0 -13 32.44 3.86
-1 0 13 8.41 2.84
1 0 -13 11.07 2.5
0 0 13 64.4 5.25
1 0 13 -5.59 2.14
2 0 13 124.67 7.21
2 -1 -13 59.18 4.75
-1 1 13 5.14 2.75
1 -1 -13 0.85 2.17
0 1 13 114.94 6.75
1 1 13 2.81 2.86
-1 2 13 -0.32 2.5
1 -2 -13 0.34 2.28
0 2 13 154.81 7.67
1 2 13 2.99 3.02
2 -6 14 30.82 4.66
1 -5 14 0.79 2.74
2 -5 14 8.58 3.77
-1 -4 14 3.38 2.55
0 -4 14 76.68 5.29
1 -4 14 4.35 3.14
2 -4 14 36.99 4.99
-1 -3 14 5.18 2.57
-1 -3 14 3.33 2.53
0 -3 14 103.84 6.2
1 -3 14 9.36 3.41
2 -3 14 41.6 5.24
-1 -2 14 -0.13 2.22
-1 -2 14 -1.5 2.47
0 -2 14 37.56 4.5
1 -2 14 -2.33 2.75
2 -2 14 55.13 5.56
-2 -1 14 45.14 4.34
1 1 -14 0.51 2.09
-1 -1 14 3.18 2.63
0 -1 14 11.53 3.5
1 -1 14 0.53 2.8
-1 0 14 1.36 2.84
0 0 14 35.05 4.48
1 0 14 1.03 2.87
-1 1 14 -0.37 2.91
1 -5 15 -0.08 2.99
0 -4 15 33.12 4.12
1 -4 15 5.93 3.28
0 -3 15 7.41 3.27
-1 -2 15 14.96 3.67
0 -2 15 63 5.51
-1 -1 15 -0.82 2.91
