#------------------------------------------------------------------------------
#$Date: 2022-09-23 11:36:06 +0300 (Fri, 23 Sep 2022) $
#$Revision: 278109 $
#$URL: file:///home/coder/svn-repositories/cod/cif/8/10/58/8105844.cif $
#------------------------------------------------------------------------------
#
# This file is available in the Crystallography Open Database (COD),
# http://www.crystallography.net/
#
# All data on this site have been placed in the public domain by the
# contributors.
#
data_8105844
loop_
_publ_author_name
'Zhao, Ying'
_publ_section_title
;
 Crystal structure of
 dichlorido-(\m2-2,2&#x2032;-(diazene-1,2-diyl)bis(benzen-1-ido)-\k2
 C:C&#x2032;)dimercury(II), C12H8Cl2Hg2N2
;
_journal_issue                   4
_journal_name_full
'Zeitschrift f\"ur Kristallographie - New Crystal Structures'
_journal_page_first              769
_journal_page_last               770
_journal_paper_doi               10.1515/ncrs-2019-0096
_journal_volume                  234
_journal_year                    2019
_chemical_formula_moiety         'C12 H8 Cl2 Hg2 N2'
_chemical_formula_sum            'C12 H8 Cl2 Hg2 N2'
_chemical_formula_weight         652.28
_space_group_crystal_system      triclinic
_space_group_IT_number           2
_space_group_name_Hall           '-P 1'
_space_group_name_H-M_alt        'P -1'
_atom_sites_solution_hydrogens   geom
_atom_sites_solution_primary     direct
_cell_angle_alpha                102.10(3)
_cell_angle_beta                 99.54(3)
_cell_angle_gamma                98.82(3)
_cell_formula_units_Z            1
_cell_length_a                   3.9815(8)
_cell_length_b                   8.9837(18)
_cell_length_c                   9.755(2)
_cell_measurement_reflns_used    1642
_cell_measurement_temperature    296(2)
_cell_measurement_theta_max      28.04
_cell_measurement_theta_min      2.18
_cell_volume                     329.99(13)
_computing_cell_refinement       'Bruker SAINT'
_computing_data_collection       'Bruker APEX2'
_computing_data_reduction        'Bruker SAINT  A '
_computing_molecular_graphics    'Olex2 (Dolomanov et al., 2009)'
_computing_publication_material  'Olex2 (Dolomanov et al., 2009)'
_computing_structure_refinement  'ShelXL (Sheldrick, 2015)'
_computing_structure_solution    'ShelXS-1997 (Sheldrick, 2008)'
_diffrn_ambient_temperature      296.15
_diffrn_measured_fraction_theta_full 0.997
_diffrn_measured_fraction_theta_max 0.997
_diffrn_measurement_device_type  'Bruker APEX-II'
_diffrn_measurement_method       'phi and omega scans'
_diffrn_radiation_monochromator  graphite
_diffrn_radiation_type           MoK\a
_diffrn_radiation_wavelength     0.71073
_diffrn_reflns_av_R_equivalents  0.0354
_diffrn_reflns_av_unetI/netI     0.0524
_diffrn_reflns_Laue_measured_fraction_full 0.997
_diffrn_reflns_Laue_measured_fraction_max 0.997
_diffrn_reflns_limit_h_max       4
_diffrn_reflns_limit_h_min       -4
_diffrn_reflns_limit_k_max       10
_diffrn_reflns_limit_k_min       -8
_diffrn_reflns_limit_l_max       11
_diffrn_reflns_limit_l_min       -10
_diffrn_reflns_number            2145
_diffrn_reflns_point_group_measured_fraction_full 0.997
_diffrn_reflns_point_group_measured_fraction_max 0.997
_diffrn_reflns_theta_full        24.996
_diffrn_reflns_theta_max         24.996
_diffrn_reflns_theta_min         2.181
_exptl_absorpt_coefficient_mu    23.619
_exptl_absorpt_correction_T_max  0.3847
_exptl_absorpt_correction_T_min  0.0667
_exptl_absorpt_correction_type   multi-scan
_exptl_absorpt_process_details   sadabs
_exptl_crystal_colour            orange
_exptl_crystal_colour_primary    orange
_exptl_crystal_density_diffrn    3.282
_exptl_crystal_density_method    'not measured'
_exptl_crystal_description       block
_exptl_crystal_F_000             288
_exptl_crystal_size_max          0.25
_exptl_crystal_size_mid          0.1
_exptl_crystal_size_min          0.05
_refine_diff_density_max         1.905
_refine_diff_density_min         -1.979
_refine_diff_density_rms         0.346
_refine_ls_extinction_coef       .
_refine_ls_extinction_method     none
_refine_ls_goodness_of_fit_ref   1.096
_refine_ls_hydrogen_treatment    constr
_refine_ls_matrix_type           full
_refine_ls_number_parameters     82
_refine_ls_number_reflns         1160
_refine_ls_number_restraints     0
_refine_ls_restrained_S_all      1.096
_refine_ls_R_factor_all          0.0399
_refine_ls_R_factor_gt           0.0368
_refine_ls_shift/su_max          0.000
_refine_ls_shift/su_mean         0.000
_refine_ls_structure_factor_coef Fsqd
_refine_ls_weighting_details
'w=1/[\s^2^(Fo^2^)+(0.0703P)^2^] where P=(Fo^2^+2Fc^2^)/3'
_refine_ls_weighting_scheme      calc
_refine_ls_wR_factor_gt          0.1037
_refine_ls_wR_factor_ref         0.1061
_reflns_Friedel_coverage         0.000
_reflns_Friedel_fraction_full    .
_reflns_Friedel_fraction_max     .
_reflns_number_gt                1068
_reflns_number_total             1160
_reflns_threshold_expression     'I > 2\s(I)'
_cod_data_source_file            suppl_ncrs-2019-0096_suppl.cif
_cod_data_source_block           t
_cod_original_cell_volume        329.98(13)
_cod_database_code               8105844
_shelx_space_group_comment
;
The symmetry employed for this shelxl refinement is uniquely defined
by the following loop, which should always be used as a source of
symmetry information in preference to the above space-group names.
They are only intended as comments.
;
_shelx_estimated_absorpt_t_max   0.385
_shelx_estimated_absorpt_t_min   0.067
_olex2_refinement_description
;
1. Fixed Uiso
 At 1.2 times of:
  All C(H) groups
2.a Aromatic/amide H refined with riding coordinates:
 C3(H3), C4(H4), C5(H5), C6(H6)
;
_shelx_res_file
;
    t.res created by SHELXL-2014/7

TITL t in P-1
CELL 0.71073 3.9815 8.9837 9.7551 102.102 99.543 98.823
ZERR 1 0.0008 0.0018 0.002 0.03 0.03 0.03
LATT 1
SFAC C H Cl Hg N
UNIT 12 8 2 2 2

L.S. 100
PLAN  5
SIZE 0.05 0.1 0.25
TEMP 23
conf
BOND $h
fmap 2
acta
OMIT -3 50
REM <olex2.extras>
REM <HklSrc "%.\\t.hkl">
REM </olex2.extras>

WGHT    0.070300
FVAR       0.19150
HG1   4    0.124036    0.470830    0.203795    11.00000    0.03799    0.03532 =
         0.03120    0.01133    0.00470    0.01013
CL1   3   -0.161720    0.663387    0.146905    11.00000    0.04841    0.03824 =
         0.05079    0.01873    0.00479    0.01636
C1    1    0.528502    0.311443    0.399620    11.00000    0.03244    0.02414 =
         0.03724    0.01432    0.00910    0.00305
C2    1    0.350050    0.292861    0.257554    11.00000    0.03327    0.02089 =
         0.03387    0.00540    0.00983    0.00132
C3    1    0.331739    0.153602    0.161667    11.00000    0.04348    0.03881 =
         0.03103    0.00780    0.00472    0.00389
AFIX  43
H3    2    0.219580    0.139327    0.066989    11.00000   -1.20000
AFIX   0
C4    1    0.473884    0.035585    0.201708    11.00000    0.04624    0.03320 =
         0.04233    0.00623    0.01540    0.00635
AFIX  43
H4    2    0.456184   -0.056793    0.134198    11.00000   -1.20000
AFIX   0
C5    1    0.643927    0.052622    0.341996    11.00000    0.05180    0.03157 =
         0.05245    0.02097    0.02170    0.01709
AFIX  43
H5    2    0.736211   -0.027803    0.370326    11.00000   -1.20000
AFIX   0
C6    1    0.671620    0.193420    0.438426    11.00000    0.04623    0.03125 =
         0.03863    0.01445    0.00382    0.00003
AFIX  43
H6    2    0.790810    0.208143    0.532157    11.00000   -1.20000
AFIX   0
N1    5    0.566086    0.445854    0.514877    11.00000    0.04728    0.02856 =
         0.02532    0.00675    0.00937    0.01917
HKLF 4

REM  t in P-1
REM R1 =  0.0368 for    1068 Fo > 4sig(Fo)  and  0.0399 for all    1160 data
REM     82 parameters refined using      0 restraints

END

WGHT      0.0703      0.0000

REM Highest difference peak  1.905,  deepest hole -1.979,  1-sigma level  0.346
Q1    1   0.2803  0.5822  0.1770  11.00000  0.05    1.91
Q2    1  -0.0292  0.3558  0.2237  11.00000  0.05    1.88
Q3    1   0.9002  0.2995  0.6229  11.00000  0.05    1.29
Q4    1   0.2481  0.4394  0.1064  11.00000  0.05    1.06
Q5    1   0.5473  0.3845  0.4778  11.00000  0.05    0.99
;
_shelx_res_checksum              9129
_shelx_hkl_file
;
  -1   0   0  157.50    8.28
   1   0   0  158.62    9.10
  -2   0   0   -0.08    0.16
   2   0   0    0.44    0.19
   2   0   0    0.14    0.30
   2   0   0    0.12    0.42
  -3   0   0   96.68    5.24
   3   0   0   87.63    7.28
   3   0   0  100.81    6.06
  -4   0   0   68.87    4.14
   4   0   0   74.03    6.41
   4   0   0   75.43    5.07
   5   0   0    8.57    2.65
   5  -1   0    2.02    1.91
   4  -1   0   50.02    5.19
  -4   1   0   61.57    3.44
   3  -1   0  149.58    8.55
   3  -1   0  122.08   10.14
  -3   1   0  147.73    7.60
   2  -1   0   33.74    2.13
   2  -1   0   32.22    1.49
   2  -1   0   25.77    2.58
  -2   1   0   30.97    1.79
   1  -1   0  176.19   10.05
  -1   1   0  174.54    9.18
   1   1   0  699.80   39.72
   1   1   0  695.73   29.99
   1   1   0  706.11   36.49
  -2  -1   0   33.68    1.96
   2   1   0   33.68    2.37
   2   1   0   35.85    2.38
   2   1   0   33.26    2.90
   2   1   0   32.72    1.74
  -3  -1   0   64.18    3.78
   3   1   0   67.55    4.53
   3   1   0   72.08    5.58
  -4  -1   0   52.62    3.36
   4   1   0   57.68    4.32
   4   1   0   64.29    5.52
   5   1   0   11.70    2.97
   5  -2   0    0.20    1.69
  -5   2   0    0.84    0.76
   4  -2   0   44.98    4.63
  -4   2   0   51.46    3.00
   3  -2   0  127.15    9.80
   3  -2   0  140.93    8.20
  -3   2   0  138.36    7.35
   2  -2   0   53.27    4.12
   2  -2   0   55.87    3.39
   2  -2   0   52.61    2.44
  -2   2   0   55.63    3.02
  -1   2   0   17.72    1.04
   0   2   0  314.12   16.55
   1   2   0  495.47   28.03
   1   2   0  459.75   29.04
   1   2   0  520.91   25.82
  -2  -2   0   99.87    5.41
   2   2   0   99.00    6.15
   2   2   0  101.92    7.22
   2   2   0   98.77    6.45
  -3  -2   0   18.37    1.34
   3   2   0   17.31    1.85
   3   2   0   20.83    2.36
   4   2   0   40.62    4.01
   4   2   0   30.82    3.10
   5  -3   0    3.14    1.92
  -5   3   0    1.91    0.83
   4  -3   0   44.78    4.42
  -4   3   0   48.40    2.89
   3  -3   0   81.91    6.47
  -3   3   0   88.69    4.77
   2  -3   0  132.52    9.05
  -2   3   0  130.01    7.00
  -1   3   0   27.75    1.61
   0   3   0  222.76   13.49
   0   3   0  221.96   11.89
   1   3   0  334.78   19.05
   1   3   0  343.87   17.66
   1   3   0  317.59   20.05
   2   3   0   89.42    6.09
   2   3   0   81.83    4.73
   2   3   0   80.29    5.20
   2   3   0   76.13    5.68
  -3  -3   0    0.44    0.45
   3   3   0    0.72    1.00
   3   3   0   -0.22    0.74
   4   3   0   20.36    2.50
   4   3   0   25.30    2.97
   5  -4   0   -1.15    1.51
  -5   4   0    0.91    0.80
   4  -4   0   39.22    3.93
  -4   4   0   42.74    2.63
   3  -4   0  127.49    9.28
  -3   4   0  132.62    7.09
   2  -4   0   79.83    5.49
  -2   4   0   74.62    4.22
  -1   4   0    5.54    0.88
  -1   4   0    5.30    0.54
   0   4   0  232.79   11.94
   0   4   0  207.76   13.56
   1   4   0  168.39    9.87
   1   4   0  179.48   10.49
   1   4   0  196.35   11.60
   2   4   0   75.36    6.23
   2   4   0   85.51    5.18
   2   4   0   89.20    5.60
   2   4   0   99.22    6.45
  -3  -4   0   -0.04    0.53
   3   4   0   -0.07    1.06
   3   4   0   -0.65    0.81
   3   4   0   -0.50    0.81
   4   4   0   10.83    2.17
   5  -5   0    0.29    1.59
  -5   5   0   -0.28    0.72
   4  -5   0   35.52    3.43
  -4   5   0   36.04    2.37
   3  -5   0  148.12    9.91
  -3   5   0  134.45    7.63
   2  -5   0  128.03    8.60
  -2   5   0  124.11    6.81
  -1   5   0    4.21    0.59
  -1   5   0    2.60    0.80
   0   5   0  175.00   11.30
   0   5   0  180.48    9.79
   1   5   0  169.08   11.26
   1   5   0  175.67   10.11
   2   5   0   79.80    4.78
   2   5   0   71.25    5.85
   3   5   0    0.26    1.29
   4  -6   0   24.18    2.62
  -4   6   0   24.11    1.82
   3  -6   0  119.62    8.40
  -3   6   0  119.00    6.59
  -2   6   0  147.97    8.03
  -1   6   0   16.41    1.37
   0   6   0  106.38    6.28
   0   6   0  112.00    7.51
   1   6   0  195.23   12.75
   2   6   0   45.86    3.50
   2   6   0   58.16    4.76
   3   6   0    2.98    1.74
  -4   7   0    3.05    0.84
  -3   7   0   78.56    4.55
  -2   7   0  154.74    8.48
  -1   7   0   20.87    1.72
   0   7   0   20.20    2.41
   0   7   0   16.96    1.68
   1   7   0  132.71    9.26
   2   7   0   42.97    3.55
   2   7   0   62.39    4.97
   3   7   0    5.15    2.13
  -4   8   0    0.14    0.71
  -3   8   0   36.12    2.47
  -2   8   0  115.45    6.60
  -1   8   0   32.91    2.48
   0   8   0    2.74    1.24
   0   8   0    2.39    0.90
   1   8   0   45.39    3.41
   2   8   0   51.68    4.92
   3   8   0    6.62    2.37
  -4   9   0    0.61    0.87
  -3   9   0    7.14    1.13
  -2   9   0   49.30    3.33
  -1   9   0   69.23    4.56
  -1   9   0   77.96    5.72
   0   9   0    2.98    1.01
   0   9   0    1.70    1.34
   1   9   0   20.07    2.79
   1   9   0   14.35    2.05
   2   9   0   24.20    3.38
  -3  10   0    4.47    1.08
  -2  10   0   24.24    2.14
  -1  10   0   33.34    2.67
  -1  10   0   36.55    3.60
   0  10   0    5.94    1.86
   0  10   0    6.03    1.38
   1  10   0    3.00    1.69
   1  10   0    4.60    1.48
  -2  11   0   12.82    1.68
  -1  11   0   25.51    2.36
  -1  11   0   29.06    3.26
   0  11   0    3.98    1.72
   0  11   0    6.04    1.48
   1  11  -1   14.57    2.82
   1  11  -1   19.39    2.66
   0  11  -1   37.77    3.24
   0  11  -1   36.78    4.01
  -1  11  -1    6.84    1.92
  -1  11  -1    9.95    1.58
  -2  11  -1    1.98    1.02
   2  10  -1   -0.86    1.35
   1  10  -1   13.66    2.64
   1  10  -1   15.18    2.24
   0  10  -1   81.24    5.26
   0  10  -1   75.41    6.26
  -1  10  -1   51.33    4.43
  -1  10  -1   46.35    3.40
  -2  10  -1    1.04    0.82
  -3  10  -1   19.16    1.91
   2   9  -1    3.85    1.89
   2   9  -1    1.71    1.28
   1   9  -1   16.83    2.23
   1   9  -1   13.91    2.54
   0   9  -1   92.94    5.75
   0   9  -1   86.39    6.80
  -1   9  -1  109.08    7.50
  -1   9  -1  100.62    6.22
  -2   9  -1    6.11    1.13
  -3   9  -1   16.31    1.63
  -4   9  -1   30.91    2.43
   3   8  -1   13.58    2.96
   2   8  -1    7.35    2.05
   2   8  -1    2.42    1.20
   1   8  -1   11.53    1.76
   1   8  -1   13.85    2.35
   0   8  -1   59.68    4.70
   0   8  -1   51.09    3.69
  -1   8  -1  195.04   12.17
  -1   8  -1  181.91   10.50
  -2   8  -1   21.05    1.74
  -3   8  -1    7.17    1.05
  -4   8  -1   28.89    2.19
   3   7  -1   20.08    3.20
   2   7  -1   10.14    1.67
   2   7  -1   17.04    2.58
   1   7  -1    0.66    1.05
   1   7  -1   -0.11    0.87
   0   7  -1  130.31    8.99
   0   7  -1  134.44    7.72
  -1   7  -1  118.81    6.94
  -1   7  -1  122.05    8.04
  -2   7  -1   39.33    2.54
  -3   7  -1   -0.02    0.54
  -4   7  -1   22.98    1.82
   3   6  -1   35.98    3.02
   3   6  -1   38.70    4.01
   2   6  -1   23.58    2.24
   2   6  -1   25.03    3.01
   1   6  -1    1.34    0.96
   1   6  -1    0.59    0.73
   0   6  -1  106.61    7.19
   0   6  -1  102.29    6.11
  -1   6  -1  185.73   11.01
  -1   6  -1  164.65    9.61
  -2   6  -1   53.16    3.14
  -3   6  -1    0.95    0.55
   3  -6   1    0.86    0.85
  -4   6  -1   17.11    1.48
   4  -6   1   17.37    2.27
   3   5  -1   85.65    6.51
   2   5  -1   48.52    4.19
   2   5  -1   51.72    3.48
   1   5  -1    1.57    0.87
   1   5  -1    1.94    0.75
   1   5  -1    2.68    0.41
   0   5  -1  159.97   10.41
   0   5  -1  168.27    9.15
  -1   5  -1  295.00   15.72
  -2   5  -1  116.91    6.28
   2  -5   1  113.87    7.96
  -3   5  -1    1.60    0.51
   3  -5   1    0.94    0.86
  -4   5  -1   13.42    1.30
   4  -5   1   18.75    2.52
  -5   5  -1   13.68    1.45
   5  -5   1   16.18    2.83
   4   4  -1    8.78    2.10
   3   4  -1  100.34    6.93
   3   4  -1  101.42    7.40
  -3  -4   1   95.49    5.63
   2   4  -1  180.44   11.12
   2   4  -1  188.60   10.43
   2   4  -1  200.25   12.85
   2   4  -1  183.22   11.93
   1   4  -1   13.72    1.01
   1   4  -1   13.85    1.64
   1   4  -1   10.70    1.18
   0   4  -1  142.45    8.32
   0   4  -1  120.60    7.25
  -1   4  -1  650.02   33.97
  -2   4  -1  152.16    8.06
   2  -4   1  149.55   10.32
  -3   4  -1   11.17    0.94
   3  -4   1    9.63    1.61
  -4   4  -1   15.96    1.35
   4  -4   1   17.11    2.57
   5  -4   1   13.81    2.92
   4   3  -1    1.04    1.47
  -4  -3   1    3.42    0.81
   3   3  -1  118.93    8.09
   3   3  -1  117.90    7.16
   3   3  -1   92.67    6.77
  -3  -3   1  104.45    6.00
   2   3  -1  262.81   15.97
   2   3  -1  267.29   14.75
   2   3  -1  287.48   18.48
   2   3  -1  283.25   16.67
   1   3  -1  165.43    9.42
   1   3  -1  152.26    8.85
   1   3  -1  172.13   10.09
   0   3  -1   54.89    3.23
  -1   3  -1  645.29   32.34
   1  -3   1  595.43   35.12
  -2   3  -1  352.77   17.77
   2  -3   1  330.70   14.59
   2  -3   1  332.06   22.56
   2  -3   1  340.02   19.43
  -3   3  -1   38.62    2.26
   3  -3   1   37.57    2.61
   3  -3   1   35.51    3.39
  -4   3  -1   10.68    1.05
   4  -3   1   10.20    2.18
   5  -3   1   14.58    3.12
   4   2  -1    1.18    1.51
  -4  -2   1    1.01    0.62
   3   2  -1   78.21    5.20
   3   2  -1   79.01    6.23
  -3  -2   1   80.22    4.49
   2   2  -1  372.89   22.11
   2   2  -1  386.32   25.59
   2   2  -1  399.09   22.73
  -2  -2   1  380.33   20.17
   1   2  -1  269.86   14.52
   1   2  -1  212.20   12.89
   1   2  -1  251.01   13.96
   0   2  -1    4.38    0.50
  -1   2  -1  375.13   18.97
   1  -2   1  352.18   20.67
  -2   2  -1  570.26   28.99
   2  -2   1  569.38   23.83
   2  -2   1  513.18   36.63
   2  -2   1  568.30   31.69
  -3   2  -1  101.64    5.38
   3  -2   1  101.76    4.51
   3  -2   1   86.25    7.37
   3  -2   1   99.70    6.11
  -4   2  -1    3.83    0.71
   4  -2   1    2.97    1.62
   4  -2   1    5.08    1.07
   5  -2   1    8.37    2.67
   5   1  -1    6.77    2.48
   4   1  -1    0.93    1.45
  -4  -1   1    0.84    0.56
   3   1  -1   39.99    3.73
   3   1  -1   43.19    3.00
  -3  -1   1   40.18    2.45
   2   1  -1  215.19   12.02
   2   1  -1  203.83   14.04
  -2  -1   1  199.68   10.88
   1   1  -1 1000.00   50.01
   1   1  -1  921.81   54.35
   0   1  -1    1.28    0.30
  -1   1  -1  146.73    7.58
   1  -1   1  144.91    6.26
   1  -1   1  142.26    8.34
  -2   1  -1  415.88   21.98
   2  -1   1  424.93   18.12
   2  -1   1  422.15   24.12
  -3   1  -1  152.75    7.95
   3  -1   1  129.42   10.72
   3  -1   1  154.04    6.67
   3  -1   1  151.78    9.00
  -4   1  -1    2.91    0.69
   4  -1   1    2.51    1.01
   4  -1   1    3.69    1.58
   5  -1   1    4.86    2.36
   5   0  -1    8.71    2.70
  -5   0   1    8.63    1.21
   4   0  -1    1.79    1.56
  -4   0   1    3.11    0.67
   3   0  -1   22.91    2.71
  -3   0   1   29.77    1.76
   2   0  -1  168.15   12.89
   2   0  -1  203.90    8.27
  -2   0   1  194.74   10.04
  -1   0   1  679.85   35.34
   0   0  -1   17.32    1.73
   1   0   1   28.11    1.35
  -2   0  -1  268.82   14.61
   2   0   1  285.84   12.14
   2   0   1  282.86   16.18
  -3   0  -1  138.86    7.69
   3   0   1  150.97    8.85
   3   0   1  142.84    6.52
   3   0   1  142.57   10.57
   4   0   1   11.61    1.74
   4   0   1   12.28    2.57
   5   0   1    5.20    2.50
   5  -1  -1   13.65    3.04
  -5   1   1   16.55    1.55
   4  -1  -1    5.26    1.76
  -4   1   1    6.94    0.86
   3  -1  -1   31.55    3.21
  -3   1   1   36.05    2.11
   2  -1  -1  214.15   14.85
  -2   1   1  225.25   11.60
  -1   1   1  270.21   14.11
   1   1   1   11.45    0.71
  -2  -1  -1  222.29   11.70
   2   1   1  226.36   15.22
   2   1   1  226.71   13.06
   2   1   1  229.09    9.82
   2   1   1  207.30   13.49
  -3  -1  -1   75.61    4.23
   3   1   1   77.43    5.13
   3   1   1   79.49    6.18
   3   1   1   72.96    3.71
   4   1   1   22.85    3.28
   4   1   1   17.78    2.24
   5  -2  -1   23.05    3.57
  -5   2   1   20.90    1.76
   4  -2  -1   11.46    2.22
  -4   2   1   13.65    1.19
   3  -2  -1    8.27    1.53
  -3   2   1    7.49    0.77
   2  -2  -1  279.55   18.65
  -2   2   1  279.95   14.70
  -1   2   1  487.99   25.41
   0  -2  -1   82.42    7.18
   0   2   1   77.08    4.35
   1   2   1   10.17    1.27
   1   2   1   10.97    0.82
   1   2   1   10.39    0.75
  -2  -2  -1  120.28    6.35
   2   2   1  122.09    7.29
   2   2   1  101.38    7.69
   2   2   1  114.75    5.46
   2   2   1  131.86    8.53
  -3  -2  -1   83.10    4.67
   3   2   1   77.54    5.61
   3   2   1   97.09    6.76
   3   2   1   80.82    4.12
   4   2   1   10.32    1.87
   4   2   1   11.89    2.45
   5  -3  -1   27.54    3.61
  -5   3   1   27.26    2.05
   4  -3  -1   33.92    3.45
  -4   3   1   33.69    2.21
   3  -3  -1   -0.24    0.67
  -3   3   1    0.03    0.36
   2  -3  -1  249.18   16.96
  -2   3   1  260.02   13.42
  -1   3   1  567.50   29.56
   0   3   1  219.89   13.27
   1   3   1    2.41    0.78
   1   3   1    3.61    0.55
   2   3   1   99.38    6.81
   2   3   1  110.15    7.59
   2   3   1  122.12    7.94
   2   3   1  109.40    6.14
   3   3   1   67.41    5.11
   3   3   1   81.09    5.97
   4   3   1   16.19    2.74
   4   3   1   13.93    2.16
   5  -4  -1   20.40    3.29
  -5   4   1   22.94    1.83
   4  -4  -1   66.26    5.32
  -4   4   1   61.17    3.71
   3  -4  -1   10.27    1.53
  -3   4   1    9.73    0.89
   2  -4  -1  124.39    8.30
  -2   4   1  118.06    6.51
  -1   4   1  476.04   25.61
  -1   4   1  505.11   28.88
   0   4   1  193.11   12.61
   0   4   1  217.10   11.11
   1   4   1   27.95    2.55
   1   4   1   24.24    1.83
   2   4   1   89.01    5.77
   2   4   1   88.90    6.60
   2   4   1   94.92    6.54
   2   4   1   85.31    5.20
   3   4   1   79.36    6.23
   3   4   1   80.99    5.62
   4   4   1   14.03    2.22
   4   4   1   14.34    2.47
   5  -5  -1   20.34    3.05
  -5   5   1   20.10    1.72
   4  -5  -1   54.54    4.62
  -4   5   1   53.82    3.30
   3  -5  -1   42.43    3.34
  -3   5   1   37.66    2.42
   2  -5  -1   24.70    1.94
  -2   5   1   24.93    1.53
  -2   5   1   19.07    1.91
  -1   5   1  266.71   16.43
  -1   5   1  275.26   14.38
   0   5   1  368.93   18.58
   0   5   1  325.64   21.03
   1   5   1   19.11    1.63
   2   5   1   23.48    2.87
   2   5   1   22.41    2.03
   2   5   1   20.71    1.86
   3   5   1   47.34    4.66
   4  -6  -1   40.78    3.61
  -4   6   1   39.77    2.62
  -3   6   1   45.97    2.81
  -2   6   1    0.79    0.41
  -1   6   1  137.79    7.65
  -1   6   1  139.40    8.96
   0   6   1  261.67   13.77
   0   6   1  245.12   15.79
   1   6   1   67.64    5.27
   2   6   1    0.14    1.10
   3   6   1   19.07    3.15
  -4   7   1   31.24    2.22
  -3   7   1   54.66    3.32
  -2   7   1    2.95    0.64
  -1   7   1   11.36    1.30
  -1   7   1   17.25    1.99
   0   7   1  171.56   11.72
   0   7   1  189.17   10.11
   1   7   1   44.79    3.24
   2   7   1   -0.46    1.11
   3   7   1    9.77    2.57
  -4   8   1   21.43    1.82
  -3   8   1   28.78    2.06
  -2   8   1    1.46    0.65
  -1   8   1   19.76    1.87
  -1   8   1   28.47    2.68
   0   8   1   86.83    5.00
   0   8   1   71.97    5.94
   1   8   1   40.45    3.66
   1   8   1   29.53    2.70
   2   8   1    3.10    1.59
  -4   9   1   17.40    1.71
  -3   9   1   30.15    2.26
  -2   9   1    1.21    0.79
  -1   9   1   11.11    1.41
  -1   9   1   12.73    2.08
   0   9   1   49.27    4.46
   0   9   1   52.66    3.57
   1   9   1   21.33    2.87
   2   9   1    3.46    1.74
  -3  10   1   22.80    2.05
  -2  10   1    5.58    1.18
  -1  10   1    6.82    1.75
  -1  10   1    6.00    1.21
   0  10   1   29.12    3.37
   0  10   1   31.39    2.61
   1  10   1   14.37    2.55
  -2  11   1   11.50    1.61
  -1  11   1    0.38    0.91
  -1  11   1    1.27    1.42
   0  11   1   18.31    2.94
   0  11   1   25.12    2.42
   1  11  -2   10.76    2.73
   1  11  -2   19.14    2.68
   0  11  -2    6.62    2.07
   0  11  -2    6.05    1.72
  -1  11  -2   14.40    2.54
  -1  11  -2   13.80    1.88
  -2  11  -2   35.65    2.80
   2  10  -2    7.91    1.96
   2  10  -2   11.60    2.67
   1  10  -2   25.30    3.03
   1  10  -2   30.80    3.80
   0  10  -2   10.76    1.74
   0  10  -2    6.14    1.95
  -1  10  -2    9.52    1.50
  -1  10  -2    7.83    1.90
  -2  10  -2   29.69    2.47
  -3  10  -2   27.13    2.36
   2   9  -2   13.69    2.29
   2   9  -2   30.03    3.64
   1   9  -2   18.32    2.49
   1   9  -2   22.35    3.10
   0   9  -2   38.48    3.81
   0   9  -2   38.86    3.15
  -1   9  -2    6.52    1.19
  -1   9  -2    4.88    1.52
  -2   9  -2   31.29    2.46
  -3   9  -2   28.39    2.27
   3   8  -2    1.56    1.84
   3   8  -2    0.91    1.27
   2   8  -2   17.32    2.25
   1   8  -2   54.80    4.17
   0   8  -2   29.13    3.09
   0   8  -2   31.86    2.65
  -1   8  -2    6.66    1.11
  -1   8  -2    4.31    1.29
  -2   8  -2   33.58    2.48
  -3   8  -2   45.88    3.02
  -4   8  -2   10.71    1.34
   3   7  -2   -0.61    0.94
   3   7  -2    0.49    1.53
   2   7  -2   40.59    3.84
   2   7  -2   29.62    2.85
   1   7  -2  164.33   11.04
   0   7  -2   90.93    5.23
   0   7  -2   71.70    5.80
  -1   7  -2    1.96    0.72
  -1   7  -2    1.45    0.77
  -2   7  -2   52.76    3.31
  -3   7  -2   80.53    4.69
  -4   7  -2   12.87    1.34
   3   6  -2    0.88    1.27
   3   6  -2    0.03    0.87
   2   6  -2   28.18    2.50
   2   6  -2   27.99    3.03
   1   6  -2  230.50   14.60
   0   6  -2  252.63   16.32
   0   6  -2  279.07   14.62
  -1   6  -2    5.11    0.92
  -1   6  -2    8.59    1.13
  -2   6  -2   77.25    4.45
   2  -6   2   77.41    5.52
  -3   6  -2  109.38    6.18
   3  -6   2  115.12    8.03
   3  -6   2  109.66    5.07
  -4   6  -2   32.33    2.35
   4  -6   2   39.48    3.58
  -4  -5   2   23.93    2.13
   3   5  -2   18.19    2.46
   2   5  -2   12.76    1.54
   2   5  -2   11.35    1.75
   1   5  -2  270.45   16.08
   1   5  -2  250.94   14.32
   0   5  -2  407.24   23.58
   0   5  -2  478.98   26.37
  -1   5  -2   78.19    4.73
  -1   5  -2   67.38    4.29
  -2   5  -2   34.82    2.16
   2  -5   2   35.26    2.29
  -3   5  -2  154.27    8.25
   3  -5   2  146.97    6.77
   3  -5   2  155.43   10.81
  -4   5  -2   55.29    3.39
   4  -5   2   57.70    5.00
   4   4  -2   26.09    3.05
  -4  -4   2   23.33    2.01
   3   4  -2   42.18    3.66
  -3  -4   2   39.18    2.66
   2   4  -2    0.13    0.60
   2   4  -2    0.52    0.67
   2   4  -2    1.48    0.60
   1   4  -2  199.72   10.84
   1   4  -2  193.60   12.06
   0   4  -2  741.95   43.35
  -1   4  -2  172.24    8.97
   1  -4   2  159.56    9.48
  -2   4  -2    0.01    0.28
   2  -4   2    0.42    0.31
  -3   4  -2  124.93    6.48
   3  -4   2  114.60    5.36
   3  -4   2  117.79    8.71
   3  -4   2  116.01    7.17
  -4   4  -2   76.72    4.36
   4  -4   2   74.16    4.96
   4  -4   2   74.24    6.35
   5  -4   2    9.27    2.77
   4   3  -2   43.36    4.08
  -4  -3   2   34.83    2.57
   3   3  -2   56.19    4.46
  -3  -3   2   48.44    3.12
   2   3  -2    1.23    0.60
   2   3  -2    1.17    0.50
   2   3  -2    1.89    0.73
   1   3  -2  127.98    7.65
   1   3  -2  119.48    6.85
   0   3  -2  490.11   28.64
  -1   3  -2  531.49   25.50
   1  -3   2  443.52   27.61
  -2   3  -2   13.79    0.92
   2  -3   2   12.08    0.76
   2  -3   2   12.57    1.11
  -3   3  -2   81.05    4.47
   3  -3   2   81.39    3.78
   3  -3   2   79.87    5.10
   3  -3   2   79.94    6.39
  -4   3  -2   48.72    2.97
   4  -3   2   46.99    4.74
   4  -3   2   50.76    3.59
   5  -3   2   16.07    3.29
   5   2  -2    3.88    2.34
  -5  -2   2    5.68    1.15
   4   2  -2   48.93    4.40
  -4  -2   2   37.44    2.64
   3   2  -2   58.66    4.90
  -3  -2   2   59.36    3.46
   2   2  -2   13.98    1.54
  -2  -2   2   14.46    1.04
   1   2  -2  103.17    5.66
   0   2  -2  376.36   18.64
   0   2  -2  332.93   30.43
  -1   2  -2  415.49   21.68
  -2   2  -2   39.64    2.20
   2  -2   2   38.83    1.88
   2  -2   2   37.69    2.58
  -3   2  -2   25.62    1.59
   3  -2   2   20.83    2.76
   3  -2   2   24.09    1.45
   3  -2   2   26.75    2.08
   4  -2   2   46.25    3.30
   4  -2   2   32.92    4.06
   5  -2   2   10.40    2.87
   5   1  -2    3.63    2.28
  -5  -1   2    4.58    1.02
   4   1  -2   51.11    4.80
  -4  -1   2   48.14    3.02
   3   1  -2   77.13    6.01
  -3  -1   2   75.51    4.29
   2   1  -2   77.21    5.95
  -2  -1   2   86.58    4.51
   1   1  -2  435.98   22.82
   0   1  -2  181.05   15.83
   1  -1   2  306.24   13.18
  -2   1  -2   55.72    3.03
   2  -1   2   53.59    3.56
   2  -1   2   56.75    2.64
  -3   1  -2   10.29    0.88
   3  -1   2   11.24    0.89
   3  -1   2    7.93    1.77
   3  -1   2   12.67    1.39
   4  -1   2   42.66    3.27
   4  -1   2   32.21    4.02
   5   0  -2    3.14    2.10
  -5   0   2    3.08    0.89
   4   0  -2   59.12    5.43
  -4   0   2   60.81    3.58
   3   0  -2  128.28   10.20
  -3   0   2  154.38    7.74
   2   0  -2   34.80    2.93
  -2   0   2   37.60    2.11
  -1   0   2   32.55    1.81
   0   0  -2  303.30   26.34
   1   0   2  581.66   24.95
  -2   0  -2   25.90    1.50
   2   0   2   27.02    1.45
   2   0   2   24.55    1.96
  -3   0  -2    4.47    0.55
   3   0   2    4.26    1.02
   3   0   2    3.20    0.56
   3   0   2    4.66    1.43
   4   0   2   23.39    2.59
   4   0   2   28.42    3.48
   5  -1  -2   -0.53    1.52
  -5   1   2    0.36    0.71
   4  -1  -2   40.73    4.18
  -4   1   2   44.18    2.69
   3  -1  -2  197.99   14.15
  -3   1   2  208.38   10.87
   2  -1  -2  183.87   12.80
  -2   1   2  193.97   10.02
  -1   1   2   29.72    1.66
   0   1   2  480.80   20.62
   1   1   2  636.60   27.36
   1   1   2  637.23   37.17
  -2  -1  -2   78.80    4.26
   2   1   2   83.06    5.11
   2   1   2   82.96    3.78
   2   1   2   70.46    5.38
   3   1   2    0.90    0.47
   3   1   2    0.94    0.85
   3   1   2    1.43    1.06
   4   1   2   20.95    2.52
   4   1   2   20.87    3.23
   5  -2  -2    0.77    1.61
  -5   2   2    0.08    0.69
   4  -2  -2   16.44    2.48
  -4   2   2   13.98    1.26
   3  -2  -2  238.39   16.76
  -3   2   2  251.07   13.03
   2  -2  -2  281.22   19.28
  -2   2   2  298.57   15.26
  -1   2   2   30.97    1.74
   0  -2  -2  364.26   30.30
   0   2   2  335.10   15.06
   0   2   2  346.30   20.42
   1   2   2  534.71   27.20
   1   2   2  522.69   22.51
   1   2   2  503.95   30.67
  -2  -2  -2  163.63    8.71
   2   2   2  157.75    9.98
   2   2   2  169.91    7.51
   2   2   2  167.89   10.64
   3   2   2    0.76    0.93
   3   2   2    1.10    1.05
   3   2   2    0.90    0.50
   4   2   2   11.18    2.07
   4   2   2   14.60    2.63
   5  -3  -2    4.17    1.98
  -5   3   2    2.94    0.86
   4  -3  -2    9.03    1.91
  -4   3   2    8.19    0.97
   3  -3  -2  136.13    9.67
  -3   3   2  137.42    7.42
   2  -3  -2  344.24   22.66
  -2   3   2  355.18   20.07
  -2   3   2  329.41   17.98
  -1   3   2   61.91    3.42
  -1   3   2   64.28    3.98
   0   3   2   23.90    1.71
   0   3   2   17.91    1.34
   1   3   2  387.73   24.59
   1   3   2  439.85   21.72
   1   3   2  406.99   17.98
   2   3   2  164.23   10.44
   2   3   2  167.26    7.87
   2   3   2  187.29   11.33
   3   3   2   11.79    1.79
   3   3   2   15.95    2.29
   4   3   2    5.65    1.93
   4   3   2    2.71    1.67
   5  -4  -2    3.29    1.85
  -5   4   2    3.42    0.89
   4  -4  -2    1.90    1.23
  -4   4   2    0.72    0.59
   3  -4  -2   87.39    6.37
  -3   4   2   86.71    4.86
   2  -4  -2  229.14   14.95
  -2   4   2  216.92   13.36
  -2   4   2  226.43   11.87
  -1   4   2  133.79   10.99
  -1   4   2  114.79    6.60
  -1   4   2  122.23    7.64
   0  -4  -2    1.13    0.87
   0   4   2    1.56    0.46
   0   4   2    0.89    0.52
   1   4   2  168.30    8.92
   1   4   2  155.66   10.38
   2   4   2  158.99   10.97
   2   4   2  164.37    9.74
   2   4   2  147.86   10.51
   3   4   2   21.93    2.54
   3   4   2   27.24    2.63
   4   4   2    1.64    1.54
   5  -5  -2    5.25    1.85
  -5   5   2    3.68    0.93
   4  -5  -2    0.35    1.07
  -4   5   2    0.45    0.60
   3  -5  -2   36.04    3.09
  -3   5   2   38.89    2.36
  -2   5   2  193.53    9.90
  -2   5   2  175.98   11.29
  -1   5   2   92.06    5.48
  -1   5   2   95.78    6.48
  -1   5   2  112.32    9.11
   0  -5  -2    0.83    0.81
   0   5   2   -0.09    0.41
   0   5   2    0.89    0.46
   1   5   2   53.30    4.21
   2   5   2   87.50    5.37
   2   5   2   68.68    6.02
   4  -6  -2   -0.64    0.97
  -4   6   2   -0.34    0.60
  -3   6   2   56.16    3.33
  -2   6   2   78.35    4.23
  -2   6   2   68.91    5.06
  -1   6   2   85.80    6.02
  -1   6   2   90.94    5.06
   0   6   2    3.36    0.72
   0   6   2    1.44    0.81
   1   6   2   34.36    3.24
   2   6   2   51.92    4.65
   3   6   2   13.94    2.82
  -4   7   2    0.74    0.71
  -3   7   2   38.58    2.51
  -2   7   2   76.28    4.30
  -2   7   2   70.83    5.24
  -1   7   2   85.18    5.79
  -1   7   2   76.65    4.75
   0   7   2    1.58    0.92
   0   7   2    2.70    0.76
   1   7   2   23.48    2.67
   2   7   2   31.57    3.52
   3   7   2   13.02    2.79
  -4   8   2    6.85    1.11
  -3   8   2   11.36    1.25
  -2   8   2   79.02    4.68
  -1   8   2   67.11    4.37
  -1   8   2   75.39    5.40
   0   8   2    6.90    1.07
   0   8   2    4.93    1.38
   1   8   2    2.65    1.26
   2   8   2   22.87    3.16
  -3   9   2    1.33    0.75
  -2   9   2   34.93    2.58
  -1   9   2   76.83    5.64
  -1   9   2   67.60    4.45
   0   9   2   17.55    2.59
   0   9   2   23.58    2.02
   1   9   2    0.49    1.04
   2   9   2    6.68    1.96
  -3  10   2    0.84    0.83
  -2  10   2   12.16    1.56
  -1  10   2   46.32    4.23
  -1  10   2   44.51    3.18
   0  10   2   21.97    2.98
   1  10   2    0.23    1.19
  -1  11   2   29.03    2.44
  -1  11   2   26.60    3.39
   1  11  -3    1.02    1.97
   1  11  -3    2.92    1.82
   0  11  -3   27.64    2.92
   0  11  -3   31.24    3.83
  -1  11  -3   19.83    2.20
  -1  11  -3   14.91    2.69
  -2  11  -3    4.94    1.30
   2  10  -3    0.80    1.72
   2  10  -3    1.48    1.59
   1  10  -3    1.78    1.74
   1  10  -3    0.98    1.52
   0  10  -3   60.44    4.34
   0  10  -3   49.40    4.82
  -1  10  -3   56.26    3.93
  -1  10  -3   55.47    4.75
  -2  10  -3    8.77    1.44
  -3  10  -3    0.52    0.98
   2   9  -3    4.35    1.71
   2   9  -3   10.24    2.51
   1   9  -3    0.12    1.37
   1   9  -3   -0.91    1.14
   0   9  -3   79.75    5.24
   0   9  -3   73.12    5.96
  -1   9  -3  117.87    6.72
  -1   9  -3  102.87    7.61
  -2   9  -3   22.79    2.04
  -3   9  -3    1.24    0.93
   3   8  -3   13.31    2.30
   2   8  -3   57.97    5.30
   1   8  -3    0.48    1.16
   1   8  -3   -0.03    1.12
   0   8  -3   60.09    3.96
   0   8  -3   45.49    4.21
  -1   8  -3  180.64    9.60
  -1   8  -3  154.87   10.66
  -2   8  -3   78.92    4.89
  -3   8  -3    1.08    0.76
  -4   8  -3   15.72    1.65
   3   7  -3   19.39    2.54
   2   7  -3   71.57    5.28
   2   7  -3   81.98    6.17
   1   7  -3   44.32    3.66
   1   7  -3   32.11    3.07
   0   7  -3   30.76    2.65
   0   7  -3   32.23    2.87
  -1   7  -3  220.46   12.08
  -1   7  -3  215.35   13.39
  -2   7  -3  147.85    8.34
  -3   7  -3   16.33    1.46
  -4   7  -3    9.50    1.23
  -4  -6   3    0.73    1.00
   3   6  -3   16.17    2.06
   2   6  -3  104.28    6.70
   2   6  -3  110.41    7.59
   1   6  -3   57.08    4.44
   1   6  -3   78.37    5.12
   0   6  -3    1.75    0.80
   0   6  -3    1.49    0.71
  -1   6  -3  175.76    9.83
  -2   6  -3  206.86   11.71
   2  -6   3  224.98   12.51
  -3   6  -3   47.46    2.99
   3  -6   3   46.18    2.44
   3  -6   3   51.76    4.15
   3  -6   3   49.57    3.23
  -4   6  -3    0.14    0.69
   4  -6   3    0.52    1.23
  -4  -5   3   -0.08    0.86
   3   5  -3   34.38    2.90
   3   5  -3   37.87    3.31
   2   5  -3  104.56    6.54
   2   5  -3  111.93    7.64
   2   5  -3  108.40    7.33
   1   5  -3  119.34    7.93
   1   5  -3  158.63    8.95
   0   5  -3    2.01    0.71
   0   5  -3    4.84    0.80
  -1   5  -3   66.14    4.15
   1  -5   3   68.86    4.01
  -2   5  -3  221.60   11.62
   2  -5   3  211.44   12.51
  -3   5  -3   70.59    4.09
   3  -5   3   71.19    3.41
   3  -5   3   70.60    5.69
   3  -5   3   72.15    4.53
   4  -5   3    0.96    0.79
   4  -5   3    0.20    1.20
   4   4  -3   -1.40    1.18
  -4  -4   3    0.88    0.82
   3   4  -3   39.97    3.41
  -3  -4   3   33.81    2.45
   2   4  -3  173.93   11.43
   2   4  -3  158.76    9.35
   1   4  -3  132.24    7.50
   0   4  -3    6.74    0.89
  -1   4  -3   82.44    4.86
   1  -4   3   84.52    4.90
  -2   4  -3  210.14   10.68
   2  -4   3  198.00   11.63
   2  -4   3  192.29    8.77
  -3   4  -3   60.00    3.43
   3  -4   3   59.50    2.91
   3  -4   3   58.44    3.92
   4  -4   3    5.61    1.18
   4  -4   3    5.80    1.99
   4   3  -3    1.87    1.53
  -4  -3   3    1.63    0.79
   3   3  -3   49.14    4.12
  -3  -3   3   46.40    2.96
   2   3  -3  192.98   10.99
   2   3  -3  209.71   13.71
   1   3  -3  251.48   13.50
   0   3  -3   29.64    1.98
   0   3  -3   31.65    3.03
  -1   3  -3  116.97    6.45
  -2   3  -3  250.96   12.57
   2  -3   3  234.50   13.79
   2  -3   3  227.44   10.37
  -3   3  -3   56.43    3.25
   3  -3   3   58.00    2.83
   3  -3   3   55.67    3.82
   4  -3   3   10.10    1.50
   4  -3   3    8.43    2.31
   5   2  -3   13.54    3.09
  -5  -2   3   12.74    1.55
   4   2  -3    8.77    2.14
  -4  -2   3    7.09    1.02
   3   2  -3    4.67    1.34
  -3  -2   3    4.97    0.71
   2   2  -3  466.21   31.90
  -2  -2   3  499.00   25.32
   1   2  -3  308.01   16.29
   0   2  -3   66.96    6.60
   0   2  -3   75.37    3.96
  -1   2  -3   78.52    4.02
   1  -2   3   66.78    3.25
  -2   2  -3  261.06   13.15
   2  -2   3  244.08   10.93
   2  -2   3  244.38   14.55
   3  -2   3  127.09    6.01
   3  -2   3  134.96    8.12
   4  -2   3    3.90    1.22
   4  -2   3    3.62    1.88
   5   1  -3   22.52    3.65
  -5  -1   3   17.28    1.68
   4   1  -3   23.77    2.96
  -4  -1   3   22.28    1.70
   3   1  -3    1.13    0.85
  -3  -1   3    1.22    0.43
   2   1  -3  208.10   15.38
  -2  -1   3  246.95   12.10
   1   1  -3  679.33   35.46
   0   1  -3  262.73   26.87
   0  -1   3  351.64   13.27
   1  -1   3   37.27    1.79
  -2   1  -3  235.52   12.16
   2  -1   3  227.69   10.19
   3  -1   3  144.27    8.90
   3  -1   3  142.00    6.59
   4  -1   3   14.42    2.96
   4  -1   3   17.34    2.12
   5   0  -3   16.98    3.25
  -5   0   3   18.15    1.63
   4   0  -3   31.14    3.56
  -4   0   3   35.61    2.27
   3   0  -3    4.43    1.18
  -3   0   3    4.86    0.61
   2   0  -3  102.85    7.49
  -2   0   3  110.42    6.34
  -2   0   3  105.66    5.75
  -1   0   3  681.02   39.51
  -1   0   3  682.68   35.47
   0   0   3  753.52   32.21
   1   0   3    1.20    0.29
   1   0   3    1.60    0.26
  -2   0  -3  103.00    5.59
   2   0   3  102.65    4.87
   2   0   3  111.54    6.78
   3   0   3  158.05    9.72
   3   0   3  152.13    7.13
   4   0   3   36.70    4.28
   4   0   3   30.21    3.19
   5  -1  -3    7.91    2.41
  -5   1   3    9.91    1.21
   4  -1  -3   50.98    4.74
  -4   1   3   53.10    3.17
   3  -1  -3   16.02    1.92
  -3   1   3   15.85    1.17
   2  -1  -3   46.01    3.50
  -2   1   3   45.62    2.57
  -2   1   3   44.46    2.79
  -1   1   3  464.45   27.18
  -1   1   3  471.01   24.37
   0  -1  -3  533.51   50.23
   0   1   3  600.58   33.77
   0   1   3  606.31   24.93
   1   1   3   96.30    4.32
   1   1   3   91.55    5.80
   2   1   3   52.12    2.71
   2   1   3   54.52    3.96
   3   1   3   98.96    4.84
   3   1   3   99.05    6.68
   4   1   3   34.22    3.63
   4   1   3   44.92    4.56
   5  -2  -3   10.78    2.58
  -5   2   3   11.72    1.32
   4  -2  -3   45.64    4.12
  -4   2   3   42.33    2.70
   3  -2  -3   24.73    2.46
  -3   2   3   25.49    1.66
   2  -2  -3   17.18    1.65
  -2   2   3   18.43    1.26
  -2   2   3   16.74    1.15
  -1   2   3  234.53   12.94
  -1   2   3  262.42   21.65
  -1   2   3  246.08   14.52
   0  -2  -3  601.20   45.62
   0   2   3  487.11   30.57
   0   2   3  488.81   22.57
   1   2   3   90.91    5.88
   1   2   3   93.13    4.33
   2   2   3    5.14    1.18
   2   2   3    5.09    0.68
   3   2   3   73.20    5.51
   3   2   3   60.28    3.29
   3   2   3   52.05    4.52
   4   2   3   33.41    3.84
   4   2   3   28.48    3.37
   5  -3  -3   12.56    2.65
  -5   3   3   13.76    1.38
   4  -3  -3   55.55    4.53
  -4   3   3   47.80    3.07
   3  -3  -3   32.09    2.80
  -3   3   3   30.36    1.96
   2  -3  -3   15.14    1.50
  -2   3   3   15.48    1.22
  -2   3   3   15.61    1.07
  -1   3   3  102.36    6.37
  -1   3   3  104.97    9.45
  -1   3   3  104.50    5.55
   0   3   3  369.84   21.09
   0   3   3  330.80   18.73
   0   3   3  370.49   15.56
   1   3   3   78.32    3.81
   1   3   3   80.92    4.34
   1   3   3   73.11    5.22
   2   3   3    0.69    0.43
   2   3   3    0.54    0.84
   3   3   3   21.06    1.74
   3   3   3   34.08    3.14
   3   3   3   24.12    2.68
   4   3   3   21.07    3.15
   5  -4  -3   15.00    2.65
  -5   4   3    9.95    1.24
   4  -4  -3   50.16    4.32
  -4   4   3   49.94    3.08
   3  -4  -3   54.15    4.33
  -3   4   3   58.11    3.30
   2  -4  -3    2.17    0.66
  -2   4   3    2.19    0.42
  -2   4   3    3.11    0.61
  -1   4   3  176.91   15.24
  -1   4   3  171.69   10.43
  -1   4   3  166.10    9.09
   0   4   3  174.32   10.63
   0   4   3  170.09    9.28
   1   4   3   51.40    3.91
   2   4   3    2.27    1.16
   3   4   3   37.46    3.27
   3   4   3   29.73    3.27
   5  -5  -3    6.26    1.94
  -5   5   3    6.05    1.06
   4  -5  -3   66.42    4.94
  -4   5   3   55.16    3.58
   3  -5  -3   71.79    5.09
  -3   5   3   65.30    3.91
  -2   5   3    2.20    0.46
  -2   5   3    2.35    0.69
  -1   5   3   96.37    6.22
  -1   5   3   98.40    8.84
  -1   5   3   90.93    5.21
   0   5   3  169.72   11.71
   0   5   3  205.69   10.25
   1   5   3   53.29    4.19
   2   5   3    2.37    1.22
  -4   6   3   61.67    3.75
  -3   6   3   50.15    3.03
  -2   6   3   35.85    3.08
  -2   6   3   43.17    2.49
  -1   6   3   40.70    2.54
  -1   6   3   39.71    3.21
   0   6   3  171.98    8.56
   0   6   3  133.76    9.88
   1   6   3   65.41    5.07
   2   6   3    1.96    1.27
  -4   7   3   21.27    1.72
  -3   7   3   75.48    4.41
  -2   7   3   33.15    2.96
  -2   7   3   35.14    2.25
  -1   7   3    5.64    1.26
  -1   7   3    5.94    0.94
   0   7   3   84.43    4.39
   0   7   3   55.42    5.11
   1   7   3   71.65    5.59
   2   7   3    8.04    1.95
  -4   8   3   11.68    1.36
  -3   8   3   37.81    2.54
  -2   8   3   39.53    3.53
  -2   8   3   42.68    2.75
  -1   8   3   -0.31    0.57
  -1   8   3    0.27    0.86
   0   8   3   21.90    2.56
   1   8   3   47.38    4.29
   2   8   3   13.16    2.46
  -3   9   3   25.59    2.06
  -2   9   3   24.77    2.07
  -1   9   3    3.36    0.91
  -1   9   3    3.36    1.42
   0   9   3    8.47    1.87
   1   9   3   20.97    2.88
  -2  10   3   15.40    1.74
  -1  10   3    1.62    1.31
   0  10   3    0.35    1.21
   1  11  -4   30.71    3.78
   0  11  -4   24.13    2.96
  -1  11  -4    1.65    1.24
  -2  11  -4   26.30    2.39
   2  10  -4    2.63    1.92
   1  10  -4   56.80    5.64
   1  10  -4   68.73    5.29
   0  10  -4   56.38    4.39
   0  10  -4   53.09    4.91
  -1  10  -4    1.80    1.13
  -2  10  -4   25.51    2.28
  -3  10  -4   26.96    2.44
   2   9  -4    6.51    2.03
   1   9  -4   41.08    3.89
   1   9  -4   41.09    4.17
   0   9  -4   80.52    5.48
   0   9  -4   76.48    6.03
  -1   9  -4   29.71    2.54
  -2   9  -4   15.58    1.82
  -3   9  -4   34.17    2.72
   3   8  -4    2.43    1.64
   2   8  -4    2.77    1.41
   1   8  -4   28.96    2.99
   0   8  -4  115.00    7.25
  -1   8  -4   64.56    4.28
  -2   8  -4    2.87    1.01
  -3   8  -4   32.68    2.54
  -4   8  -4   25.98    2.27
   3   7  -4    6.35    1.81
   2   7  -4    0.93    1.08
   1   7  -4   56.26    4.28
   0   7  -4  145.09    8.65
  -1   7  -4   69.82    4.47
  -2   7  -4    0.62    0.72
  -3   7  -4   30.35    2.36
   3  -7   4   34.04    1.87
  -4  -6   4   17.77    1.98
   3   6  -4   14.73    2.04
   2   6  -4   -0.19    0.75
   1   6  -4   85.35    5.54
   0   6  -4  101.86    6.23
  -1   6  -4  115.64    6.76
  -2   6  -4    0.05    0.58
  -3   6  -4   25.43    1.84
   3  -6   4   22.28    1.40
   3  -6   4   21.27    1.83
   4  -6   4   33.13    2.71
   4  -6   4   37.31    4.05
  -4  -5   4   22.95    2.08
   3   5  -4   51.18    4.13
   3   5  -4   46.60    3.60
   2   5  -4    3.84    1.00
   1   5  -4  119.09    7.70
  -1  -5   4  144.56   12.02
   0   5  -4  235.60   12.98
  -1   5  -4  191.76    9.66
   1  -5   4  157.62    9.88
  -2   5  -4    1.61    0.61
   2  -5   4    0.73    0.40
   2  -5   4    1.69    0.36
  -3   5  -4   28.43    2.00
   3  -5   4   29.07    2.21
   3  -5   4   29.20    1.66
   4  -5   4   35.52    2.89
   4  -5   4   36.69    4.21
   4   4  -4   38.81    3.80
  -4  -4   4   35.44    2.69
   3   4  -4   91.25    6.59
  -3  -4   4   82.41    5.07
   2   4  -4   31.36    2.41
   2   4  -4   33.62    2.79
   1   4  -4   42.21    2.84
  -1  -4   4   42.68    4.32
   0   4  -4  489.43   27.03
   0   4  -4  531.03   43.93
  -1   4  -4  352.70   18.86
  -2   4  -4    4.71    0.70
   2  -4   4    4.52    0.48
   2  -4   4    3.91    0.63
   3  -4   4    7.13    0.76
   3  -4   4    8.15    1.10
   4  -4   4   54.47    4.03
   4  -4   4   56.72    5.59
   4   3  -4   22.42    2.84
  -4  -3   4   20.14    1.80
   3   3  -4  166.60   11.27
  -3  -3   4  151.12    8.68
   2   3  -4   79.29    5.68
   2   3  -4   74.51    4.56
   1   3  -4    9.59    0.95
   0   3  -4  419.72   36.34
   0   3  -4  419.77   22.15
  -1   3  -4  400.66   24.39
   1  -3   4  490.16   19.93
   1  -3   4  494.72   26.89
  -2   3  -4  109.67    5.55
   2  -3   4   94.60    4.59
   2  -3   4   97.49    6.14
   3  -3   4   10.76    1.34
   3  -3   4   11.80    0.97
   4  -3   4   42.82    3.35
   4  -3   4   34.09    4.41
   5   2  -4   -2.29    1.79
  -5  -2   4    0.29    0.83
   4   2  -4   10.99    2.34
  -4  -2   4   11.99    1.24
   3   2  -4  159.04   11.34
  -3  -2   4  160.23    8.71
   2   2  -4   98.54    7.46
  -2  -2   4  111.23    5.78
   1   2  -4   16.26    1.18
   0   2  -4  211.65   19.61
   0   2  -4  227.77   11.73
   0  -2   4  223.28   12.96
   1  -2   4  552.06   31.72
   1  -2   4  540.55   23.47
  -2   2  -4  206.22   10.62
   2  -2   4  194.13    8.87
   3  -2   4    0.28    0.67
   3  -2   4    0.12    0.35
   4  -2   4   28.88    2.82
   4  -2   4   22.88    3.86
   5   1  -4    0.78    2.00
  -5  -1   4   -0.65    0.70
   4   1  -4   14.17    2.51
  -4  -1   4   11.66    1.18
   3   1  -4   63.41    5.39
  -3  -1   4   73.39    3.99
   2   1  -4  185.20   13.28
  -2  -1   4  204.67   10.40
  -1  -1   4   70.97    3.08
  -1  -1   4   69.76    4.24
  -1  -1   4   68.01    6.70
   0   1  -4  183.22    9.37
   0   1  -4  154.58   16.00
   0  -1   4  184.20   10.46
   0  -1   4  185.45    7.74
   1  -1   4  262.87   11.55
   1  -1   4  267.56   15.53
   2  -1   4  239.62   10.60
   3  -1   4   14.23    1.18
   3  -1   4   16.19    1.85
   4  -1   4   11.40    2.07
   4  -1   4   12.74    2.93
   5   0  -4    0.65    1.86
  -5   0   4    1.67    0.83
   4   0  -4    8.87    2.04
  -4   0   4   10.31    1.06
   3   0  -4   87.66    6.86
  -3   0   4   94.48    5.13
  -3   0   4   93.28    5.58
   2   0  -4  141.69    9.99
  -2   0   4  144.03    8.58
  -2   0   4  148.32    7.75
  -1   0   4   76.24    4.64
  -1   0   4   77.93    3.39
  -1   0   4   77.13    7.31
  -1   0   4   76.00    4.13
   0   0   4   35.33    2.28
   0   0   4   36.12    1.73
   1   0   4  246.57   10.70
   1   0   4  241.52   14.39
   2   0   4  182.54   11.10
   2   0   4  179.10    8.16
   3   0   4   26.03    1.70
   3   0   4   25.93    2.55
   4   0   4    2.12    1.92
   4   0   4    2.77    1.60
   5  -1  -4    5.53    2.20
  -5   1   4    5.39    0.98
   4  -1  -4   12.38    2.19
  -4   1   4   10.80    1.08
   3  -1  -4   84.50    6.51
  -3   1   4   89.94    4.88
   2  -1  -4  213.92   14.26
  -2   1   4  210.52   11.18
  -2   1   4  210.08   12.44
  -1   1   4   68.59    3.72
  -1   1   4   70.56    4.23
  -1   1   4   67.46    3.10
  -1   1   4   69.21    6.64
   0   1   4   28.75    1.95
   0   1   4   28.61    1.48
   1   1   4  171.07    7.56
   1   1   4  165.95   10.15
   2   1   4  137.29    8.52
   2   1   4  127.18    6.12
   3   1   4   27.21    2.68
   3   1   4   24.03    1.74
   4   1   4    1.57    1.81
   5  -2  -4    6.85    2.28
  -5   2   4    7.00    1.07
   4  -2  -4    1.67    1.23
  -4   2   4    0.79    0.54
   3  -2  -4  115.37    8.18
  -3   2   4  112.80    6.24
   2  -2  -4  188.11   12.65
  -2   2   4  188.52    9.94
  -2   2   4  185.07   11.09
  -1   2   4  196.46    8.69
  -1   2   4  197.94   10.41
  -1   2   4  198.32   11.75
  -1   2   4  199.53   17.64
   0   2   4   27.52    1.95
   0   2   4   25.99    1.47
   1   2   4  149.51    6.80
   1   2   4  148.21    9.19
   2   2   4  110.30    5.25
   2   2   4  106.77    7.33
   3   2   4   19.58    1.55
   3   2   4   18.20    2.35
   4   2   4   -0.53    1.59
   5  -3  -4   12.85    2.58
  -5   3   4   12.77    1.34
   4  -3  -4   -0.04    1.11
  -4   3   4    0.13    0.57
   3  -3  -4   65.33    5.11
  -3   3   4   69.86    3.89
  -2   3   4  295.01   16.98
  -2   3   4  280.14   15.14
  -1   3   4  199.96   10.48
  -1   3   4  204.69   11.91
  -1   3   4  191.26   17.70
   0   3   4    0.80    0.42
   0   3   4    0.68    0.30
   0   3   4    1.21    0.31
   1   3   4   78.94    5.42
   1   3   4   82.39    3.99
   2   3   4  111.10    8.01
   2   3   4  124.21    5.76
   3   3   4   22.61    2.60
   3   3   4   15.94    1.54
   5  -4  -4   14.76    2.61
  -5   4   4   14.56    1.43
   4  -4  -4   13.14    1.99
  -4   4   4    9.75    1.09
   3  -4  -4   31.28    2.69
  -3   4   4   28.72    1.92
  -2   4   4  237.32   14.25
  -2   4   4  238.74   12.61
  -1   4   4  211.82   11.12
  -1   4   4  202.07   18.73
  -1   4   4  216.92   12.74
   0   4   4   18.24    1.66
   0   4   4   15.34    1.21
   1   4   4   21.11    2.12
   2   4   4  117.92    8.26
   3   4   4   25.57    2.89
   4  -5  -4    5.67    1.49
  -4   5   4    5.63    0.90
   3  -5  -4    0.14    0.76
  -3   5   4    0.81    0.47
  -2   5   4  145.96   12.34
  -2   5   4  121.70    7.23
  -2   5   4  137.26    8.44
  -1   5   4  212.38   13.09
  -1   5   4  228.74   11.38
  -1   5   4  197.74   19.01
   0   5   4   45.09    3.48
   1   5   4    7.91    1.44
   2   5   4   40.88    3.83
  -4   6   4   13.74    1.33
  -3   6   4    0.70    0.54
  -2   6   4   53.22    3.14
  -2   6   4   52.80    3.92
  -1   6   4  119.22    7.82
  -1   6   4  118.14    6.58
   0   6   4   57.19    4.38
   1   6   4    0.18    0.74
   2   6   4   22.17    2.89
  -4   7   4   11.16    1.28
  -3   7   4    1.43    0.60
  -2   7   4   25.06    2.38
  -2   7   4   21.49    1.65
  -1   7   4   46.22    3.04
  -1   7   4   48.05    3.86
   0   7   4   43.99    3.79
   1   7   4    1.68    1.00
   2   7   4    7.12    1.88
  -4   8   4   12.00    1.42
  -3   8   4    1.43    0.72
  -2   8   4   11.31    1.23
  -2   8   4    9.46    1.73
  -1   8   4   31.95    3.13
   0   8   4   17.35    2.41
   1   8   4    1.87    1.22
   2   8   4    2.03    1.50
  -3   9   4    1.83    0.83
  -2   9   4    6.16    1.08
  -2   9   4    5.32    1.52
  -1   9   4   19.40    2.67
   0   9   4   16.81    2.52
   1   9   4    0.62    1.10
  -2  10   4    2.69    0.97
  -1  10   4   12.74    2.34
   0  10   4   12.18    2.41
   1  11  -5   -0.15    1.97
   0  11  -5    5.91    2.07
  -1  11  -5   41.09    3.46
  -2  11  -5   22.99    2.31
   2  10  -5    9.86    2.61
   1  10  -5    3.22    2.04
   0  10  -5    2.73    1.78
  -1  10  -5   42.36    3.42
  -2  10  -5   41.37    3.17
  -3  10  -5    9.35    1.60
   2   9  -5   12.46    2.59
   1   9  -5    9.07    2.34
   0   9  -5   -0.78    1.29
  -1   9  -5   64.22    4.45
  -2   9  -5   41.76    3.12
  -3   9  -5    9.49    1.58
   3  -9   5    8.35    0.98
   3   8  -5   11.03    2.38
   2   8  -5   46.37    4.21
   1   8  -5   22.42    2.87
   0   8  -5    2.16    1.36
  -1   8  -5   72.94    4.83
  -2   8  -5   77.78    4.94
  -3   8  -5   10.44    1.58
   3  -8   5   12.09    1.06
   3   7  -5   15.63    2.46
   2   7  -5   87.95    6.09
   1   7  -5   75.21    5.32
   0   7  -5    0.27    0.97
  -1   7  -5  106.12    6.44
  -2   7  -5  113.74    6.77
  -3   7  -5   26.26    2.35
   3  -7   5   33.68    1.85
   4  -7   5   -0.06    1.45
  -4  -6   5    0.41    1.02
   3   6  -5    5.64    1.59
   2   6  -5  138.98    8.47
   1   6  -5  135.56    8.16
   0   6  -5   35.61    2.80
  -1   6  -5   68.70    4.38
  -2   6  -5  150.06    8.57
   3  -6   5   68.89    3.43
   4  -6   5    0.16    1.36
   4   5  -5    7.65    2.00
  -4  -5   5    9.34    1.45
   3   5  -5    2.00    1.15
   2   5  -5   85.97    5.44
   1   5  -5  309.77   17.42
  -1  -5   5  329.03   28.08
   0   5  -5  120.45    7.02
  -1   5  -5   28.51    2.17
  -2   5  -5   93.73    5.95
   2  -5   5  109.57    6.22
   2  -5   5  102.39    4.72
   3  -5   5  128.88    7.74
   3  -5   5  122.64    5.84
   4  -5   5   11.50    1.61
   4  -5   5   15.20    2.87
   4   4  -5   13.08    2.41
  -4  -4   5   12.25    1.54
   3   4  -5    0.70    0.96
  -3  -4   5    0.53    0.61
   2   4  -5   59.38    3.83
   1   4  -5  300.71   16.51
  -1  -4   5  312.14   27.00
   0   4  -5  229.15   12.97
   0   4  -5  249.74   21.11
  -1   4  -5    0.00    0.43
   1  -4   5   -0.02    0.20
  -2   4  -5   71.32    4.32
   2  -4   5   74.23    4.56
   2  -4   5   70.46    3.43
   3  -4   5  140.04    6.47
   3  -4   5  138.87    8.58
   4  -4   5   21.57    3.67
   4  -4   5   23.14    2.40
   4   3  -5   27.59    3.26
  -4  -3   5   29.62    2.24
   3   3  -5    0.54    0.98
  -3  -3   5    1.64    0.61
   2   3  -5   37.06    2.53
   1   3  -5  213.54   11.36
  -1  -3   5  206.19   18.82
   0   3  -5  264.93   14.11
  -1   3  -5   24.72    1.76
   1  -3   5   27.58    1.79
   1  -3   5   27.96    1.43
   2  -3   5   66.67    3.22
   3  -3   5   73.52    3.84
   3  -3   5   82.42    5.26
   4  -3   5   36.25    3.14
   4  -3   5   23.72    4.14
   4   2  -5   21.10    3.00
  -4  -2   5   21.01    1.73
   3   2  -5    6.00    1.41
  -3  -2   5    6.48    0.81
  -2  -2   5   42.40    2.52
   1   2  -5  279.98   13.64
  -1  -2   5  229.79   22.66
   0  -2   5  170.25   10.13
   0  -2   5  172.83    7.50
  -1   2  -5   31.47    1.91
   1  -2   5   32.95    1.68
   1  -2   5   33.28    2.13
   2  -2   5   17.20    1.14
   3  -2   5   79.31    5.22
   3  -2   5   70.58    3.76
   4  -2   5   16.66    3.70
   4  -2   5   32.10    3.01
   5   1  -5   14.72    3.09
  -5  -1   5   14.78    1.59
   4   1  -5   31.87    3.55
  -4  -1   5   35.81    2.35
   3   1  -5   14.21    1.92
  -3  -1   5   11.49    1.03
  -3  -1   5   11.62    1.10
  -2  -1   5   31.35    2.08
  -2  -1   5   29.97    1.86
  -1  -1   5  334.86   14.01
  -1  -1   5  307.64   28.67
  -1  -1   5  332.35   19.05
  -1  -1   5  325.66   17.05
   0   1  -5  214.91   11.01
   0  -1   5  205.36    9.11
   0  -1   5  206.45   12.30
   1  -1   5   51.72    2.52
   1  -1   5   51.64    3.28
   2  -1   5   15.12    1.10
   3  -1   5   57.04    4.30
   3  -1   5   55.76    3.04
   4  -1   5   25.73    4.21
   5   0  -5   11.96    2.83
  -5   0   5   16.71    1.55
   4   0  -5   45.69    4.40
  -4   0   5   49.62    3.02
   3   0  -5   39.23    3.51
  -3   0   5   41.00    2.46
  -3   0   5   40.33    2.65
  -2   0   5   14.15    1.15
  -2   0   5   15.97    1.07
  -1   0   5  287.86   12.13
  -1   0   5  278.53   14.71
  -1   0   5  275.37   24.90
  -1   0   5  281.05   16.48
   0   0   5  427.49   18.28
   0   0   5  419.43   24.72
   1   0   5   60.11    3.90
   1   0   5   62.28    2.99
   2   0   5    5.95    0.71
   3   0   5   52.00    2.89
   3   0   5   51.78    4.21
   4   0   5   19.70    3.74
   5  -1  -5    5.72    2.21
  -5   1   5    7.10    1.09
   4  -1  -5   59.12    5.06
  -4   1   5   57.98    3.50
   3  -1  -5   69.19    5.33
  -3   1   5   70.56    4.30
  -3   1   5   66.78    3.90
  -2   1   5    4.17    0.56
  -2   1   5    3.16    0.44
  -1   1   5  269.31   13.87
  -1   1   5  265.29   15.58
  -1   1   5  266.61   11.49
  -1   1   5  256.13   23.51
   0   1   5  409.70   24.50
   0   1   5  427.17   18.13
   1   1   5  151.11    7.04
   1   1   5  159.14    9.48
   2   1   5   -0.15    0.51
   2   1   5   -0.06    0.32
   3   1   5   26.97    2.95
   3   1   5   31.28    2.03
   4   1   5   31.68    4.55
   5  -2  -5    1.53    1.76
  -5   2   5    3.36    0.85
   4  -2  -5   48.79    4.30
  -4   2   5   47.13    2.94
   3  -2  -5   94.44    6.82
  -3   2   5   91.61    5.16
  -2   2   5   39.01    2.27
  -2   2   5   38.37    2.59
  -1   2   5  116.56    7.13
  -1   2   5  120.21    6.23
  -1   2   5  112.83    5.28
  -1   2   5  117.65   11.00
   0   2   5  352.74   20.94
   0   2   5  356.98   15.50
   1   2   5  184.72    8.40
   1   2   5  184.87   11.33
   2   2   5    5.19    0.81
   2   2   5    9.87    1.49
   3   2   5   14.05    1.38
   3   2   5   14.24    2.19
   5  -3  -5   -0.01    1.48
  -5   3   5    1.45    0.74
   4  -3  -5   38.07    3.43
  -4   3   5   32.76    2.27
   3  -3  -5  109.18    7.57
  -3   3   5  101.79    5.81
  -2   3   5   36.78    2.23
  -2   3   5   36.60    2.62
  -2   3   5   40.39    4.30
  -1   3   5   13.70    0.94
  -1   3   5   14.76    1.30
  -1   3   5   13.30    2.48
   0   3   5  144.38    6.56
   0   3   5  141.03    8.84
   1   3   5  270.78   11.77
   1   3   5  251.97   15.90
   2   3   5    9.90    1.04
   2   3   5    6.69    1.47
   3   3   5    4.12    1.54
   3   3   5    1.64    0.71
   4  -4  -5   16.22    2.21
  -4   4   5   14.34    1.32
  -3   4   5   79.58    4.51
  -2   4   5   60.20    3.37
  -2   4   5   56.59    3.99
  -2   4   5   61.09    6.12
  -1   4   5    1.02    0.34
  -1   4   5    1.25    1.35
  -1   4   5    1.34    0.57
   0   4   5   79.42    5.36
   1   4   5  108.76    5.15
   1   4   5   98.11    6.95
   2   4   5   29.01    1.99
   2   4   5   23.74    2.79
   3   4   5    0.75    1.33
   4  -5  -5    8.84    1.70
  -4   5   5    9.10    1.08
  -3   5   5   70.60    4.08
  -2   5   5   49.28    2.88
  -2   5   5   46.57    3.55
  -2   5   5   50.77    5.34
  -1   5   5    0.23    0.36
  -1   5   5   -0.12    0.48
   0   5   5   38.41    3.13
   1   5   5   53.19    4.25
   2   5   5   24.48    2.87
  -4   6   5   15.26    1.40
  -3   6   5   49.29    3.02
  -2   6   5   34.07    2.93
  -2   6   5   35.62    2.23
  -1   6   5    3.37    1.05
   0   6   5   24.96    2.52
   1   6   5   31.88    3.14
   2   6   5   11.77    2.22
  -4   7   5    5.43    1.02
  -3   7   5   50.11    3.14
  -2   7   5   42.79    2.69
  -2   7   5   41.98    3.57
  -1   7   5    4.08    1.24
   0   7   5    9.79    1.78
   1   7   5   24.56    2.84
   2   7   5    9.79    2.17
  -3   8   5   26.70    2.01
  -2   8   5   35.91    3.57
  -2   8   5   44.34    2.79
  -1   8   5   10.16    1.89
   0   8   5    2.29    1.24
   1   8   5   15.81    2.48
  -3   9   5   16.48    1.61
  -2   9   5   21.86    2.83
  -1   9   5   12.10    2.18
   0   9   5   -0.31    1.11
   0  11  -6   17.81    3.00
  -1  11  -6    4.61    1.76
   2  10  -6   -1.52    1.87
   1  10  -6   16.36    3.10
   0  10  -6   71.11    5.59
  -1  10  -6   14.49    2.20
  -2  10  -6    2.86    1.31
   2   9  -6   -2.81    1.37
   1   9  -6   20.52    3.09
   0   9  -6  110.12    7.42
  -1   9  -6   48.77    3.76
  -2   9  -6    0.17    1.02
   3  -9   6   18.58    1.47
   3   8  -6   15.27    2.77
   2   8  -6    5.54    1.90
   1   8  -6   19.31    2.70
   0   8  -6  111.36    7.28
  -1   8  -6  125.62    7.67
  -2   8  -6    5.64    1.32
   3  -8   6   13.68    1.20
   3   7  -6   33.80    3.41
   2   7  -6   10.51    2.05
   1   7  -6    1.51    1.16
   0   7  -6  109.36    6.92
  -1   7  -6  160.28    9.32
  -2   7  -6   40.55    3.03
   3  -7   6    6.45    0.83
  -4  -6   6    6.72    1.41
   3   6  -6   31.68    3.06
   2   6  -6   33.64    2.98
   1   6  -6    1.02    0.86
   0   6  -6  102.58    6.33
  -1   6  -6  126.35    7.41
  -2   6  -6   72.86    4.44
   2  -6   6   65.35    3.34
   3  -6   6    0.18    0.41
   4  -6   6   21.39    3.52
  -4  -5   6    8.23    1.44
  -3  -5   6   33.90    2.52
   2   5  -6   57.48    3.98
   1   5  -6    1.00    0.63
  -1  -5   6    0.15    1.33
   0   5  -6  107.07    6.31
  -1   5  -6   83.04    5.10
   1  -5   6   87.15    5.25
   2  -5   6  109.23    5.13
   2  -5   6  112.04    6.75
   3  -5   6    0.45    0.71
   3  -5   6    1.55    0.52
   4   4  -6   19.10    2.79
  -4  -4   6   18.78    1.86
  -3  -4   6   52.97    3.39
   2   4  -6   67.73    4.28
   1   4  -6    3.63    0.76
  -1  -4   6    5.36    1.87
   0   4  -6   68.05    4.07
  -1   4  -6  181.13   10.23
   1  -4   6  190.26    8.35
   1  -4   6  192.69   11.15
   2  -4   6   57.89    2.90
   3  -4   6    3.82    1.01
   3  -4   6    5.30    0.74
   4   3  -6   15.79    2.52
  -4  -3   6   11.71    1.45
  -3  -3   6   72.47    4.29
   2   3  -6  135.10    7.64
   1   3  -6   15.08    1.29
  -1  -3   6   16.11    2.88
   0   3  -6   68.51    3.91
   0  -3   6   66.44    4.23
   0  -3   6   69.84    3.17
   1  -3   6  196.91   11.74
   1  -3   6  200.29    8.79
   2  -3   6  101.18    4.77
   3  -3   6    6.28    0.82
   3  -3   6    5.33    1.20
   4   2  -6   -0.07    1.26
  -4  -2   6    0.33    0.64
  -3  -2   6   79.53    4.75
  -3  -2   6   86.10    5.22
  -2  -2   6  232.74   12.67
  -2  -2   6  243.72   14.12
   1   2  -6   36.90    2.20
  -1  -2   6   34.96    2.33
  -1  -2   6   36.66    1.69
  -1  -2   6   26.95    4.08
   0   2  -6   13.59    1.01
   0  -2   6   14.13    1.12
   0  -2   6   14.54    0.87
   1  -2   6  218.95   13.23
   1  -2   6  229.17    9.89
   2  -2   6  153.27    7.03
   3  -2   6   15.78    1.99
   3  -2   6   14.59    1.27
   4  -2   6    0.76    0.56
   4   1  -6    0.82    1.31
  -4  -1   6    0.05    0.52
  -3  -1   6   50.17    2.96
  -3  -1   6   47.87    3.21
  -2  -1   6  230.32   13.33
  -2  -1   6  219.91   11.94
  -1  -1   6  189.90   11.06
  -1  -1   6  163.17   17.01
  -1  -1   6  188.90    9.84
  -1  -1   6  197.52    8.13
   0  -1   6    2.40    0.35
   0  -1   6    1.85    0.42
   1  -1   6  148.69    6.93
   1  -1   6  158.26    9.25
   2  -1   6  185.56    8.45
   3  -1   6   26.49    1.81
   3  -1   6   25.75    2.73
   4  -1   6    1.51    0.66
   5   0  -6    5.81    2.22
  -5   0   6    7.85    1.15
   4   0  -6    2.98    1.47
  -4   0   6    2.16    0.64
  -3   0   6   23.43    1.61
  -3   0   6   23.21    1.74
  -2   0   6  197.16   10.65
  -2   0   6  203.72   11.91
  -1   0   6  237.59    9.96
  -1   0   6  212.63   20.66
  -1   0   6  230.51   12.01
  -1   0   6  229.39   13.51
   0   0   6   29.86    2.04
   0   0   6   27.61    1.54
   1   0   6   82.14    5.20
   1   0   6   82.05    3.95
   2   0   6  159.70    7.41
   3   0   6   42.90    3.90
   3   0   6   45.86    2.67
   4   0   6   -0.06    0.62
   5  -1  -6    8.00    2.38
  -5   1   6    8.86    1.18
   4  -1  -6    2.06    1.34
  -4   1   6    2.46    0.64
  -3   1   6    3.11    0.56
  -3   1   6    4.75    0.70
  -2   1   6  162.32    8.98
  -2   1   6  175.47   15.64
  -2   1   6  169.31   10.09
  -1   1   6  223.55   12.94
  -1   1   6  222.54   11.44
  -1   1   6  216.73    9.54
  -1   1   6  204.84   19.75
   0   1   6   54.14    3.47
   0   1   6   50.45    2.60
   1   1   6   17.62    1.60
   1   1   6   18.03    1.24
   2   1   6   88.00    4.40
   2   1   6   87.45    6.02
   3   1   6   51.69    3.05
   5  -2  -6    9.50    2.37
  -5   2   6    8.14    1.13
   4  -2  -6    6.51    1.67
  -4   2   6    7.31    0.92
  -3   2   6    6.99    0.86
  -3   2   6    5.88    0.74
  -2   2   6   85.64    4.82
  -2   2   6   89.70    5.51
  -2   2   6   88.92    8.74
  -1   2   6  127.90   13.19
  -1   2   6  141.03    8.59
  -1   2   6  147.73    7.48
  -1   2   6  143.27    6.37
   0   2   6  105.21    5.04
   0   2   6  109.99    6.77
   1   2   6   10.82    1.01
   1   2   6   12.25    1.39
   2   2   6   39.84    2.46
   2   2   6   42.38    3.52
  -4   3   6   11.48    1.16
  -3   3   6    2.36    0.57
  -2   3   6   74.07    4.06
  -2   3   6   71.92    7.47
  -2   3   6   72.00    4.73
  -1   3   6  127.47    6.38
  -1   3   6   97.02   11.23
  -1   3   6  126.88    7.49
  -1   3   6  121.06    5.53
   0   3   6   87.97    5.69
   0   3   6   84.90    4.22
   1   3   6    2.06    0.57
   1   3   6    2.26    0.78
   2   3   6   18.36    2.35
   2   3   6   16.77    1.52
   3   3   6   25.68    3.12
  -4   4   6   23.27    1.75
  -3   4   6   -0.54    0.42
  -2   4   6   70.73    3.99
  -2   4   6   71.33    4.76
  -1   4   6  131.82    8.34
   0   4   6   43.71    2.48
   0   4   6   43.37    3.35
   1   4   6    1.43    0.87
   1   4   6    2.24    0.63
   2   4   6   15.88    2.34
   2   4   6   17.04    1.60
  -4   5   6   24.19    1.81
  -3   5   6    1.93    0.62
  -2   5   6   27.20    1.79
  -2   5   6   27.68    2.42
  -1   5   6  121.45    7.93
   0   5   6   62.64    4.65
   1   5   6    1.71    0.96
   2   5   6    6.46    1.67
  -4   6   6   28.66    2.10
  -3   6   6    8.64    1.01
  -2   6   6    4.56    0.73
  -2   6   6    4.98    1.16
  -1   6   6   80.17    5.74
   0   6   6   53.16    4.30
   1   6   6    4.22    1.34
   2   6   6    3.38    1.52
  -3   7   6   21.95    1.72
  -2   7   6   -0.76    0.82
  -1   7   6   30.14    3.02
   0   7   6   44.87    4.01
   1   7   6    6.46    1.67
  -3   8   6   13.87    1.46
  -2   8   6    2.21    1.24
  -1   8   6    9.27    1.94
   0   8   6   24.34    3.04
  -2   9   6    1.47    1.32
  -1   9   6    2.12    1.39
   0  11  -7    0.16    1.90
  -1  11  -7   22.37    2.94
   1  10  -7   20.06    3.44
   0  10  -7    3.39    2.02
  -1  10  -7   15.48    2.45
  -2  10  -7   49.52    3.86
   2   9  -7   12.32    2.87
   1   9  -7   21.30    3.25
   0   9  -7   19.22    2.83
  -1   9  -7    9.91    1.90
  -2   9  -7   45.13    3.59
   3   8  -7    2.84    2.04
   2   8  -7   19.94    3.01
   1   8  -7   58.58    4.81
   0   8  -7   20.69    2.68
  -1   8  -7    0.20    1.07
   2  -8   7   33.92    2.04
   3  -8   7   32.12    2.04
   3   7  -7    3.59    1.79
   2   7  -7   20.94    2.76
   1   7  -7   78.04    5.45
   0   7  -7   36.39    3.14
  -1   7  -7    0.46    0.89
   2  -7   7   25.78    1.63
   3  -7   7   28.59    1.85
   3   6  -7    2.82    1.52
   2   6  -7   41.43    3.40
   1   6  -7  136.18    8.14
   0   6  -7   36.62    2.86
  -1   6  -7    7.16    1.22
   1  -6   7    5.82    0.79
   2  -6   7   37.15    2.08
   3  -6   7   38.39    2.27
  -4  -5   7   11.52    1.64
  -3  -5   7    4.46    1.00
   2   5  -7   33.96    2.74
   1   5  -7  171.97    9.85
  -1  -5   7  176.79   16.22
   0   5  -7  140.65    8.01
  -1   5  -7    8.61    1.09
   1  -5   7    7.60    0.85
   1  -5   7    6.63    0.68
   2  -5   7   33.64    1.91
   3  -5   7   47.50    2.70
   3  -5   7   48.87    3.58
  -4  -4   7   18.78    1.84
  -3  -4   7   19.89    1.71
   2   4  -7    8.91    1.25
  -2  -4   7    8.98    2.32
   1   4  -7  183.20   10.16
  -1  -4   7  185.12   17.18
   0  -4   7  254.40   15.24
   0  -4   7  261.27   11.30
   1  -4   7   22.27    1.70
   1  -4   7   24.61    1.40
   2  -4   7   13.70    1.05
   3  -4   7   56.88    3.97
   3  -4   7   47.78    2.85
  -4  -3   7   28.34    2.23
  -3  -3   7   40.05    2.63
  -2  -3   7    1.45    1.48
  -2  -3   7    3.87    0.61
   1   3  -7   97.80    5.65
  -1  -3   7   97.78    6.14
  -1  -3   7  104.24    4.52
  -1  -3   7   98.16   10.08
   0  -3   7  277.05   16.43
   0  -3   7  280.29   12.18
   1  -3   7  117.59    7.23
   1  -3   7  120.90    5.49
   2  -3   7    3.57    0.59
   3  -3   7   45.49    2.72
   3  -3   7   50.39    3.89
  -4  -2   7   23.94    1.89
  -3  -2   7   50.55    3.08
  -3  -2   7   49.36    3.36
  -2  -2   7    4.28    0.60
  -2  -2   7    2.59    1.65
  -2  -2   7    4.08    0.69
  -1  -2   7   38.38    5.67
  -1  -2   7   51.94    3.29
  -1  -2   7   55.17    2.41
   0  -2   7  251.08   11.08
   0  -2   7  254.12   14.94
   1  -2   7  161.00    7.31
   1  -2   7  161.79    9.71
   2  -2   7    4.92    0.68
   3  -2   7   20.62    1.61
   3  -2   7   21.04    2.49
  -4  -1   7   23.22    1.80
  -3  -1   7   46.99    3.12
  -3  -1   7   45.01    2.81
  -2  -1   7   15.94    1.15
  -2  -1   7   13.32    2.92
  -2  -1   7   16.27    1.37
  -1  -1   7   29.30    1.78
  -1  -1   7   25.21    4.10
  -1  -1   7   31.47    2.15
  -1  -1   7   32.43    1.57
   0  -1   7  164.77    9.97
   0  -1   7  167.52    7.43
   1  -1   7  159.46    7.27
   1  -1   7  159.70    9.66
   2  -1   7   10.51    1.01
   3  -1   7    5.14    0.85
  -4   0   7   18.75    1.52
  -3   0   7   66.94    4.26
  -3   0   7   65.27    3.82
  -2   0   7   13.48    1.01
  -2   0   7   12.84    2.87
  -2   0   7   13.80    1.25
  -1   0   7   14.41    1.26
  -1   0   7   16.04    0.94
  -1   0   7   10.93    2.95
  -1   0   7   14.24    0.97
   0   0   7  130.12    8.04
   0   0   7  133.81    6.02
   1   0   7  113.49    5.40
   1   0   7  114.79    7.15
   2   0   7   26.46    1.76
   3   0   7    1.32    0.63
  -4   1   7   21.57    1.65
  -3   1   7   71.37    4.51
  -3   1   7   68.66    4.00
  -2   1   7   26.80    2.00
  -2   1   7   26.38    1.67
  -1   1   7    7.11    0.63
  -1   1   7    4.04    2.22
  -1   1   7    7.31    0.88
   0   1   7  121.74    5.58
   0   1   7  119.10    7.47
   1   1   7   96.42    6.09
   1   1   7   89.98    4.54
   2   1   7   23.39    1.69
   3   1   7   -0.11    0.56
  -4   2   7   21.14    1.62
  -3   2   7   74.36    4.65
  -3   2   7   68.96    4.08
  -2   2   7   48.90    3.27
  -2   2   7   46.59    2.75
  -1   2   7    1.18    1.71
  -1   2   7    2.39    0.43
  -1   2   7    2.87    0.65
   0   2   7  148.54    6.97
   0   2   7  154.26    9.39
   1   2   7   66.54    3.63
   1   2   7   74.25    4.94
   2   2   7   24.92    2.58
   2   2   7   21.30    1.72
   3   2   7    0.65    0.63
  -4   3   7   10.91    1.14
  -3   3   7   84.08    5.49
  -3   3   7   85.14    4.79
  -2   3   7   87.59    4.90
  -2   3   7   90.22    5.74
  -1   3   7    3.45    0.76
  -1   3   7    3.02    0.54
   0   3   7   38.84    2.19
   0   3   7   34.35    2.84
   1   3   7   98.95    4.94
   1   3   7   96.19    6.64
   2   3   7   29.46    2.97
   2   3   7   26.49    2.02
   3   3   7   -0.09    0.67
  -4   4   7    3.62    0.81
  -3   4   7   52.00    3.18
  -3   4   7   54.90    3.81
  -2   4   7  101.68    5.55
  -2   4   7   99.62    6.56
  -1   4   7   24.47    2.22
   0   4   7   17.64    1.85
   0   4   7   14.48    1.31
   1   4   7   59.61    4.63
   1   4   7   59.30    3.38
   2   4   7   31.25    3.30
  -4   5   7    0.81    0.69
  -3   5   7   20.76    1.56
  -2   5   7   91.71    6.23
  -1   5   7   26.98    2.54
   0   5   7    0.75    0.76
   1   5   7   28.83    2.97
   2   5   7   22.28    2.94
  -3   6   7   12.52    1.20
  -2   6   7   41.63    3.51
  -1   6   7   31.88    3.03
   0   6   7   -0.33    0.75
   1   6   7    7.17    1.69
  -2   7   7   25.53    2.78
  -1   7   7   17.14    2.39
   0   7   7   -0.44    0.89
   1   7   7    1.53    1.23
  -2   8   7    9.25    2.02
  -1   8   7   12.41    2.27
   0   8   7    0.27    1.26
   1  10  -8   -1.91    1.89
   0  10  -8   26.78    3.63
  -1  10  -8   27.47    3.26
   2   9  -8    4.59    2.41
   1   9  -8   -0.08    1.49
   0   9  -8   21.32    2.95
  -1   9  -8   41.01    3.67
   2  -9   8   10.34    1.12
   2   8  -8   19.86    3.00
   1   8  -8    0.04    1.32
   0   8  -8   40.54    3.69
  -1   8  -8   63.30    4.63
   2  -8   8   11.20    1.08
   3   7  -8   19.58    2.92
   2   7  -8   41.82    3.73
   1   7  -8    2.42    1.23
   0   7  -8   28.07    2.66
   1  -7   8   91.64    4.44
   2  -7   8   36.55    2.14
   3  -7   8    0.43    0.51
  -3  -6   8   29.67    2.42
   2   6  -8   75.55    5.17
   1   6  -8   13.18    1.73
   0   6  -8    8.82    1.34
   1  -6   8  119.85    5.79
   1  -6   8  129.21    7.66
   2  -6   8   66.71    3.41
   3  -6   8    7.06    0.96
  -3  -5   8   22.49    1.95
   2   5  -8   82.69    5.26
   1   5  -8   77.76    4.82
   0  -5   8    5.93    0.84
   0  -5   8    6.25    0.65
   1  -5   8   66.57    3.31
   1  -5   8   66.60    4.27
   2  -5   8   88.51    4.35
   3  -5   8   25.62    1.89
   3  -5   8   32.12    2.75
  -4  -4   8    1.03    0.82
  -3  -4   8   19.90    1.69
   2   4  -8   69.12    4.38
   1   4  -8   71.72    4.61
  -1  -4   8   77.93    3.66
  -1  -4   8   88.18    8.62
  -1  -4   8   77.84    4.99
   0  -4   8    6.38    0.63
   0  -4   8    5.18    0.78
   1  -4   8   54.98    2.87
   1  -4   8   57.77    3.70
   2  -4   8   86.52    4.29
   3  -4   8   30.75    2.12
   3  -4   8   35.98    3.07
  -4  -3   8   -0.29    0.68
  -3  -3   8   20.29    1.82
  -3  -3   8   21.26    1.67
  -2  -3   8   56.88    3.76
  -2  -3   8   55.66    3.34
   1   3  -8   95.48    5.35
  -1  -3   8   86.28    9.76
  -1  -3   8   95.89    4.30
  -1  -3   8   93.24    5.84
   0  -3   8   11.02    1.13
   0  -3   8   11.34    0.87
   1  -3   8   27.21    1.66
   1  -3   8   27.82    2.06
   2  -3   8   63.23    3.32
   3  -3   8   38.73    3.39
   3  -3   8   31.08    2.20
  -4  -2   8    1.71    0.75
  -3  -2   8   12.54    1.14
  -3  -2   8   10.66    1.25
  -2  -2   8   85.96    4.81
  -2  -2   8   85.74    5.44
  -1  -2   8   84.14    5.40
  -1  -2   8   85.39    4.71
  -1  -2   8   88.27    3.98
   0  -2   8   20.92    1.69
   0  -2   8   22.55    1.34
   1  -2   8   20.37    1.40
   1  -2   8   21.87    1.73
   2  -2   8   42.65    2.48
   3  -2   8   32.27    2.22
  -4  -1   8    7.33    1.03
  -3  -1   8    9.87    1.17
  -3  -1   8    9.66    0.99
  -2  -1   8   81.81    5.21
  -2  -1   8   82.08    4.57
  -1  -1   8  140.93    8.73
  -1  -1   8  145.88    6.44
   0  -1   8   29.04    2.09
   0  -1   8   26.39    1.60
   1  -1   8   10.02    1.12
   1  -1   8    9.42    0.92
   2  -1   8   51.55    2.91
   3  -1   8   29.56    2.11
  -4   0   8   15.61    1.40
  -3   0   8    1.61    0.48
  -3   0   8    1.66    0.65
  -2   0   8   77.58    4.44
  -2   0   8   82.70    5.12
  -1   0   8  162.80    9.92
  -1   0   8  164.21    7.34
   0   0   8   60.15    3.97
   0   0   8   59.09    3.01
   1   0   8    0.02    0.33
   1   0   8    1.02    0.55
   2   0   8   46.76    2.73
   3   0   8   27.87    2.07
  -4   1   8   16.38    1.41
  -3   1   8    1.05    0.61
  -3   1   8    1.33    0.48
  -2   1   8   24.94    1.63
  -2   1   8   25.57    2.00
  -1   1   8  235.60   10.49
  -1   1   8  237.68   14.20
   0   1   8   69.86    4.66
   0   1   8   70.32    3.50
   1   1   8    2.09    0.74
   1   1   8    2.08    0.56
   2   1   8   21.87    1.69
   3   1   8   25.84    2.09
  -4   2   8   23.28    1.76
  -3   2   8    9.42    0.93
  -3   2   8    6.69    1.05
  -2   2   8   11.90    1.31
  -1   2   8  133.99    8.35
  -1   2   8  133.31    6.19
   0   2   8  104.54    5.15
   0   2   8  109.42    6.93
   1   2   8   12.83    1.26
   1   2   8   14.82    1.71
   2   2   8   10.89    1.27
  -4   3   8   21.54    1.68
  -3   3   8   12.08    1.09
  -3   3   8   11.41    1.39
  -2   3   8    3.44    0.85
  -1   3   8   50.92    3.70
  -1   3   8   51.18    2.77
   0   3   8  101.08    5.17
   0   3   8  110.36    7.04
   1   3   8   24.38    1.83
   1   3   8   23.90    2.46
   2   3   8    3.00    0.85
   2   3   8    3.18    1.34
  -4   4   8   12.99    1.27
  -3   4   8   20.51    1.53
  -3   4   8   19.20    1.97
  -2   4   8    0.03    0.66
  -1   4   8   34.04    2.88
   0   4   8   54.65    4.17
   0   4   8   52.41    3.04
   1   4   8   23.28    2.46
   1   4   8   17.34    1.67
   2   4   8   -0.71    0.94
   2   4   8    0.05    0.60
  -2   5   8   -0.29    0.74
  -1   5   8   18.74    2.14
   0   5   8   33.82    3.17
   1   5   8   14.77    2.24
  -2   6   8    1.47    1.09
  -1   6   8   10.86    1.86
   0   6   8   17.02    2.35
   1   6   8    9.91    2.05
  -2   7   8    2.40    1.33
  -1   7   8    2.89    1.42
   0   7   8   18.18    2.65
   0  10  -9    8.10    2.42
   1   9  -9   40.16    4.08
   0   9  -9   37.34    3.82
   2   8  -9    3.24    1.83
   1   8  -9   47.84    4.11
   0   8  -9   73.85    5.29
   1  -8   9    8.06    0.94
   2  -8   9    5.04    0.82
   2   7  -9    3.15    1.53
   1   7  -9   20.37    2.41
   0   7  -9  110.93    6.31
   0  -7   9   88.66    6.18
   1  -7   9   21.83    1.50
   2  -7   9    1.68    0.59
  -3  -6   9   10.71    1.49
   2   6  -9    0.48    0.96
   1   6  -9   41.95    3.17
   0  -6   9   63.75    3.20
   0  -6   9   63.00    4.23
   1  -6   9   32.96    1.95
   2  -6   9    1.46    0.57
  -3  -5   9   10.27    1.45
  -3  -5   9   13.06    1.48
  -2  -5   9   -0.22    0.59
   1   5  -9   33.89    2.47
  -1  -5   9   30.12    2.42
  -1  -5   9   31.68    1.78
   0  -5   9   66.39    4.38
   0  -5   9   67.35    3.31
   1  -5   9   41.19    2.88
   1  -5   9   39.93    2.26
   2  -5   9    3.89    0.72
   3  -5   9    8.87    1.12
  -3  -4   9   16.00    1.68
  -3  -4   9   16.37    1.52
  -2  -4   9    4.01    0.86
  -2  -4   9    4.07    0.74
   1   4  -9   24.91    1.90
  -1  -4   9   22.98    1.41
  -1  -4   9   24.17    1.95
   0  -4   9   95.86    4.55
   0  -4   9   96.39    6.05
   1  -4   9   52.54    3.58
   1  -4   9   53.94    2.82
   2  -4   9    2.85    0.69
   3  -4   9    5.87    0.97
  -4  -3   9   15.68    1.62
  -3  -3   9   37.83    2.94
  -3  -3   9   42.00    2.68
  -2  -3   9   12.55    1.09
  -2  -3   9   11.30    1.32
  -1  -3   9   16.12    1.11
  -1  -3   9   17.95    1.55
   0  -3   9  117.80    7.33
   0  -3   9  118.73    5.51
   1  -3   9   73.00    3.65
   1  -3   9   70.85    4.66
   2  -3   9   10.54    1.10
   3  -3   9    4.57    0.94
  -4  -2   9   15.29    1.50
  -3  -2   9   54.29    3.64
  -3  -2   9   50.19    3.21
  -2  -2   9   38.45    2.72
  -2  -2   9   35.27    2.28
  -1  -2   9    3.15    0.49
  -1  -2   9    3.40    0.73
   0  -2   9  106.68    6.82
   0  -2   9  112.21    5.16
   1  -2   9   96.14    4.68
   1  -2   9   94.67    6.07
   2  -2   9   20.99    1.60
   3  -2   9    1.15    0.73
  -4  -1   9   12.13    1.32
  -3  -1   9   52.99    3.60
  -3  -1   9   50.34    3.13
  -2  -1   9   57.99    3.38
  -2  -1   9   58.90    3.95
  -1  -1   9    1.12    0.54
  -1  -1   9    0.64    0.32
   0  -1   9   50.35    2.68
   0  -1   9   51.20    3.50
   1  -1   9  129.73    8.14
   1  -1   9  129.39    6.19
   2  -1   9   35.47    2.30
   3  -1   9   -0.30    0.54
  -4   0   9    3.94    0.82
  -3   0   9   33.59    2.17
  -3   0   9   31.86    2.51
  -2   0   9   84.51    5.47
  -1   0   9    8.67    1.08
  -1   0   9    7.81    0.76
   0   0   9   18.95    1.72
   0   0   9   18.30    1.34
   1   0   9   80.01    4.28
   1   0   9   88.83    5.69
   2   0   9   39.38    2.51
  -4   1   9    1.51    0.67
  -3   1   9   21.45    1.87
  -3   1   9   20.28    1.53
  -2   1   9   90.41    5.83
  -1   1   9   10.79    0.94
  -1   1   9   11.30    1.29
   0   1   9    2.02    0.53
   0   1   9    2.69    0.74
   1   1   9   49.54    3.63
   1   1   9   43.78    2.69
   2   1   9   33.53    2.31
  -4   2   9    1.23    0.66
  -3   2   9   26.01    2.19
  -3   2   9   25.32    1.79
  -2   2   9   39.78    3.00
  -1   2   9   37.08    2.88
   0   2   9    0.53    0.63
   0   2   9    1.01    0.46
   1   2   9   35.47    3.03
   1   2   9   32.12    2.23
   2   2   9   18.02    1.72
  -4   3   9   -0.14    0.64
  -3   3   9   19.32    1.92
  -2   3   9   50.72    3.73
  -1   3   9   21.22    2.08
   0   3   9    1.31    0.80
   0   3   9   -0.26    0.43
   1   3   9   21.08    2.28
   1   3   9   15.35    1.55
   2   3   9   15.80    1.69
  -3   4   9   16.86    1.90
  -2   4   9   42.31    3.41
  -1   4   9   26.54    2.55
   0   4   9    0.34    0.77
   0   4   9    0.04    0.53
   1   4   9    8.24    1.71
   1   4   9    6.83    1.13
  -3   5   9    3.01    1.17
  -2   5   9   38.62    3.37
  -1   5   9   27.95    2.83
   0   5   9    5.33    1.45
   1   5   9    4.78    1.60
  -2   6   9   18.43    2.43
  -1   6   9   24.55    2.83
   0   6   9    6.15    1.69
   1   9 -10    4.64    2.05
   1  -9  10   13.60    1.32
   2   8 -10    9.34    2.18
   1   8 -10   14.14    2.32
   0  -8  10   -0.24    0.46
   0  -8  10   -0.84    0.61
   1  -8  10   16.05    1.33
   2   7 -10   20.65    2.60
   1   7 -10   22.18    2.42
  -1  -7  10   18.48    1.96
   0  -7  10   -0.01    0.58
   0  -7  10   -0.19    0.43
   1  -7  10   14.01    1.25
   2  -7  10   27.03    1.88
  -3  -6  10    5.18    1.29
  -3  -6  10    8.65    1.35
   2   6 -10   46.47    3.48
  -2  -6  10   41.80    3.32
   1   6 -10   22.18    2.19
  -1  -6  10   20.51    1.44
  -1  -6  10   24.01    2.04
   0  -6  10    1.56    0.69
   0  -6  10    0.84    0.46
   1  -6  10   13.11    1.19
   2  -6  10   40.48    2.46
  -3  -5  10    3.97    1.01
  -3  -5  10    2.27    0.95
  -2  -5  10   37.20    2.89
  -1  -5  10   67.67    4.58
  -1  -5  10   68.38    3.39
   0  -5  10    6.97    0.82
   0  -5  10    7.87    1.09
   1  -5  10   14.84    1.27
   2  -5  10   38.76    2.40
  -3  -4  10    0.09    0.75
  -3  -4  10    0.27    0.62
  -2  -4  10   40.75    2.62
  -2  -4  10   39.77    3.03
  -1  -4  10   91.63    4.27
  -1  -4  10   86.08    5.73
   0  -4  10   28.91    2.25
   0  -4  10   27.01    1.73
   1  -4  10    4.25    0.77
   1  -4  10    5.98    0.93
   2  -4  10   38.64    2.42
  -3  -3  10   -0.52    0.65
  -3  -3  10   -0.17    0.52
  -2  -3  10   21.30    1.96
  -2  -3  10   22.49    1.60
  -1  -3  10  102.63    6.56
  -1  -3  10  103.59    4.87
   0  -3  10   44.22    2.48
   0  -3  10   45.89    3.22
   1  -3  10    1.71    0.63
   1  -3  10    1.72    0.60
   2  -3  10   25.10    1.85
  -3  -2  10    2.74    0.68
  -3  -2  10    1.06    0.80
  -2  -2  10   15.07    1.56
  -1  -2  10   67.50    4.56
  -1  -2  10   69.12    3.40
   0  -2  10   76.92    3.84
   0  -2  10   75.56    5.01
   1  -2  10    4.11    0.78
   1  -2  10    5.88    0.97
   2  -2  10   15.84    1.51
  -4  -1  10   10.15    1.21
  -3  -1  10    2.48    0.88
  -3  -1  10    2.94    0.66
  -2  -1  10    8.05    1.17
  -1  -1  10   51.31    3.61
   0  -1  10   66.88    4.58
   0  -1  10   69.10    3.52
   1  -1  10   12.37    1.46
   1  -1  10   10.65    1.16
   2  -1  10    3.85    0.90
  -4   0  10    8.56    1.10
  -3   0  10   13.85    1.51
  -3   0  10   13.30    1.21
  -2   0  10   13.53    1.49
  -1   0  10   32.07    2.53
   0   0  10   51.66    2.85
   0   0  10   51.45    3.71
   1   0  10   14.37    1.37
   1   0  10   15.88    1.76
   2   0  10    0.41    0.62
  -3   1  10    9.72    1.33
  -2   1  10    0.89    0.69
  -1   1  10   40.08    3.06
   0   1  10   61.41    4.31
   0   1  10   57.83    3.21
   1   1  10   10.80    1.23
   1   1  10   12.98    1.71
   2   1  10    0.01    0.65
  -3   2  10   14.73    1.66
  -2   2  10    0.76    0.70
  -1   2  10   24.08    2.24
   0   2  10   61.49    3.40
   0   2  10   61.67    4.54
   1   2  10   12.89    1.39
   1   2  10   12.82    1.89
  -3   3  10   21.30    2.14
  -2   3  10    2.48    0.97
  -1   3  10    9.22    1.48
   0   3  10   38.12    3.31
   0   3  10   36.68    2.42
   1   3  10   19.96    1.85
   1   3  10   24.21    2.67
  -3   4  10   20.02    2.20
  -2   4  10    8.92    1.57
  -1   4  10    3.24    1.15
   0   4  10   31.12    2.18
   0   4  10   27.55    2.93
  -2   5  10    8.82    1.69
  -1   5  10   -0.88    0.85
   0   5  10   13.00    2.14
  -1  -8  11   10.70    1.15
  -1  -8  11   13.20    1.69
   0  -8  11   29.21    2.00
   0  -8  11   33.18    2.68
   2   7 -11    0.85    1.27
  -2  -7  11   -0.83    0.82
  -1  -7  11    5.29    1.14
  -1  -7  11    5.14    0.78
   0  -7  11   34.06    2.17
   0  -7  11   37.56    2.86
   1  -7  11   33.69    2.16
  -2  -6  11    7.76    1.36
  -1  -6  11    2.03    0.88
   0  -6  11   37.23    2.21
   0  -6  11   36.24    2.83
   1  -6  11   46.34    2.71
  -2  -5  11   14.93    1.72
  -1  -5  11    1.00    0.71
   0  -5  11   26.25    2.27
   0  -5  11   28.18    1.81
   1  -5  11   46.61    2.73
  -3  -4  11   14.76    1.48
  -3  -4  11   12.59    1.69
  -2  -4  11   19.98    1.97
  -1  -4  11    0.84    0.71
   0  -4  11   11.44    1.14
   0  -4  11   13.29    1.48
   1  -4  11   50.08    2.90
   2  -4  11   22.85    1.84
  -3  -3  11   18.44    1.92
  -3  -3  11   18.22    1.59
  -2  -3  11   24.70    2.24
  -1  -3  11    2.99    0.88
   0  -3  11   10.42    1.30
   0  -3  11    8.25    0.99
   1  -3  11   40.95    3.12
   1  -3  11   41.43    2.55
   2  -3  11   21.09    1.79
  -3  -2  11   20.98    2.06
  -2  -2  11   29.01    2.44
  -1  -2  11   11.50    1.43
   0  -2  11    8.15    1.00
   0  -2  11   10.96    1.33
   1  -2  11   35.92    2.32
   1  -2  11   33.99    2.81
   2  -2  11   15.41    1.61
  -3  -1  11   26.62    2.35
  -2  -1  11   29.81    2.51
  -1  -1  11   15.36    1.64
   0  -1  11    2.24    0.79
   0  -1  11    2.01    0.62
   1  -1  11   25.46    1.97
   1  -1  11   29.17    2.51
  -3   0  11   17.63    1.84
  -2   0  11   41.40    3.17
  -1   0  11   28.64    2.45
   0   0  11    0.14    0.44
   0   0  11    0.05    0.59
   1   0  11   20.37    2.17
   1   0  11   19.72    1.72
  -3   1  11    3.82    1.05
  -2   1  11   42.81    3.32
  -1   1  11   41.96    3.30
   0   1  11    0.86    0.74
   0   1  11   -0.08    0.45
   1   1  11    8.68    1.53
   1   1  11    5.82    1.02
  -3   2  11    3.34    1.08
  -2   2  11   19.88    2.10
  -1   2  11   40.32    3.30
   0   2  11    8.16    1.49
   0   2  11    8.54    1.13
  -2   3  11   12.32    1.79
  -1   3  11   25.04    2.59
   0   3  11   10.92    1.77
   0   3  11    7.94    1.15
  -1   4  11   27.07    2.85
  -1  -6  12   21.81    2.16
   0  -6  12   14.91    1.71
   0  -6  12   15.53    1.41
  -2  -5  12    8.70    1.50
  -1  -5  12   22.47    2.17
   0  -5  12   23.16    2.10
   0  -5  12   19.41    1.63
   1  -5  12    0.74    0.64
  -2  -4  12    7.30    1.36
  -1  -4  12   25.99    2.36
   0  -4  12   27.47    2.46
   0  -4  12   31.45    2.03
   1  -4  12    1.54    0.76
  -2  -3  12    1.31    0.87
  -1  -3  12   37.73    3.01
   0  -3  12   40.53    3.16
   0  -3  12   41.53    2.53
   1  -3  12    5.15    1.00
  -2  -2  12    0.39    0.82
  -1  -2  12   26.29    2.38
   0  -2  12   44.20    2.72
   0  -2  12   45.84    3.46
   1  -2  12   13.68    1.48
  -2  -1  12    1.85    0.92
  -1  -1  12   13.12    1.64
   0  -1  12   40.34    3.19
   0  -1  12   37.65    2.47
  -2   0  12    4.20    1.15
  -1   0  12    5.61    1.21
   0   0  12   22.24    2.25
   0   0  12   20.96    1.71
  -2   1  12    8.48    1.46
  -1   1  12    1.80    0.88
   0   1  12   13.50    1.42
   0   1  12   15.12    1.97
  -1   2  12    0.41    0.85
   0   0   0    0.00    0.00
;
_shelx_hkl_checksum              52358
_olex2_submission_special_instructions 'No special instructions were received'
loop_
_space_group_symop_operation_xyz
'x, y, z'
'-x, -y, -z'
loop_
_atom_site_label
_atom_site_type_symbol
_atom_site_fract_x
_atom_site_fract_y
_atom_site_fract_z
_atom_site_U_iso_or_equiv
_atom_site_adp_type
_atom_site_occupancy
_atom_site_site_symmetry_order
_atom_site_calc_flag
_atom_site_refinement_flags_posn
_atom_site_refinement_flags_adp
_atom_site_refinement_flags_occupancy
_atom_site_disorder_assembly
_atom_site_disorder_group
Hg1 Hg 0.12404(9) 0.47083(5) 0.20380(3) 0.0343(2) Uani 1 1 d . . . . .
Cl1 Cl -0.1617(8) 0.6634(4) 0.1469(3) 0.0444(7) Uani 1 1 d . . . . .
C1 C 0.529(3) 0.3114(13) 0.3996(11) 0.030(2) Uani 1 1 d . . . . .
C2 C 0.350(3) 0.2929(13) 0.2576(11) 0.030(2) Uani 1 1 d . . . . .
C3 C 0.332(3) 0.1536(14) 0.1617(11) 0.039(3) Uani 1 1 d . . . . .
H3 H 0.2196 0.1393 0.0670 0.046 Uiso 1 1 calc R . . . .
C4 C 0.474(3) 0.0356(14) 0.2017(12) 0.040(3) Uani 1 1 d . . . . .
H4 H 0.4562 -0.0568 0.1342 0.049 Uiso 1 1 calc R . . . .
C5 C 0.644(3) 0.0526(14) 0.3420(13) 0.041(3) Uani 1 1 d . . . . .
H5 H 0.7362 -0.0278 0.3703 0.050 Uiso 1 1 calc R . . . .
C6 C 0.672(3) 0.1934(14) 0.4384(12) 0.039(3) Uani 1 1 d . . . . .
H6 H 0.7908 0.2081 0.5322 0.047 Uiso 1 1 calc R . . . .
N1 N 0.566(2) 0.4459(11) 0.5149(8) 0.0322(19) Uani 1 1 d . . . . .
loop_
_atom_site_aniso_label
_atom_site_aniso_U_11
_atom_site_aniso_U_22
_atom_site_aniso_U_33
_atom_site_aniso_U_23
_atom_site_aniso_U_13
_atom_site_aniso_U_12
Hg1 0.0380(3) 0.0353(3) 0.0312(3) 0.0113(2) 0.00470(19) 0.0101(2)
Cl1 0.0484(16) 0.0382(17) 0.0508(16) 0.0187(14) 0.0048(13) 0.0164(14)
C1 0.032(5) 0.024(5) 0.037(5) 0.014(5) 0.009(4) 0.003(4)
C2 0.033(5) 0.021(5) 0.034(5) 0.005(4) 0.010(4) 0.001(4)
C3 0.043(6) 0.039(7) 0.031(5) 0.008(5) 0.005(4) 0.004(5)
C4 0.046(6) 0.033(6) 0.042(6) 0.006(5) 0.015(5) 0.006(5)
C5 0.052(7) 0.032(7) 0.052(6) 0.021(6) 0.022(5) 0.017(6)
C6 0.046(6) 0.031(6) 0.039(5) 0.014(5) 0.004(5) 0.000(5)
N1 0.047(5) 0.029(5) 0.025(4) 0.007(4) 0.009(4) 0.019(4)
loop_
_atom_type_symbol
_atom_type_description
_atom_type_scat_dispersion_real
_atom_type_scat_dispersion_imag
_atom_type_scat_source
C C 0.0033 0.0016 'International Tables Vol C Tables 4.2.6.8 and 6.1.1.4'
H H 0.0000 0.0000 'International Tables Vol C Tables 4.2.6.8 and 6.1.1.4'
Cl Cl 0.1484 0.1585 'International Tables Vol C Tables 4.2.6.8 and 6.1.1.4'
Hg Hg -2.3894 9.2266 'International Tables Vol C Tables 4.2.6.8 and 6.1.1.4'
N N 0.0061 0.0033 'International Tables Vol C Tables 4.2.6.8 and 6.1.1.4'
loop_
_geom_angle_atom_site_label_1
_geom_angle_atom_site_label_2
_geom_angle_atom_site_label_3
_geom_angle
_geom_angle_site_symmetry_1
_geom_angle_site_symmetry_3
C2 Hg1 Cl1 176.4(3) . .
C2 C1 N1 125.4(10) . .
C6 C1 C2 120.2(10) . .
C6 C1 N1 114.4(9) . .
C1 C2 Hg1 119.3(8) . .
C3 C2 Hg1 123.3(8) . .
C3 C2 C1 117.4(10) . .
C2 C3 H3 119.0 . .
C4 C3 C2 122.0(10) . .
C4 C3 H3 119.0 . .
C3 C4 H4 119.7 . .
C3 C4 C5 120.7(11) . .
C5 C4 H4 119.7 . .
C4 C5 H5 121.1 . .
C6 C5 C4 117.8(11) . .
C6 C5 H5 121.1 . .
C1 C6 C5 121.9(11) . .
C1 C6 H6 119.1 . .
C5 C6 H6 119.1 . .
N1 N1 C1 116.5(10) 2_666 .
loop_
_geom_bond_atom_site_label_1
_geom_bond_atom_site_label_2
_geom_bond_distance
_geom_bond_site_symmetry_2
Hg1 Cl1 2.322(3) .
Hg1 C2 2.068(11) .
C1 C2 1.412(15) .
C1 C6 1.369(16) .
C1 N1 1.437(14) .
C2 C3 1.380(16) .
C3 H3 0.9300 .
C3 C4 1.372(17) .
C4 H4 0.9300 .
C4 C5 1.388(17) .
C5 H5 0.9300 .
C5 C6 1.386(18) .
C6 H6 0.9300 .
N1 N1 1.238(17) 2_666
loop_
_geom_torsion_atom_site_label_1
_geom_torsion_atom_site_label_2
_geom_torsion_atom_site_label_3
_geom_torsion_atom_site_label_4
_geom_torsion
_geom_torsion_site_symmetry_1
_geom_torsion_site_symmetry_2
_geom_torsion_site_symmetry_3
_geom_torsion_site_symmetry_4
Hg1 C2 C3 C4 -177.7(9) . . . .
C1 C2 C3 C4 1.3(16) . . . .
C2 C1 C6 C5 -0.8(18) . . . .
C2 C1 N1 N1 -1.0(18) . . . 2_666
C2 C3 C4 C5 -0.1(18) . . . .
C3 C4 C5 C6 -1.5(17) . . . .
C4 C5 C6 C1 2.0(18) . . . .
C6 C1 C2 Hg1 178.2(8) . . . .
C6 C1 C2 C3 -0.8(16) . . . .
C6 C1 N1 N1 -178.5(12) . . . 2_666
N1 C1 C2 Hg1 0.8(14) . . . .
N1 C1 C2 C3 -178.2(10) . . . .
N1 C1 C6 C5 176.8(10) . . . .
