#------------------------------------------------------------------------------
#$Date: 2022-07-11 10:31:12 +0300 (Mon, 11 Jul 2022) $
#$Revision: 276745 $
#$URL: file:///home/coder/svn-repositories/cod/cif/8/10/56/8105669.cif $
#------------------------------------------------------------------------------
#
# This file is available in the Crystallography Open Database (COD),
# http://www.crystallography.net/
#
# All data on this site have been placed in the public domain by the
# contributors.
#
data_8105669
loop_
_publ_author_name
'Lv, Mu-Xuan'
'Bian, Lin-Yan'
_publ_section_title
;
 Crystal structure of 2-((4-nitrophenyl)thio)ethan-1-ol, C8H9NO3S
;
_journal_issue                   3
_journal_name_full
'Zeitschrift f\"ur Kristallographie - New Crystal Structures'
_journal_page_first              429
_journal_page_last               430
_journal_paper_doi               10.1515/ncrs-2018-0439
_journal_volume                  234
_journal_year                    2019
_chemical_formula_sum            'C8 H9 N O3 S'
_chemical_formula_weight         199.22
_space_group_crystal_system      triclinic
_space_group_IT_number           2
_space_group_name_Hall           '-P 1'
_space_group_name_H-M_alt        'P -1'
_atom_sites_solution_hydrogens   geom
_cell_angle_alpha                97.249(9)
_cell_angle_beta                 95.155(8)
_cell_angle_gamma                108.515(8)
_cell_formula_units_Z            2
_cell_length_a                   6.984(4)
_cell_length_b                   7.494(4)
_cell_length_c                   9.174(5)
_cell_measurement_reflns_used    1461
_cell_measurement_temperature    296(2)
_cell_measurement_theta_max      23.88
_cell_measurement_theta_min      1.95
_cell_volume                     447.3(4)
_computing_cell_refinement       'Bruker SMART'
_computing_data_collection       'Bruker SMART'
_computing_data_reduction        'Bruker SAINT'
_computing_molecular_graphics    'Bruker SHELXTL'
_computing_publication_material  'Bruker SHELXTL'
_computing_structure_refinement  'SHELXL-2017/1 (Sheldrick, 2017)'
_computing_structure_solution    'Bruker SHELXTL'
_diffrn_ambient_temperature      296(2)
_diffrn_measured_fraction_theta_full 0.988
_diffrn_measured_fraction_theta_max 0.988
_diffrn_measurement_device_type  'CCD area detector'
_diffrn_measurement_method       'phi and omega scans'
_diffrn_radiation_type           MoK\a
_diffrn_radiation_wavelength     0.71073
_diffrn_reflns_av_R_equivalents  0.0282
_diffrn_reflns_av_unetI/netI     0.0466
_diffrn_reflns_Laue_measured_fraction_full 0.988
_diffrn_reflns_Laue_measured_fraction_max 0.988
_diffrn_reflns_limit_h_max       8
_diffrn_reflns_limit_h_min       -8
_diffrn_reflns_limit_k_max       8
_diffrn_reflns_limit_k_min       -8
_diffrn_reflns_limit_l_max       8
_diffrn_reflns_limit_l_min       -10
_diffrn_reflns_number            2228
_diffrn_reflns_point_group_measured_fraction_full 0.988
_diffrn_reflns_point_group_measured_fraction_max 0.988
_diffrn_reflns_theta_full        24.996
_diffrn_reflns_theta_max         24.996
_diffrn_reflns_theta_min         2.259
_exptl_absorpt_coefficient_mu    0.334
_exptl_absorpt_correction_T_max  0.975
_exptl_absorpt_correction_T_min  0.940
_exptl_absorpt_correction_type   multi-scan
_exptl_absorpt_process_details   sadabs
_exptl_crystal_colour            yellow
_exptl_crystal_density_diffrn    1.479
_exptl_crystal_description       plate
_exptl_crystal_F_000             208
_exptl_crystal_size_max          0.200
_exptl_crystal_size_mid          0.200
_exptl_crystal_size_min          0.060
_refine_diff_density_max         0.552
_refine_diff_density_min         -0.424
_refine_diff_density_rms         0.106
_refine_ls_extinction_coef       0.08(2)
_refine_ls_extinction_expression Fc^*^=kFc[1+0.001xFc^2^\l^3^/sin(2\q)]^-1/4^
_refine_ls_extinction_method     'SHELXL-2017/1 (Sheldrick 2017)'
_refine_ls_goodness_of_fit_ref   1.040
_refine_ls_hydrogen_treatment    constr
_refine_ls_matrix_type           full
_refine_ls_number_parameters     119
_refine_ls_number_reflns         1542
_refine_ls_number_restraints     0
_refine_ls_restrained_S_all      1.040
_refine_ls_R_factor_all          0.0579
_refine_ls_R_factor_gt           0.0538
_refine_ls_shift/su_max          0.000
_refine_ls_shift/su_mean         0.000
_refine_ls_structure_factor_coef Fsqd
_refine_ls_weighting_details
'w=1/[\s^2^(Fo^2^)+(0.1258P)^2^+0.0142P] where P=(Fo^2^+2Fc^2^)/3'
_refine_ls_weighting_scheme      calc
_refine_ls_wR_factor_gt          0.1547
_refine_ls_wR_factor_ref         0.1617
_reflns_Friedel_coverage         0.000
_reflns_Friedel_fraction_full    .
_reflns_Friedel_fraction_max     .
_reflns_number_gt                1369
_reflns_number_total             1542
_reflns_threshold_expression     'I > 2\s(I)'
_cod_data_source_file            suppl_ncrs-2018-0439_suppl.cif
_cod_data_source_block           1
_cod_original_cell_volume        447.4(4)
_cod_database_code               8105669
_shelx_space_group_comment
; 
The symmetry employed for this shelxl refinement is uniquely defined 
by the following loop, which should always be used as a source of 
symmetry information in preference to the above space-group names. 
They are only intended as comments. 
;
_shelx_estimated_absorpt_t_min   0.936
_shelx_estimated_absorpt_t_max   0.980
_shelx_res_file
; 
TITL 1 in P-1 
    1.res 
    created by SHELXL-2017/1 at 10:59:06 on 14-Jul-2018 
CELL 0.71073   6.9838   7.4944   9.1743  97.249  95.155 108.515 
ZERR    2   0.0041   0.0044   0.0051   0.009   0.008   0.008 
LATT 1 
SFAC C  H  N  O  S 
UNIT 16 18 2 6 2 
L.S. 20 
BOND $H 
eqiv $1 x+1, y, z-1 
htab o3 o1_$1 
htab 
conf 
acta 
omit -2 50 
size 0.20 0.20 0.06 
FMAP 2 
PLAN 20 
TEMP 23.000 
WGHT    0.125800    0.014200 
EXTI    0.082421 
FVAR       0.37577 
C8    1    0.499222    0.322203    0.177778    11.00000    0.06102    0.04578 = 
         0.04384   -0.00205    0.01917    0.01361 
AFIX  23 
H8A   2    0.466664    0.387157    0.098975    11.00000   -1.20000 
H8B   2    0.634715    0.395843    0.228498    11.00000   -1.20000 
AFIX   0 
C4    1   -0.033704    0.290760    0.642975    11.00000    0.03831    0.04967 = 
         0.05266    0.00765    0.01071    0.01939 
AFIX  43 
H4A   2   -0.143052    0.334390    0.625803    11.00000   -1.20000 
AFIX   0 
O1    4   -0.077290    0.212675    1.012257    11.00000    0.07568    0.09602 = 
         0.04863    0.01808    0.02772    0.03146 
C5    1    0.084993    0.276748    0.534284    11.00000    0.04441    0.04929 = 
         0.03788    0.00653    0.00858    0.01802 
AFIX  43 
H5A   2    0.056239    0.310533    0.442775    11.00000   -1.20000 
AFIX   0 
O2    4   -0.244969    0.332959    0.870997    11.00000    0.06906    0.09080 = 
         0.07878    0.02160    0.03970    0.04554 
C1    1    0.285187    0.154107    0.696220    11.00000    0.04455    0.04620 = 
         0.04347    0.00343    0.00750    0.02204 
AFIX  43 
H1A   2    0.390893    0.105597    0.712958    11.00000   -1.20000 
AFIX   0 
C7    1    0.347221    0.304667    0.284327    11.00000    0.05793    0.04166 = 
         0.03951    0.00078    0.01514    0.02023 
AFIX  23 
H7A   2    0.212532    0.227622    0.234038    11.00000   -1.20000 
H7B   2    0.343364    0.429941    0.322803    11.00000   -1.20000 
AFIX   0 
C3    1    0.009460    0.240057    0.777585    11.00000    0.03948    0.03804 = 
         0.04233   -0.00084    0.01540    0.00763 
C2    1    0.166489    0.168019    0.805228    11.00000    0.04498    0.04466 = 
         0.03948    0.00406    0.00693    0.01453 
AFIX  43 
H2A   2    0.190757    0.129968    0.895750    11.00000   -1.20000 
AFIX   0 
C6    1    0.249963    0.211472    0.560822    11.00000    0.04088    0.03371 = 
         0.03698   -0.00339    0.00751    0.01183 
O3    4    0.493223    0.138474    0.118322    11.00000    0.07995    0.05551 = 
         0.05658   -0.00471    0.03545    0.02592 
AFIX  83 
H3A   2    0.601173    0.144326    0.087239    11.00000   -1.50000 
AFIX   0 
N1    3   -0.112233    0.263218    0.894125    11.00000    0.04441    0.04678 = 
         0.05216    0.00196    0.01882    0.00931 
S1    5    0.418179    0.195172    0.434225    11.00000    0.05265    0.05756 = 
         0.04190    0.00561    0.01733    0.03006 
  
HKLF 4 
  
  
  
  
REM  1 in P-1 
REM R1 =  0.0538 for    1369 Fo > 4sig(Fo)  and  0.0579 for all    1542 data 
REM    119 parameters refined using      0 restraints 
  
END 
  
WGHT      0.1141      0.0095 
  
REM Instructions for potential hydrogen bonds 
HTAB O3 O1_$1 
  
REM Highest difference peak  0.552,  deepest hole -0.424,  1-sigma level  0.106 
Q1    1   0.4977  0.1374  0.4764  11.00000  0.05    0.55 
Q2    1   0.3662  0.2732  0.3821  11.00000  0.05    0.47 
Q3    1   0.0716  0.2079  0.7895  11.00000  0.05    0.36 
Q4    1   0.1569  0.2595  0.5394  11.00000  0.05    0.36 
Q5    1   0.4038  0.2129  0.0646  11.00000  0.05    0.29 
Q6    1   0.4314  0.3053  0.6714  11.00000  0.05    0.27 
Q7    1   0.3397  0.2452  0.9380  11.00000  0.05    0.26 
Q8    1   0.5293  0.0594  0.1657  11.00000  0.05    0.25 
Q9    1   0.0095  0.1588  1.0495  11.00000  0.05    0.25 
Q10   1  -0.3504  0.1971  0.6651  11.00000  0.05    0.24 
Q11   1   0.0663  0.3007  0.1588  11.00000  0.05    0.24 
Q12   1   0.0805  0.3970  1.0043  11.00000  0.05    0.24 
Q13   1  -0.2626  0.2820  0.4230  11.00000  0.05    0.24 
Q14   1   0.2065  0.1259  0.1982  11.00000  0.05    0.23 
Q15   1   0.5453  0.2947  0.5568  11.00000  0.05    0.22 
Q16   1   0.0947  0.0754  0.4524  11.00000  0.05    0.22 
Q17   1  -0.0523  0.1942  0.4182  11.00000  0.05    0.22 
Q18   1   0.6451  0.3319  0.4865  11.00000  0.05    0.22 
Q19   1   0.1660  0.3597  0.9035  11.00000  0.05    0.21 
Q20   1   0.2274  0.3611  0.8530  11.00000  0.05    0.21 
;
_shelx_hkl_file
; 
   1   0   0    1.14    0.06 
  -2   0   0   81.12    3.65 
  -2   0   0   83.34    3.80 
   2   0   0   71.71    3.51 
  -3   0   0    1.64    0.12 
  -3   0   0    1.57    0.13 
   3   0   0    1.62    0.10 
  -4   0   0    4.70    0.28 
  -4   0   0    4.73    0.29 
   4   0   0    4.61    0.24 
  -5   0   0    0.05    0.05 
  -5   0   0   -0.01    0.04 
   5   0   0   -0.02    0.02 
  -6   0   0    5.64    0.37 
  -7   0   0    1.25    0.17 
  -8   0   0    0.15    0.10 
  -8   1   0    0.39    0.11 
  -7   1   0    0.79    0.13 
   6  -1   0    1.20    0.10 
  -6   1   0    1.15    0.15 
  -6   1   0    1.07    0.13 
   5  -1   0    1.10    0.09 
  -5   1   0    1.10    0.12 
  -5   1   0    0.84    0.12 
   4  -1   0   32.60    1.51 
  -4   1   0   33.28    1.58 
   3  -1   0    0.02    0.02 
  -3   1   0    0.02    0.04 
  -3   1   0    0.04    0.03 
   2  -1   0  138.46    5.89 
  -2   1   0  139.53    6.06 
  -2   1   0  116.89    6.34 
   1  -1   0   35.52    1.60 
   0   1   0   30.12    1.36 
  -1  -1   0  177.59    8.30 
   1   1   0  182.97    8.04 
  -2  -1   0  190.68    8.81 
  -2  -1   0  178.49    8.46 
   2   1   0  181.20    8.18 
  -3  -1   0   12.46    0.62 
  -3  -1   0   11.68    0.64 
   3   1   0   12.44    0.56 
  -4  -1   0   15.78    0.87 
  -4  -1   0   16.22    0.85 
   4   1   0   17.98    0.77 
  -5  -1   0   -0.02    0.05 
  -5  -1   0    0.02    0.05 
  -6  -1   0    0.02    0.07 
  -7  -1   0    0.85    0.16 
  -8  -1   0    0.86    0.18 
  -7   2   0    2.96    0.28 
  -7   2   0    3.09    0.24 
   6  -2   0    6.15    0.35 
  -6   2   0    6.26    0.42 
  -6   2   0    5.98    0.36 
   5  -2   0    7.15    0.39 
  -5   2   0    7.24    0.40 
  -5   2   0    7.66    0.46 
   4  -2   0   27.04    1.29 
  -4   2   0   27.98    1.31 
   3  -2   0   13.04    0.63 
  -3   2   0   13.20    0.62 
  -3   2   0   12.21    0.68 
   2  -2   0   93.73    4.21 
   1  -2   0   36.31    1.65 
   0   2   0 1000.00   44.55 
  -1  -2   0  205.44   10.59 
   1   2   0  235.83    9.83 
  -2  -2   0   11.21    0.59 
  -2  -2   0   10.43    0.55 
   2   2   0   11.75    0.52 
  -3  -2   0    0.09    0.06 
  -3  -2   0    0.11    0.03 
   3   2   0    0.05    0.02 
  -4  -2   0    5.90    0.40 
  -4  -2   0    6.46    0.35 
  -5  -2   0    4.07    0.32 
  -6  -2   0    3.28    0.30 
  -7  -2   0    0.23    0.13 
   7  -3   0    5.42    0.33 
  -7   3   0    5.12    0.40 
   6  -3   0    2.87    0.22 
  -6   3   0    2.98    0.20 
  -6   3   0    2.89    0.26 
   5  -3   0   11.55    0.60 
  -5   3   0   11.53    0.67 
   4  -3   0   23.24    1.12 
   3  -3   0   10.75    0.55 
   2  -3   0   16.47    0.80 
   1  -3   0   15.19    0.73 
   0   3   0   40.40    1.84 
  -1  -3   0   34.64    1.74 
   1   3   0   36.62    1.63 
  -2  -3   0   27.30    1.26 
   2   3   0   23.83    1.18 
  -3  -3   0    1.71    0.11 
  -3  -3   0    1.27    0.17 
  -4  -3   0    0.80    0.15 
  -5  -3   0    0.39    0.13 
  -6  -3   0    1.80    0.24 
  -7  -3   0    1.82    0.27 
   8  -4   0    8.60    0.51 
   7  -4   0    1.71    0.18 
   6  -4   0    1.86    0.18 
   5  -4   0    9.20    0.51 
   4  -4   0    9.43    0.51 
   3  -4   0   18.45    0.91 
   2  -4   0   37.03    1.73 
   1  -4   0    1.84    0.14 
   0   4   0    6.08    0.33 
  -1  -4   0  116.89    5.69 
   1   4   0  118.53    5.29 
  -2  -4   0    0.05    0.06 
  -2  -4   0    0.02    0.03 
  -3  -4   0    3.99    0.32 
  -3  -4   0    4.47    0.25 
  -4  -4   0    8.00    0.54 
  -5  -4   0    3.22    0.31 
  -6  -4   0    0.71    0.18 
   8  -5   0    3.56    0.28 
   7  -5   0    5.90    0.39 
   6  -5   0    5.38    0.36 
   5  -5   0   25.18    1.25 
   4  -5   0    2.69    0.22 
   3  -5   0    6.46    0.39 
   2  -5   0    0.72    0.10 
   1  -5   0   11.74    0.61 
   0  -5   0    1.98    0.16 
   0   5   0    2.03    0.16 
  -1  -5   0    0.20    0.06 
   1   5   0    0.11    0.06 
  -2  -5   0    0.03    0.04 
  -2  -5   0    0.12    0.08 
  -3  -5   0    0.37    0.12 
  -4  -5   0    0.13    0.10 
  -5  -5   0    0.76    0.19 
   8  -6   0    2.78    0.26 
   7  -6   0   -0.05    0.07 
   6  -6   0    0.06    0.07 
   5  -6   0    8.29    0.51 
   4  -6   0    5.53    0.37 
   3  -6   0   -0.05    0.04 
   2  -6   0    7.74    0.46 
   1  -6   0   10.33    0.57 
   0  -6   0    6.15    0.37 
   0  -6   0    6.03    0.37 
  -1  -6   0   17.52    0.91 
  -2  -6   0    0.02    0.08 
  -3  -6   0    1.57    0.22 
  -4  -6   0    0.66    0.17 
  -5  -6   0    0.61    0.19 
   7  -7   0    2.53    0.26 
   6  -7   0    3.27    0.29 
   5  -7   0    9.49    0.58 
   4  -7   0    2.87    0.25 
   3  -7   0    3.97    0.30 
   2  -7   0    1.05    0.15 
   1  -7   0    6.40    0.41 
   0  -7   0    0.29    0.08 
  -1  -7   0    0.41    0.09 
  -2  -7   0    0.56    0.15 
  -3  -7   0    0.27    0.13 
  -4  -7   0    0.00    0.10 
   6  -8   0    0.71    0.16 
   5  -8   0    5.84    0.43 
   4  -8   0    3.63    0.31 
   3  -8   0    0.24    0.10 
   2  -8   0    0.23    0.10 
   1  -8   0    3.79    0.29 
   0  -8   0    1.75    0.18 
  -1  -8   0    1.20    0.20 
  -2  -8   0   -0.03    0.09 
   5  -9   0    0.08    0.10 
   4  -9   0    6.38    0.46 
   3  -9   0    1.44    0.21 
   2  -9   0    1.55    0.19 
   1  -9   0    2.25    0.22 
   1  -9   1    0.62    0.13 
   2  -9   1    0.40    0.13 
   3  -9   1    0.87    0.17 
   4  -9   1    0.15    0.10 
   5  -9   1    0.07    0.11 
  -2  -8   1    1.30    0.21 
  -1  -8   1    1.53    0.21 
   0  -8   1    0.78    0.13 
   1  -8   1    0.04    0.08 
   2  -8   1    0.59    0.13 
   3  -8   1    0.77    0.15 
   4  -8   1    0.84    0.16 
   5  -8   1    9.03    0.58 
   6  -8   1    0.07    0.09 
  -4  -7   1   -0.01    0.11 
  -3  -7   1    0.00    0.10 
  -2  -7   1    0.08    0.09 
  -1  -7   1    3.31    0.28 
   0   7  -1    5.50    0.35 
   0  -7   1    4.74    0.34 
   0  -7   1    4.87    0.33 
   1  -7   1   10.68    0.60 
   2  -7   1   15.47    0.83 
   3  -7   1    2.63    0.23 
   4  -7   1    0.00    0.06 
   5  -7   1    0.82    0.16 
   6  -7   1    2.93    0.27 
   7  -7   1    2.31    0.24 
  -5  -6   1    0.40    0.16 
  -4  -6   1    0.15    0.12 
  -3  -6   1    0.10    0.09 
  -2  -6   1    5.03    0.37 
   1   6  -1    2.84    0.21 
  -1  -6   1    2.53    0.23 
  -1  -6   1    2.67    0.19 
   0   6  -1    0.07    0.06 
  -1   6  -1   -0.04    0.04 
   1  -6   1    0.02    0.05 
   2  -6   1   10.86    0.60 
   3  -6   1    8.24    0.49 
   4  -6   1   10.80    0.61 
   5  -6   1   12.71    0.71 
   6  -6   1    4.53    0.34 
   7  -6   1    0.88    0.16 
   8  -6   1    1.92    0.22 
  -6  -5   1   -0.03    0.13 
  -5  -5   1    0.29    0.14 
  -4  -5   1    1.68    0.23 
  -3  -5   1    3.70    0.31 
  -2  -5   1    4.28    0.31 
   1   5  -1   12.64    0.64 
  -1  -5   1   12.41    0.66 
   0   5  -1   18.89    0.93 
  -1   5  -1   60.01    2.76 
   2  -5   1   39.94    1.88 
   3  -5   1    3.22    0.24 
   4  -5   1    0.48    0.10 
   5  -5   1    5.37    0.36 
   6  -5   1    7.86    0.48 
   7  -5   1    0.49    0.12 
   8  -5   1    0.11    0.08 
  -6  -4   1    0.54    0.17 
  -5  -4   1    6.62    0.49 
  -4  -4   1    0.34    0.12 
  -3  -4   1    1.05    0.16 
   2   4  -1    1.01    0.10 
  -2  -4   1    1.50    0.15 
  -2  -4   1    1.42    0.10 
   1   4  -1    4.38    0.26 
  -1  -4   1    4.59    0.29 
  -1  -4   1    4.44    0.26 
   0   4  -1   10.13    0.52 
  -1   4  -1    7.62    0.41 
   2  -4   1   55.68    2.56 
   3  -4   1   22.88    1.11 
   4  -4   1   22.47    1.10 
  -5   4  -1    1.18    0.17 
   5  -4   1    1.08    0.13 
  -6   4  -1   16.90    0.95 
   6  -4   1   15.77    0.83 
  -7   4  -1    1.13    0.21 
   7  -4   1    1.43    0.16 
  -8   4  -1    2.13    0.28 
  -7  -3   1    4.96    0.43 
  -6  -3   1    0.27    0.13 
  -5  -3   1    0.11    0.09 
  -4  -3   1    8.45    0.53 
   3   3  -1   23.74    1.17 
  -3  -3   1   23.82    1.29 
  -3  -3   1   28.59    1.25 
   2   3  -1    0.09    0.03 
  -2  -3   1    0.13    0.03 
  -2  -3   1    0.07    0.06 
   1   3  -1    0.24    0.04 
  -1  -3   1    0.20    0.04 
  -1  -3   1    0.19    0.06 
   0   3  -1   45.28    2.06 
  -1   3  -1   12.67    0.62 
   2  -3   1    0.50    0.07 
  -3   3  -1  118.36    5.74 
   3  -3   1  117.74    5.32 
  -4   3  -1    0.00    0.04 
   4  -3   1    0.06    0.04 
  -5   3  -1   21.78    1.06 
  -5   3  -1   22.69    1.19 
   5  -3   1   21.72    1.07 
  -6   3  -1   12.00    0.72 
   6  -3   1   12.16    0.63 
  -7   3  -1    0.04    0.09 
  -8   3  -1    0.04    0.12 
  -8  -2   1    0.01    0.12 
  -7  -2   1    0.17    0.11 
  -6  -2   1    7.89    0.52 
  -5  -2   1   15.37    0.86 
   4   2  -1    0.04    0.03 
  -4  -2   1    0.01    0.06 
   3   2  -1    2.21    0.12 
  -3  -2   1    1.66    0.17 
  -3  -2   1    2.09    0.13 
   2   2  -1    4.56    0.22 
  -2  -2   1    4.16    0.27 
  -2  -2   1    4.13    0.22 
   1   2  -1   54.62    2.32 
  -1  -2   1   46.40    2.49 
  -1  -2   1   54.10    2.42 
   0   2  -1    4.61    0.24 
  -1   2  -1   15.38    0.83 
  -1   2  -1   17.71    0.78 
  -2   2  -1   48.36    2.34 
   2  -2   1   46.69    2.16 
  -3   2  -1   -0.02    0.04 
  -3   2  -1    0.00    0.02 
   3  -2   1    0.00    0.03 
  -4   2  -1    2.84    0.22 
  -4   2  -1    3.01    0.18 
   4  -2   1    3.00    0.19 
  -5   2  -1    8.26    0.44 
  -5   2  -1    8.41    0.50 
   5  -2   1    7.93    0.43 
  -6   2  -1   14.22    0.75 
  -6   2  -1   14.34    0.83 
   6  -2   1   15.31    0.73 
  -7   2  -1    1.45    0.20 
  -8  -1   1    0.60    0.16 
  -7  -1   1   16.81    0.94 
  -6  -1   1    0.06    0.07 
  -5  -1   1    2.29    0.21 
   4   1  -1   10.23    0.47 
  -4  -1   1    9.57    0.56 
  -4  -1   1   10.31    0.54 
   3   1  -1   25.95    1.22 
  -3  -1   1   27.29    1.32 
  -3  -1   1   28.06    1.33 
   2   1  -1   54.00    2.48 
  -2  -1   1   57.20    2.61 
  -1  -1   1   46.28    2.16 
   0   1  -1   57.80    2.59 
  -2   1  -1  123.85    5.86 
  -2   1  -1  122.70    5.59 
   2  -1   1  117.71    5.43 
  -3   1  -1  160.25    7.78 
  -3   1  -1  164.27    7.43 
   3  -1   1  159.40    7.21 
  -4   1  -1    3.80    0.25 
  -4   1  -1    3.92    0.24 
   4  -1   1    3.80    0.22 
  -5   1  -1   24.96    1.28 
  -5   1  -1   24.64    1.22 
   5  -1   1   24.89    1.16 
  -6   1  -1    4.15    0.31 
  -6   1  -1    4.28    0.29 
  -7   1  -1    1.04    0.14 
  -8   0   1    0.13    0.10 
  -7   0   1    5.30    0.38 
  -6   0   1   12.88    0.71 
   5   0  -1   10.46    0.49 
  -5   0   1    9.76    0.56 
  -5   0   1    9.91    0.56 
   4   0  -1    2.63    0.14 
  -4   0   1    2.46    0.18 
  -4   0   1    2.42    0.19 
   3   0  -1    3.88    0.20 
  -3   0   1    3.80    0.23 
  -3   0   1    3.84    0.24 
   2   0  -1    7.99    0.38 
  -2   0   1    8.41    0.42 
   1   0  -1   75.34    3.34 
  -1   0   1   74.26    3.45 
   0   0  -1    2.02    0.10 
  -2   0  -1   20.28    0.93 
   2   0   1   18.51    0.88 
  -3   0  -1   92.66    4.09 
  -3   0  -1   90.84    4.25 
   3   0   1   79.92    3.92 
  -4   0  -1    4.71    0.29 
  -4   0  -1    4.61    0.28 
   4   0   1    4.71    0.24 
  -5   0  -1   16.90    0.90 
  -5   0  -1   17.08    0.88 
  -6   0  -1    4.37    0.31 
  -6   0  -1    4.50    0.31 
  -7   0  -1    0.83    0.14 
  -8   0  -1    1.19    0.18 
  -9   1   1    0.38    0.13 
  -8   1   1    0.20    0.10 
  -7   1   1    9.98    0.58 
   6  -1  -1    7.17    0.37 
  -6   1   1    6.77    0.42 
   5  -1  -1   24.06    1.12 
  -5   1   1   24.11    1.18 
  -5   1   1   23.41    1.23 
   4  -1  -1    2.28    0.15 
  -4   1   1    2.72    0.18 
  -4   1   1    2.29    0.17 
   3  -1  -1   10.63    0.51 
  -3   1   1    9.91    0.55 
  -3   1   1   11.18    0.53 
   2  -1  -1   18.84    0.90 
  -2   1   1   20.27    0.93 
   1  -1  -1    0.83    0.06 
   0  -1  -1   26.25    1.36 
   0  -1  -1   29.85    1.26 
  -1  -1  -1  640.84   30.76 
  -2  -1  -1    4.51    0.27 
   2   1   1    5.54    0.23 
  -3  -1  -1   30.20    1.51 
  -3  -1  -1   28.74    1.49 
   3   1   1   32.82    1.38 
  -4  -1  -1    6.19    0.39 
  -4  -1  -1    6.34    0.36 
  -5  -1  -1    3.31    0.23 
  -5  -1  -1    3.31    0.26 
  -6  -1  -1   -0.02    0.06 
  -7  -1  -1    1.11    0.17 
  -8  -1  -1    0.18    0.12 
  -8   2   1    3.73    0.29 
   7  -2  -1    6.15    0.35 
  -7   2   1    5.53    0.37 
   6  -2  -1    0.56    0.09 
  -6   2   1    0.50    0.09 
  -6   2   1    0.63    0.12 
   5  -2  -1    0.13    0.05 
  -5   2   1    0.06    0.05 
  -5   2   1    0.06    0.05 
   4  -2  -1   -0.03    0.02 
  -4   2   1    0.02    0.03 
   3  -2  -1   17.67    0.84 
   2  -2  -1   12.97    0.63 
   1  -2  -1  108.37    4.86 
   0  -2  -1   24.73    1.13 
   0  -2  -1   24.69    1.22 
   1   2   1    1.60    0.09 
  -2  -2  -1   58.00    2.87 
   2   2   1   60.61    2.66 
  -3  -2  -1   51.81    2.63 
  -3  -2  -1   58.01    2.68 
  -4  -2  -1    1.53    0.12 
  -4  -2  -1    1.34    0.17 
  -5  -2  -1    4.68    0.35 
  -6  -2  -1    0.17    0.10 
  -7  -2  -1    0.10    0.10 
   7  -3  -1    0.98    0.13 
   6  -3  -1   28.65    1.37 
   5  -3  -1   31.51    1.49 
   4  -3  -1    0.31    0.07 
   3  -3  -1    2.17    0.16 
   2  -3  -1   13.79    0.68 
   1  -3  -1    1.56    0.12 
   0  -3  -1    0.58    0.07 
   0  -3  -1    0.65    0.07 
  -1  -3  -1  360.67   16.91 
  -1  -3  -1  398.71   18.22 
  -2  -3  -1   55.99    2.72 
  -3  -3  -1    1.41    0.11 
  -3  -3  -1    1.42    0.17 
  -4  -3  -1    3.91    0.32 
  -4  -3  -1    4.23    0.25 
  -5  -3  -1    0.28    0.10 
  -6  -3  -1    0.74    0.17 
  -7  -3  -1    0.93    0.20 
   8  -4  -1    5.29    0.36 
   7  -4  -1    0.28    0.10 
   6  -4  -1    8.23    0.48 
   5  -4  -1    8.73    0.49 
   4  -4  -1   24.24    1.18 
   3  -4  -1   56.44    2.60 
   2  -4  -1    7.78    0.42 
   1  -4  -1   61.27    2.79 
   0  -4  -1    9.31    0.49 
   0  -4  -1   10.13    0.53 
  -1  -4  -1    0.37    0.07 
  -1  -4  -1    0.29    0.06 
  -2  -4  -1   14.03    0.72 
  -3  -4  -1    1.91    0.14 
  -3  -4  -1    1.60    0.20 
  -4  -4  -1    0.19    0.10 
  -5  -4  -1    0.30    0.13 
  -6  -4  -1    0.33    0.14 
   9  -5  -1    0.52    0.13 
   8  -5  -1    3.14    0.27 
   7  -5  -1   12.31    0.69 
   6  -5  -1   12.21    0.67 
   5  -5  -1    2.48    0.21 
   4  -5  -1    7.58    0.44 
   3  -5  -1    1.13    0.13 
   2  -5  -1    2.96    0.22 
   1  -5  -1    8.37    0.46 
   0  -5  -1    1.63    0.14 
   0  -5  -1    1.65    0.15 
  -1  -5  -1   38.44    1.91 
  -2  -5  -1   36.35    1.80 
  -3  -5  -1    0.86    0.16 
  -3  -5  -1    0.72    0.09 
  -4  -5  -1    1.22    0.21 
  -5  -5  -1    0.56    0.17 
   8  -6  -1    0.31    0.12 
   7  -6  -1    6.23    0.43 
   6  -6  -1   11.06    0.64 
   5  -6  -1   11.33    0.64 
   4  -6  -1   22.14    1.12 
   3  -6  -1    6.14    0.39 
   2  -6  -1    0.00    0.05 
   1  -6  -1    6.72    0.38 
   1  -6  -1    5.90    0.39 
   0  -6  -1    0.30    0.09 
  -1  -6  -1    1.19    0.13 
  -2  -6  -1    0.43    0.08 
  -3  -6  -1    0.16    0.11 
  -4  -6  -1    0.08    0.11 
   7  -7  -1    5.39    0.40 
   6  -7  -1    0.08    0.07 
   5  -7  -1    0.61    0.13 
   4  -7  -1    8.86    0.54 
   3  -7  -1    6.15    0.40 
   2  -7  -1    0.39    0.11 
   1  -7  -1    5.43    0.37 
   1  -7  -1    6.09    0.38 
   0  -7  -1   -0.02    0.06 
  -1  -7  -1    0.34    0.09 
  -2  -7  -1    5.33    0.41 
  -3  -7  -1    0.33    0.14 
   6  -8  -1    2.16    0.25 
   5  -8  -1    2.28    0.25 
   4  -8  -1    4.32    0.34 
   3  -8  -1    1.54    0.20 
   2  -8  -1    2.76    0.24 
   2  -8  -1    1.98    0.20 
   1  -8  -1    0.53    0.12 
   0  -8  -1    4.08    0.30 
  -2  -8  -1   -0.04    0.09 
   5  -9  -1    0.06    0.10 
   4  -9  -1    3.12    0.30 
   3  -9  -1    1.82    0.23 
   2  -9  -1    0.03    0.08 
   1  -9  -1    0.29    0.11 
   0  -9  -1    0.82    0.15 
   1  -9   2    4.15    0.34 
   2  -9   2   -0.03    0.08 
   3  -9   2    0.19    0.11 
   4  -9   2    0.46    0.14 
   5  -9   2    0.49    0.15 
  -2  -8   2    0.06    0.10 
   1  -8   2    3.68    0.30 
   2  -8   2    1.99    0.21 
   3  -8   2    0.69    0.14 
   4  -8   2    3.91    0.32 
   5  -8   2    1.38    0.20 
   6  -8   2    1.76    0.23 
  -4  -7   2    0.19    0.13 
  -3  -7   2    0.14    0.11 
  -2  -7   2    1.07    0.17 
  -1  -7   2    4.26    0.32 
   0   7  -2    5.81    0.35 
   0  -7   2    4.51    0.33 
  -1   7  -2    4.90    0.34 
   2  -7   2    0.90    0.14 
   3  -7   2    1.00    0.15 
   4  -7   2    0.25    0.09 
   5  -7   2    0.94    0.16 
   6  -7   2   10.15    0.62 
   7  -7   2    2.01    0.23 
  -5  -6   2    0.32    0.16 
  -4  -6   2    0.76    0.18 
  -3  -6   2    0.00    0.08 
  -2  -6   2    0.22    0.10 
   1   6  -2    0.41    0.09 
  -1  -6   2    0.30    0.09 
   0   6  -2   10.31    0.57 
   0  -6   2   10.48    0.57 
  -1   6  -2   14.41    0.75 
  -2   6  -2   25.61    1.26 
   3  -6   2   17.47    0.90 
   4  -6   2   12.42    0.68 
   5  -6   2    0.05    0.07 
   6  -6   2    0.04    0.07 
   7  -6   2    0.87    0.16 
   8  -6   2    3.83    0.31 
  -6  -5   2    0.12    0.13 
  -5  -5   2    1.84    0.25 
  -4  -5   2    0.48    0.14 
  -3  -5   2   -0.04    0.07 
   2   5  -2    0.32    0.07 
  -2  -5   2    0.39    0.10 
   1   5  -2   15.06    0.76 
  -1  -5   2   15.85    0.80 
  -1  -5   2   14.96    0.78 
   0   5  -2    7.50    0.41 
   0  -5   2    7.27    0.41 
  -1   5  -2    0.63    0.10 
  -2   5  -2    8.36    0.47 
   3  -5   2   13.33    0.70 
   4  -5   2   12.01    0.65 
   5  -5   2   15.49    0.81 
  -6   5  -2   18.23    1.05 
   6  -5   2   18.13    0.94 
  -7   5  -2    0.37    0.16 
   7  -5   2    0.20    0.09 
  -6  -4   2    1.10    0.22 
  -5  -4   2    0.07    0.10 
  -4  -4   2    9.32    0.58 
   3   4  -2    0.20    0.05 
  -3  -4   2    0.16    0.08 
   2   4  -2    0.28    0.06 
  -2  -4   2    0.48    0.09 
   1   4  -2    0.17    0.05 
  -1  -4   2    0.22    0.06 
   0   4  -2   26.80    1.29 
   0  -4   2   28.55    1.33 
  -1   4  -2    4.70    0.28 
  -2   4  -2   75.65    3.45 
  -3   4  -2   16.60    0.91 
   3  -4   2   16.90    0.84 
  -4   4  -2    0.48    0.11 
   4  -4   2    0.44    0.09 
  -5   4  -2    5.54    0.40 
   5  -4   2    5.51    0.34 
  -6   4  -2    3.89    0.32 
   6  -4   2    3.64    0.27 
  -7   4  -2    6.93    0.50 
   7  -4   2    6.74    0.42 
  -8   4  -2    1.48    0.23 
  -7  -3   2   -0.09    0.10 
  -6  -3   2    0.23    0.11 
  -5  -3   2    0.08    0.09 
  -4  -3   2   23.66    1.23 
   3   3  -2    0.21    0.05 
  -3  -3   2    0.21    0.08 
   2   3  -2    8.50    0.43 
  -2  -3   2    8.39    0.49 
  -2  -3   2    9.14    0.44 
   1   3  -2   32.92    1.54 
  -1  -3   2   34.56    1.61 
   0   3  -2    1.64    0.12 
   0  -3   2    1.78    0.12 
  -1   3  -2    9.04    0.46 
  -2   3  -2    2.55    0.19 
  -3   3  -2   26.46    1.34 
   3  -3   2   25.63    1.23 
  -4   3  -2   23.62    1.22 
   4  -3   2   22.78    1.11 
  -5   3  -2   12.33    0.70 
   5  -3   2   11.79    0.62 
  -6   3  -2    2.47    0.24 
   6  -3   2    2.86    0.21 
  -7   3  -2    8.52    0.56 
  -8   3  -2    0.34    0.14 
  -8  -2   2    3.59    0.36 
  -7  -2   2    1.21    0.21 
  -6  -2   2   18.13    1.00 
  -5  -2   2    1.59    0.19 
   4   2  -2   27.26    1.21 
  -4  -2   2   25.25    1.33 
   3   2  -2   26.10    1.13 
  -3  -2   2   22.92    1.22 
   2   2  -2   27.88    1.21 
  -2  -2   2   25.11    1.29 
   1   2  -2    7.18    0.34 
  -1  -2   2    6.81    0.37 
   0   2  -2    7.31    0.37 
   0  -2   2    8.14    0.38 
  -1   2  -2    2.29    0.15 
  -2   2  -2   66.00    3.23 
  -2   2  -2   66.12    2.99 
  -3   2  -2    2.40    0.18 
  -3   2  -2    2.53    0.14 
   3  -2   2    2.58    0.16 
  -4   2  -2   38.48    1.82 
   4  -2   2   39.09    1.79 
  -5   2  -2    4.42    0.31 
  -5   2  -2    4.61    0.27 
   5  -2   2    4.55    0.27 
  -6   2  -2    9.20    0.56 
  -7   2  -2    5.96    0.43 
  -8   2  -2    0.10    0.11 
  -8  -1   2    0.10    0.12 
  -7  -1   2    0.05    0.09 
  -6  -1   2    1.61    0.20 
   5   1  -2   24.15    1.15 
  -5  -1   2   26.36    1.28 
   4   1  -2   93.40    4.27 
  -4  -1   2   97.53    4.47 
   3   1  -2    4.34    0.22 
  -3  -1   2    4.45    0.28 
   2   1  -2  114.39    5.21 
  -2  -1   2  119.20    5.41 
   1   1  -2   19.04    0.86 
  -1  -1   2   18.71    0.90 
   0   1  -2    0.02    0.01 
  -1   1  -2   17.45    0.87 
  -2   1  -2    8.06    0.40 
  -2   1  -2    8.09    0.40 
  -2   1  -2    8.42    0.44 
  -3   1  -2    8.75    0.44 
  -3   1  -2    8.53    0.47 
   3  -1   2    8.68    0.43 
  -4   1  -2    0.30    0.07 
  -4   1  -2    0.35    0.06 
   4  -1   2    0.38    0.05 
  -5   1  -2    0.02    0.04 
  -5   1  -2    0.02    0.04 
  -6   1  -2    1.05    0.13 
  -6   1  -2    0.95    0.14 
  -7   1  -2    9.42    0.59 
  -8   0   2    4.69    0.37 
  -7   0   2    3.12    0.28 
   6   0  -2   66.02    2.81 
  -6   0   2   58.00    2.98 
   5   0  -2    0.18    0.04 
  -5   0   2    0.20    0.08 
   4   0  -2    0.21    0.04 
  -4   0   2    0.07    0.04 
  -4   0   2    0.12    0.06 
   3   0  -2  140.14    6.36 
  -3   0   2  144.95    6.59 
   2   0  -2  118.40    5.22 
  -2   0   2  115.56    5.40 
   1   0  -2   35.57    1.59 
   0   0  -2    8.75    0.40 
   0   0  -2    8.78    0.43 
  -1   0  -2    3.86    0.19 
  -2   0  -2    0.91    0.08 
   2   0   2    0.85    0.06 
  -3   0  -2   20.54    1.02 
  -3   0  -2   21.03    0.99 
   3   0   2   19.07    0.92 
  -4   0  -2   28.97    1.40 
  -4   0  -2   28.40    1.44 
  -5   0  -2    0.17    0.07 
  -5   0  -2    0.28    0.07 
  -6   0  -2    5.61    0.39 
  -6   0  -2    6.57    0.40 
  -7   0  -2    1.08    0.15 
  -9   1   2    0.57    0.15 
  -8   1   2    0.02    0.07 
   7  -1  -2    0.94    0.10 
  -7   1   2    0.90    0.14 
   6  -1  -2   13.31    0.64 
  -6   1   2   12.32    0.70 
   5  -1  -2   46.28    2.09 
  -5   1   2   45.23    2.19 
   4  -1  -2   70.14    3.25 
  -4   1   2   74.03    3.37 
   3  -1  -2    4.40    0.24 
  -3   1   2    4.33    0.25 
   2  -1  -2   69.15    3.11 
   1  -1  -2   48.56    2.34 
   1  -1  -2   47.97    2.17 
   0  -1  -2   32.45    1.51 
   0  -1  -2   35.04    1.63 
  -1  -1  -2    1.41    0.09 
  -1  -1  -2    1.40    0.07 
  -2  -1  -2    5.35    0.29 
  -3  -1  -2    0.27    0.07 
  -3  -1  -2    0.22    0.05 
  -4  -1  -2   10.81    0.58 
  -4  -1  -2   10.48    0.59 
  -5  -1  -2    0.39    0.08 
  -5  -1  -2    0.49    0.11 
  -6  -1  -2    1.50    0.16 
  -6  -1  -2    1.36    0.18 
  -7  -1  -2    2.44    0.25 
  -8  -1  -2    0.01    0.10 
  -9   2   2    0.32    0.12 
  -8   2   2    1.49    0.18 
   7  -2  -2    4.75    0.30 
  -7   2   2    4.94    0.33 
   6  -2  -2   50.93    2.34 
  -6   2   2   50.78    2.43 
   5  -2  -2   22.76    1.08 
  -5   2   2   22.26    1.11 
   4  -2  -2   42.29    1.95 
   3  -2  -2   85.49    3.86 
   2  -2  -2   69.72    3.15 
   1  -2  -2    4.28    0.25 
   1  -2  -2    4.19    0.23 
   0  -2  -2   42.00    1.84 
   0  -2  -2   39.28    1.98 
  -1  -2  -2   16.75    0.80 
  -1  -2  -2   15.60    0.73 
  -2  -2  -2   98.49    4.75 
  -3  -2  -2    7.89    0.46 
  -3  -2  -2    7.59    0.41 
  -4  -2  -2    6.83    0.44 
  -4  -2  -2    7.24    0.40 
  -5  -2  -2    1.96    0.21 
  -5  -2  -2    1.68    0.16 
  -6  -2  -2    1.17    0.18 
  -7  -2  -2    0.00    0.09 
   8  -3  -2   -0.10    0.06 
   7  -3  -2    3.36    0.24 
   6  -3  -2    8.41    0.47 
   5  -3  -2    3.09    0.22 
   4  -3  -2    0.19    0.06 
   3  -3  -2   15.36    0.76 
   2  -3  -2   28.74    1.34 
   1  -3  -2  126.87    5.60 
   1  -3  -2  122.49    6.03 
   0  -3  -2   68.84    3.33 
   0  -3  -2   67.99    3.08 
  -1  -3  -2   30.80    1.47 
  -1  -3  -2   34.06    1.59 
  -2  -3  -2   22.66    1.13 
  -3  -3  -2    1.96    0.14 
  -4  -3  -2    5.65    0.41 
  -4  -3  -2    6.14    0.35 
  -5  -3  -2    0.03    0.08 
  -6  -3  -2    0.25    0.13 
  -7  -3  -2    0.23    0.14 
   9  -4  -2   -0.02    0.08 
   8  -4  -2    0.17    0.08 
   7  -4  -2    2.18    0.20 
   6  -4  -2    6.68    0.41 
   5  -4  -2   52.60    2.45 
   4  -4  -2   23.53    1.15 
   3  -4  -2    1.80    0.15 
   2  -4  -2    4.84    0.29 
   1  -4  -2    0.77    0.09 
   1  -4  -2    0.73    0.10 
   0  -4  -2    0.87    0.10 
   0  -4  -2    0.82    0.09 
  -1  -4  -2    2.15    0.15 
  -2  -4  -2  108.71    5.26 
  -3  -4  -2   -0.12    0.04 
  -4  -4  -2    1.24    0.19 
  -4  -4  -2    1.14    0.12 
  -5  -4  -2    0.89    0.18 
  -6  -4  -2    0.16    0.13 
   8  -5  -2    0.10    0.09 
   7  -5  -2    4.36    0.32 
   6  -5  -2    0.02    0.07 
   5  -5  -2    4.46    0.31 
   4  -5  -2   10.68    0.58 
   3  -5  -2   22.81    1.12 
   2  -5  -2   29.14    1.39 
   1  -5  -2   21.73    1.09 
   1  -5  -2   19.88    1.00 
   0  -5  -2   18.91    1.00 
   0  -5  -2   23.21    1.10 
  -1  -5  -2   15.33    0.80 
  -2  -5  -2    0.49    0.08 
  -3  -5  -2    3.79    0.24 
  -3  -5  -2    2.83    0.29 
  -4  -5  -2    0.58    0.15 
  -5  -5  -2    0.20    0.13 
   8  -6  -2    0.08    0.09 
   7  -6  -2    1.90    0.22 
   6  -6  -2    1.96    0.21 
   5  -6  -2   18.29    0.95 
   4  -6  -2   -0.10    0.04 
   3  -6  -2    4.26    0.29 
   2  -6  -2    1.15    0.14 
   1  -6  -2    0.82    0.12 
   1  -6  -2    1.11    0.14 
   0  -6  -2    2.72    0.21 
  -1  -6  -2    4.07    0.27 
  -2  -6  -2   25.97    1.32 
  -3  -6  -2    2.11    0.26 
  -4  -6  -2    0.16    0.12 
   7  -7  -2    2.00    0.24 
   6  -7  -2    1.69    0.21 
   5  -7  -2    4.65    0.35 
   4  -7  -2    5.56    0.38 
   3  -7  -2    5.19    0.35 
   2  -7  -2    0.70    0.13 
   2  -7  -2    0.73    0.13 
   1  -7  -2    0.01    0.06 
   0  -7  -2    1.35    0.16 
  -1  -7  -2    0.05    0.07 
  -2  -7  -2    0.82    0.13 
  -3  -7  -2    0.63    0.17 
   6  -8  -2    4.36    0.36 
   5  -8  -2    1.50    0.20 
   4  -8  -2    0.74    0.15 
   3  -8  -2    2.00    0.21 
   3  -8  -2    1.84    0.21 
   2  -8  -2    1.62    0.19 
   1  -8  -2   -0.02    0.07 
   0  -8  -2    0.41    0.11 
  -1  -8  -2    0.00    0.07 
  -2  -8  -2    0.31    0.15 
   5  -9  -2    0.77    0.17 
   4  -9  -2    0.87    0.17 
   3  -9  -2    0.51    0.14 
   2  -9  -2    0.53    0.13 
   1  -9  -2    0.99    0.16 
   1  -9   3    3.30    0.29 
   2  -9   3    0.10    0.09 
   3  -9   3   -0.07    0.08 
   4  -9   3    0.08    0.09 
   0   8  -3    0.06    0.08 
   2  -8   3   11.33    0.65 
   3  -8   3    0.31    0.10 
   4  -8   3    0.13    0.08 
   5  -8   3    0.64    0.15 
   6  -8   3    0.61    0.15 
  -4  -7   3    0.12    0.12 
  -3  -7   3   -0.06    0.09 
  -2  -7   3    0.63    0.13 
   1   7  -3    0.56    0.11 
  -1  -7   3    0.47    0.11 
   0   7  -3    2.08    0.19 
  -1   7  -3    2.41    0.21 
  -2   7  -3    5.76    0.38 
   3  -7   3    2.11    0.20 
   4  -7   3    0.72    0.14 
   5  -7   3    3.76    0.30 
   6  -7   3    2.35    0.24 
   7  -7   3    2.35    0.26 
  -5  -6   3    0.34    0.14 
  -4  -6   3    4.00    0.35 
  -3  -6   3    2.30    0.24 
   2   6  -3    0.09    0.06 
  -2  -6   3    0.12    0.08 
   1   6  -3    9.12    0.50 
  -1  -6   3    9.13    0.52 
   0   6  -3    3.31    0.24 
   0  -6   3    3.36    0.23 
  -1   6  -3    2.91    0.22 
  -2   6  -3   19.62    0.99 
  -3   6  -3    8.47    0.49 
   3  -6   3    7.58    0.47 
   4  -6   3    1.01    0.15 
   5  -6   3    0.06    0.07 
   6  -6   3    0.52    0.12 
   7  -6   3    4.30    0.33 
  -6  -5   3    0.22    0.14 
  -5  -5   3   -0.02    0.10 
  -4  -5   3    0.47    0.13 
  -3  -5   3    3.35    0.28 
   2   5  -3    5.70    0.33 
  -2  -5   3    5.44    0.36 
   1   5  -3    8.24    0.44 
  -1  -5   3    8.20    0.46 
   0   5  -3    7.50    0.41 
   0  -5   3    7.39    0.41 
  -1   5  -3    0.28    0.07 
  -2   5  -3    7.25    0.42 
  -3   5  -3   10.37    0.57 
  -4   5  -3    4.84    0.35 
   4  -5   3    4.60    0.31 
  -5   5  -3    8.90    0.58 
   5  -5   3    8.80    0.51 
  -6   5  -3    0.33    0.13 
   6  -5   3    0.37    0.10 
  -7   5  -3    0.48    0.16 
   7  -5   3    0.43    0.11 
  -8   5  -3    0.15    0.14 
  -6  -4   3    0.54    0.15 
  -5  -4   3    0.33    0.13 
  -4  -4   3    6.58    0.45 
   3   4  -3    0.10    0.05 
  -3  -4   3   -0.01    0.06 
   2   4  -3    0.52    0.07 
  -2  -4   3    0.63    0.10 
   1   4  -3    5.26    0.30 
  -1  -4   3    5.93    0.33 
   0   4  -3   65.11    2.98 
   0  -4   3   66.10    3.06 
  -1   4  -3   39.91    1.94 
   1  -4   3   43.99    1.96 
  -2   4  -3    7.63    0.44 
  -2   4  -3    7.09    0.40 
  -3   4  -3   10.87    0.64 
  -3   4  -3   11.53    0.59 
  -4   4  -3    1.20    0.16 
   4  -4   3    1.10    0.13 
  -5   4  -3    1.24    0.17 
   5  -4   3    1.06    0.13 
  -6   4  -3    5.09    0.38 
   6  -4   3    5.18    0.33 
  -7   4  -3    6.44    0.47 
  -8   4  -3    0.04    0.12 
  -7  -3   3    0.21    0.14 
  -6  -3   3    0.05    0.10 
  -5  -3   3    2.44    0.25 
   4   3  -3    0.22    0.05 
  -4  -3   3    0.10    0.07 
   3   3  -3   51.82    2.30 
  -3  -3   3   49.34    2.43 
   2   3  -3    5.96    0.32 
  -2  -3   3    6.43    0.37 
   1   3  -3   11.69    0.57 
  -1  -3   3   11.92    0.60 
   0   3  -3    3.58    0.21 
   0  -3   3    3.50    0.20 
  -1   3  -3   18.11    0.93 
  -2   3  -3   20.06    1.04 
  -2   3  -3   20.33    0.97 
  -3   3  -3   33.08    1.55 
  -3   3  -3   33.27    1.68 
  -4   3  -3    6.39    0.42 
   4  -3   3    7.15    0.38 
  -5   3  -3    2.17    0.21 
   5  -3   3    2.29    0.18 
  -6   3  -3    1.21    0.18 
  -7   3  -3    0.20    0.11 
  -8   3  -3    1.05    0.20 
  -8  -2   3    0.21    0.14 
  -7  -2   3    0.56    0.17 
  -6  -2   3   -0.05    0.08 
   5   2  -3    0.02    0.04 
  -5  -2   3    0.00    0.07 
   4   2  -3    0.72    0.07 
  -4  -2   3    0.60    0.11 
   3   2  -3   57.97    2.59 
  -3  -2   3   56.75    2.72 
   2   2  -3   12.84    0.64 
  -2  -2   3   14.52    0.70 
   1   2  -3   13.94    0.65 
   0   2  -3  293.25   13.47 
   0   2  -3  307.35   14.53 
   0  -2   3  306.96   13.88 
  -1   2  -3  100.04    4.49 
  -2   2  -3    0.82    0.08 
  -2   2  -3    0.82    0.09 
  -3   2  -3   -0.01    0.02 
  -3   2  -3    0.01    0.02 
  -3   2  -3    0.00    0.03 
   3  -2   3    0.01    0.03 
  -4   2  -3    1.11    0.13 
   4  -2   3    1.10    0.10 
   5  -2   3    5.35    0.31 
  -6   2  -3    4.40    0.32 
  -7   2  -3    1.37    0.19 
  -8   2  -3    0.73    0.16 
  -8  -1   3    0.01    0.11 
  -7  -1   3    6.89    0.48 
   6   1  -3    0.04    0.04 
  -6  -1   3    0.20    0.11 
   5   1  -3   16.72    0.79 
  -5  -1   3   16.92    0.91 
   4   1  -3    0.03    0.03 
  -4  -1   3   -0.01    0.05 
   3   1  -3  103.09    4.60 
  -3  -1   3  102.50    4.79 
   2   1  -3  110.34    4.83 
  -2  -1   3  105.69    5.00 
   1   1  -3   28.36    1.36 
  -1  -1   3   31.79    1.41 
   0   1  -3    5.55    0.30 
   0   1  -3    5.78    0.28 
  -1   1  -3   84.47    4.01 
  -1   1  -3   81.33    3.71 
  -2   1  -3    8.00    0.43 
  -3   1  -3   47.98    2.64 
  -3   1  -3   56.86    2.52 
   3  -1   3   56.77    2.44 
  -4   1  -3    2.67    0.20 
  -4   1  -3    2.78    0.19 
   4  -1   3    2.85    0.17 
  -5   1  -3    0.31    0.08 
  -5   1  -3    0.23    0.07 
  -6   1  -3    1.59    0.17 
  -7   1  -3    1.10    0.17 
  -8   0   3    0.62    0.15 
  -7   0   3    0.33    0.12 
   6   0  -3    0.37    0.06 
  -6   0   3    0.34    0.11 
   5   0  -3    3.17    0.18 
  -5   0   3    3.25    0.25 
   4   0  -3   53.48    2.33 
  -4   0   3   49.50    2.45 
   3   0  -3  233.73   10.30 
  -3   0   3  228.55   10.65 
   2   0  -3   25.43    1.10 
  -2   0   3   23.06    1.16 
   1   0  -3  159.07    7.21 
   1   0  -3  164.62    7.77 
   0   0  -3   88.76    4.11 
   0   0  -3   82.04    3.81 
  -1   0  -3    0.00    0.01 
  -1   0  -3    0.02    0.01 
  -3   0  -3    0.88    0.09 
   3   0   3    0.65    0.06 
  -4   0  -3    5.12    0.31 
  -4   0  -3    4.69    0.30 
  -5   0  -3    2.71    0.22 
  -5   0  -3    2.71    0.21 
  -6   0  -3    0.86    0.13 
  -6   0  -3    0.84    0.13 
  -7   0  -3    0.05    0.09 
  -9   1   3   -0.05    0.09 
  -8   1   3    1.63    0.21 
   7  -1  -3   12.88    0.62 
  -7   1   3   11.95    0.71 
   6  -1  -3    5.71    0.31 
  -6   1   3    5.52    0.37 
   5  -1  -3   58.72    2.68 
  -5   1   3   59.26    2.80 
   4  -1  -3    0.00    0.02 
  -4   1   3    0.03    0.04 
   3  -1  -3   17.97    0.84 
   2  -1  -3  430.57   19.69 
   2  -1  -3  454.47   21.24 
   1  -1  -3   86.83    3.82 
   1  -1  -3   84.17    4.12 
   0  -1  -3    6.68    0.30 
   0  -1  -3    6.24    0.33 
  -1  -1  -3   63.40    3.05 
  -1  -1  -3   73.21    3.30 
  -2  -1  -3    1.90    0.13 
  -3  -1  -3   10.26    0.54 
  -4  -1  -3    0.91    0.11 
  -4  -1  -3    0.89    0.13 
  -5  -1  -3    3.18    0.24 
  -5  -1  -3    3.24    0.26 
  -6  -1  -3    0.36    0.10 
  -6  -1  -3    0.38    0.11 
  -7  -1  -3    1.38    0.19 
   8  -2  -3    0.35    0.08 
  -8   2   3    0.24    0.11 
   7  -2  -3    0.44    0.09 
  -7   2   3    0.50    0.11 
   6  -2  -3    0.34    0.08 
   5  -2  -3    3.88    0.25 
   4  -2  -3   48.47    2.22 
   3  -2  -3   83.77    3.78 
   2  -2  -3    6.87    0.36 
   1  -2  -3    7.75    0.38 
   1  -2  -3    7.62    0.41 
   0  -2  -3   61.13    2.78 
   0  -2  -3   62.88    3.00 
  -1  -2  -3   50.38    2.53 
  -1  -2  -3   53.83    2.33 
  -2  -2  -3    7.98    0.42 
  -3  -2  -3    3.97    0.24 
  -4  -2  -3    4.50    0.32 
  -4  -2  -3    3.93    0.26 
  -5  -2  -3    0.10    0.08 
  -5  -2  -3    0.05    0.06 
  -6  -2  -3    0.04    0.09 
  -7  -2  -3   -0.01    0.09 
   8  -3  -3    4.50    0.31 
   7  -3  -3    6.22    0.38 
   6  -3  -3    6.79    0.40 
   5  -3  -3  104.04    4.72 
   4  -3  -3    5.29    0.32 
   3  -3  -3    2.90    0.20 
   2  -3  -3  131.29    5.90 
   1  -3  -3    3.70    0.21 
   1  -3  -3    3.24    0.22 
   0  -3  -3    2.50    0.16 
   0  -3  -3    2.60    0.17 
  -1  -3  -3    4.70    0.27 
  -2  -3  -3    2.35    0.16 
  -3  -3  -3    6.63    0.37 
  -4  -3  -3    4.85    0.30 
  -4  -3  -3    4.71    0.36 
  -5  -3  -3    2.73    0.22 
  -5  -3  -3    2.45    0.26 
  -6  -3  -3    0.03    0.09 
   8  -4  -3    0.37    0.11 
   7  -4  -3    0.12    0.08 
   6  -4  -3    1.04    0.14 
   5  -4  -3    2.45    0.21 
   4  -4  -3   11.18    0.60 
   3  -4  -3    1.98    0.16 
   2  -4  -3   19.36    1.04 
   2  -4  -3   20.35    0.97 
   1  -4  -3    9.05    0.52 
   1  -4  -3    9.24    0.48 
   0  -4  -3   59.55    2.76 
   0  -4  -3   62.16    2.99 
  -1  -4  -3   21.73    1.10 
  -2  -4  -3    7.85    0.44 
  -3  -4  -3    5.00    0.30 
  -4  -4  -3    0.05    0.08 
  -4  -4  -3   -0.05    0.06 
  -5  -4  -3    0.68    0.16 
  -6  -4  -3    0.08    0.12 
   8  -5  -3    1.71    0.20 
   7  -5  -3    1.14    0.16 
   6  -5  -3    0.66    0.13 
   5  -5  -3   40.67    1.94 
   4  -5  -3   22.08    1.10 
   3  -5  -3    2.83    0.22 
   2  -5  -3    5.58    0.36 
   2  -5  -3    5.59    0.34 
   1  -5  -3    0.17    0.06 
   1  -5  -3    0.27    0.09 
   0  -5  -3    3.01    0.22 
  -1  -5  -3    0.49    0.09 
  -2  -5  -3    3.64    0.24 
  -3  -5  -3   14.15    0.75 
  -4  -5  -3    0.68    0.16 
  -5  -5  -3    0.32    0.15 
   7  -6  -3    0.38    0.12 
   6  -6  -3    3.49    0.28 
   5  -6  -3    1.44    0.18 
   4  -6  -3    1.60    0.18 
   3  -6  -3    0.58    0.11 
   2  -6  -3    5.09    0.32 
   2  -6  -3    4.94    0.34 
   1  -6  -3    2.86    0.23 
   0  -6  -3    6.29    0.40 
  -1  -6  -3    2.61    0.21 
  -2  -6  -3    2.93    0.23 
  -3  -6  -3    0.16    0.11 
  -3  -6  -3    0.21    0.09 
  -4  -6  -3    0.63    0.18 
   7  -7  -3    0.04    0.08 
   6  -7  -3    1.12    0.17 
   5  -7  -3    0.38    0.11 
   4  -7  -3   20.20    1.04 
   3  -7  -3    0.14    0.08 
   3  -7  -3    0.02    0.08 
   2  -7  -3   -0.02    0.07 
   1  -7  -3    0.15    0.08 
   0  -7  -3   -0.14    0.06 
  -1  -7  -3    0.08    0.07 
  -2  -7  -3    0.25    0.09 
  -3  -7  -3    2.16    0.28 
   6  -8  -3    2.10    0.25 
   5  -8  -3    0.07    0.08 
   4  -8  -3    0.31    0.12 
   4  -8  -3    0.22    0.11 
   3  -8  -3    2.41    0.22 
   3  -8  -3    1.82    0.21 
   2  -8  -3    0.97    0.16 
   1  -8  -3    0.05    0.08 
   0  -8  -3   -0.01    0.07 
  -1  -8  -3    0.15    0.09 
   5  -9  -3    1.75    0.24 
   4  -9  -3    4.41    0.37 
   4  -9  -3    5.52    0.39 
   3  -9  -3    0.08    0.10 
   2  -9  -3   -0.05    0.08 
   0   9  -4    0.32    0.12 
  -1   9  -4    0.05    0.09 
   2  -9   4    6.75    0.46 
   3  -9   4    0.89    0.16 
   4  -9   4    0.26    0.11 
   0   8  -4   -0.05    0.06 
  -1   8  -4   -0.03    0.06 
   3  -8   4    1.24    0.17 
   4  -8   4    1.28    0.18 
   5  -8   4    0.05    0.08 
   6  -8   4    0.01    0.08 
  -4  -7   4    0.95    0.18 
  -3  -7   4    3.01    0.27 
   1   7  -4    0.62    0.11 
   0   7  -4    4.45    0.31 
  -1   7  -4    0.66    0.12 
  -2   7  -4   10.55    0.60 
  -3   7  -4   16.61    0.88 
   4  -7   4    0.02    0.06 
   5  -7   4    0.57    0.13 
   6  -7   4    0.57    0.14 
   7  -7   4    0.81    0.16 
  -5  -6   4    1.54    0.24 
  -4  -6   4    0.51    0.15 
  -3  -6   4    0.11    0.08 
   2   6  -4    0.08    0.06 
  -2  -6   4    0.02    0.06 
   1   6  -4    4.19    0.28 
  -1  -6   4    4.57    0.29 
   0   6  -4    2.89    0.22 
  -1   6  -4    4.93    0.32 
  -3   6  -4    0.37    0.09 
   4  -6   4   -0.02    0.05 
  -5   6  -4    0.73    0.16 
   5  -6   4    0.70    0.13 
  -6   6  -4    0.37    0.14 
   6  -6   4    0.45    0.12 
  -7   6  -4    2.13    0.29 
   7  -6   4    2.07    0.22 
  -8   6  -4    1.24    0.24 
  -6  -5   4   -0.07    0.10 
  -5  -5   4    0.10    0.11 
  -4  -5   4    3.56    0.30 
   3   5  -4   11.44    0.59 
  -3  -5   4   11.35    0.65 
   2   5  -4    6.10    0.35 
  -2  -5   4    6.12    0.38 
   1   5  -4   -0.01    0.03 
  -1  -5   4   -0.05    0.04 
   0   5  -4   13.68    0.69 
  -1   5  -4    3.92    0.25 
  -2   5  -4    0.20    0.06 
  -3   5  -4   61.30    2.80 
  -3   5  -4   59.88    3.03 
  -4   5  -4    3.66    0.30 
   4  -5   4    3.90    0.27 
  -5   5  -4    0.02    0.07 
   5  -5   4    0.10    0.06 
  -6   5  -4    0.76    0.17 
   6  -5   4    0.66    0.12 
  -7   5  -4    0.11    0.10 
  -8   5  -4    0.61    0.17 
  -6  -4   4    1.63    0.24 
  -5  -4   4    0.74    0.16 
   4   4  -4    0.08    0.05 
  -4  -4   4   -0.01    0.07 
   3   4  -4    0.05    0.04 
  -3  -4   4    0.08    0.06 
   2   4  -4    3.10    0.20 
  -2  -4   4    3.16    0.22 
   1   4  -4   28.05    1.31 
  -1  -4   4   27.99    1.35 
   0   4  -4   18.91    0.90 
   0  -4   4   18.35    0.90 
  -1   4  -4   12.49    0.68 
  -1   4  -4   12.55    0.63 
  -2   4  -4    5.88    0.33 
  -2   4  -4    4.02    0.28 
  -3   4  -4    5.92    0.35 
  -4   4  -4    3.33    0.27 
   4  -4   4    3.62    0.25 
  -5   4  -4    2.64    0.24 
   5  -4   4    2.69    0.21 
  -6   4  -4    2.10    0.23 
  -7   4  -4    1.07    0.19 
  -8   4  -4    0.56    0.15 
  -7  -3   4    0.01    0.10 
  -6  -3   4   -0.07    0.08 
   5   3  -4    1.62    0.13 
  -5  -3   4    1.49    0.20 
   4   3  -4    2.07    0.15 
  -4  -3   4    1.87    0.20 
   3   3  -4    7.73    0.40 
  -3  -3   4    7.51    0.45 
   2   3  -4    0.01    0.03 
  -2  -3   4    0.02    0.04 
   1   3  -4   12.89    0.63 
  -1  -3   4   13.19    0.66 
   0   3  -4    7.58    0.43 
   0   3  -4    8.55    0.41 
   0  -3   4    8.02    0.40 
  -1   3  -4  147.39    6.68 
  -1   3  -4  150.69    7.21 
  -2   3  -4   59.39    2.89 
  -2   3  -4   57.79    2.67 
  -3   3  -4   20.28    0.98 
  -4   3  -4    8.95    0.54 
   4  -3   4    9.09    0.48 
  -5   3  -4    0.42    0.12 
   5  -3   4    0.42    0.08 
  -6   3  -4    0.03    0.08 
  -7   3  -4    0.58    0.15 
  -8   3  -4    0.87    0.18 
  -7  -2   4    1.20    0.21 
  -6  -2   4    1.68    0.22 
   5   2  -4    0.41    0.06 
  -5  -2   4    0.56    0.13 
   4   2  -4   -0.01    0.03 
  -4  -2   4   -0.06    0.06 
   3   2  -4    3.48    0.20 
  -3  -2   4    3.20    0.24 
   2   2  -4   17.16    0.81 
  -2  -2   4   17.56    0.86 
   1   2  -4   15.07    0.79 
   1   2  -4   16.28    0.75 
  -1  -2   4   16.30    0.77 
   0   2  -4    9.01    0.42 
   0   2  -4    7.96    0.44 
  -1   2  -4    0.04    0.03 
  -1   2  -4    0.09    0.04 
  -2   2  -4   10.97    0.60 
  -2   2  -4   11.42    0.55 
  -3   2  -4   53.55    2.45 
  -3   2  -4   53.96    2.66 
  -4   2  -4   17.47    0.91 
   4  -2   4   16.69    0.82 
  -5   2  -4    5.33    0.36 
  -6   2  -4    2.73    0.25 
  -7   2  -4    0.13    0.10 
  -8   2  -4    0.05    0.10 
  -8  -1   4    0.26    0.14 
  -7  -1   4    0.54    0.15 
   6   1  -4    1.66    0.13 
  -6  -1   4    1.25    0.19 
   5   1  -4    2.54    0.16 
  -5  -1   4    2.11    0.21 
   4   1  -4   -0.01    0.03 
  -4  -1   4    0.06    0.06 
   3   1  -4    1.01    0.08 
  -3  -1   4    0.83    0.11 
   2   1  -4   29.58    1.30 
  -2  -1   4   27.50    1.37 
   1   1  -4   19.63    0.99 
   1   1  -4   20.82    0.93 
   0   1  -4    1.42    0.09 
   0   1  -4    1.37    0.10 
  -1   1  -4  305.58   14.37 
  -1   1  -4  292.66   13.32 
  -2   1  -4   36.43    1.91 
  -2   1  -4   40.84    1.76 
  -3   1  -4    5.32    0.29 
  -3   1  -4    5.85    0.34 
  -4   1  -4    6.23    0.38 
  -4   1  -4    5.93    0.34 
  -5   1  -4    0.02    0.05 
  -6   1  -4    1.46    0.18 
  -7   1  -4    1.33    0.19 
  -8   1  -4    0.52    0.15 
  -8   0   4    4.40    0.37 
   7   0  -4    0.66    0.09 
  -7   0   4    0.73    0.16 
   6   0  -4    1.10    0.10 
  -6   0   4    1.03    0.16 
   5   0  -4    3.52    0.20 
  -5   0   4    3.15    0.26 
   4   0  -4    0.22    0.04 
  -4   0   4    0.14    0.06 
   3   0  -4    4.85    0.23 
   3   0  -4    4.01    0.23 
  -3   0   4    4.50    0.27 
   2   0  -4   74.48    3.38 
   2   0  -4   76.61    3.63 
   1   0  -4   46.40    2.13 
   1   0  -4   48.61    2.29 
   0   0  -4    8.41    0.42 
   0   0  -4    8.25    0.39 
  -2   0  -4   31.09    1.72 
  -2   0  -4   38.64    1.58 
  -3   0  -4   27.09    1.36 
  -4   0  -4   12.95    0.70 
  -4   0  -4   12.70    0.68 
  -5   0  -4    2.13    0.19 
  -5   0  -4    2.01    0.19 
  -6   0  -4    0.37    0.10 
  -7   0  -4    0.11    0.10 
   8  -1  -4    1.76    0.14 
  -8   1   4    1.24    0.20 
   7  -1  -4    6.56    0.35 
  -7   1   4    5.80    0.42 
   6  -1  -4    8.71    0.45 
  -6   1   4    8.70    0.52 
   5  -1  -4    2.71    0.18 
  -5   1   4    2.80    0.22 
   4  -1  -4    0.04    0.03 
   3  -1  -4   16.81    0.85 
   3  -1  -4   16.77    0.79 
   2  -1  -4   65.50    3.26 
   2  -1  -4   69.17    3.03 
   1  -1  -4    4.23    0.21 
   1  -1  -4    4.13    0.23 
   0  -1  -4   11.52    0.47 
   0  -1  -4    8.53    0.50 
  -1  -1  -4   50.50    2.42 
  -1  -1  -4   57.60    2.62 
  -2  -1  -4    2.84    0.18 
  -3  -1  -4    1.32    0.12 
  -4  -1  -4    1.98    0.18 
  -4  -1  -4    1.84    0.16 
  -5  -1  -4    0.92    0.14 
  -5  -1  -4    0.51    0.10 
  -6  -1  -4    1.86    0.19 
  -6  -1  -4    1.92    0.21 
   8  -2  -4    1.35    0.14 
   7  -2  -4    4.77    0.30 
   6  -2  -4   17.26    0.85 
   5  -2  -4    2.03    0.16 
   4  -2  -4   40.51    1.87 
   3  -2  -4   13.16    0.68 
   3  -2  -4   12.61    0.63 
   2  -2  -4   87.44    4.23 
   2  -2  -4   87.02    3.93 
   1  -2  -4  112.68    5.00 
   1  -2  -4  110.88    5.40 
   0  -2  -4    1.84    0.12 
   0  -2  -4    1.74    0.10 
  -1  -2  -4    1.66    0.12 
  -1  -2  -4    1.63    0.09 
  -2  -2  -4   14.52    0.74 
  -3  -2  -4    0.00    0.04 
  -4  -2  -4    0.89    0.14 
  -4  -2  -4    0.81    0.11 
  -5  -2  -4    0.06    0.08 
  -5  -2  -4   -0.04    0.06 
  -6  -2  -4    0.31    0.11 
  -6  -2  -4    0.48    0.13 
   8  -3  -4    2.86    0.23 
   7  -3  -4    6.54    0.40 
   6  -3  -4    4.73    0.31 
   5  -3  -4   -0.02    0.05 
   4  -3  -4    0.69    0.10 
   3  -3  -4   24.18    1.26 
   3  -3  -4   25.18    1.18 
   2  -3  -4   49.22    2.24 
   2  -3  -4   48.42    2.42 
   1  -3  -4    0.15    0.05 
   1  -3  -4    0.07    0.05 
   0  -3  -4    1.61    0.11 
   0  -3  -4    1.54    0.12 
  -1  -3  -4    0.82    0.09 
  -2  -3  -4   12.24    0.64 
  -3  -3  -4    0.68    0.09 
  -4  -3  -4    0.65    0.14 
  -4  -3  -4    0.67    0.10 
  -5  -3  -4    0.44    0.13 
  -5  -3  -4    0.60    0.12 
  -6  -3  -4    0.27    0.13 
   8  -4  -4    2.07    0.21 
   7  -4  -4   16.84    0.88 
   6  -4  -4   16.10    0.84 
   5  -4  -4    0.49    0.10 
   4  -4  -4   95.41    4.35 
   3  -4  -4    6.19    0.36 
   3  -4  -4    5.73    0.38 
   2  -4  -4    7.53    0.41 
   2  -4  -4    7.25    0.44 
   1  -4  -4   50.02    2.21 
   1  -4  -4   46.09    2.38 
   0  -4  -4    0.60    0.09 
  -1  -4  -4    0.23    0.07 
  -2  -4  -4    0.08    0.05 
  -3  -4  -4    2.61    0.20 
  -4  -4  -4    0.28    0.09 
  -4  -4  -4    0.19    0.10 
  -5  -4  -4    0.33    0.13 
  -5  -4  -4    0.36    0.10 
   8  -5  -4    0.48    0.13 
   7  -5  -4    0.09    0.08 
   6  -5  -4    0.10    0.08 
   5  -5  -4    1.72    0.19 
   4  -5  -4    3.41    0.26 
   3  -5  -4   25.80    1.38 
   3  -5  -4   27.22    1.29 
   2  -5  -4   18.96    1.01 
   2  -5  -4   18.65    0.94 
   1  -5  -4    0.47    0.10 
   0  -5  -4    0.04    0.06 
  -1  -5  -4    4.69    0.30 
  -2  -5  -4    3.45    0.24 
  -3  -5  -4    0.25    0.09 
  -4  -5  -4    0.31    0.13 
  -4  -5  -4    0.43    0.11 
   7  -6  -4    4.00    0.32 
   6  -6  -4    1.07    0.16 
   5  -6  -4    0.42    0.12 
   4  -6  -4   27.41    1.47 
   4  -6  -4   28.99    1.39 
   3  -6  -4    5.77    0.39 
   3  -6  -4    5.26    0.35 
   2  -6  -4    1.46    0.18 
   2  -6  -4    1.44    0.16 
   1  -6  -4   13.41    0.76 
   0  -6  -4   -0.03    0.06 
  -1  -6  -4    0.03    0.07 
  -2  -6  -4    0.02    0.07 
  -3  -6  -4    0.47    0.11 
   6  -7  -4    1.57    0.20 
   5  -7  -4    1.16    0.17 
   4  -7  -4    1.62    0.21 
   4  -7  -4    1.96    0.20 
   3  -7  -4    6.27    0.43 
   3  -7  -4    6.09    0.40 
   2  -7  -4    0.29    0.12 
   1  -7  -4    1.30    0.18 
   0  -7  -4    0.32    0.10 
  -1  -7  -4    1.46    0.18 
  -2  -7  -4    0.64    0.13 
   5  -8  -4    1.62    0.21 
   5  -8  -4    1.63    0.23 
   4  -8  -4    0.62    0.14 
   4  -8  -4    1.06    0.18 
   3  -8  -4   11.74    0.71 
   2  -8  -4    0.78    0.16 
   1  -8  -4    1.81    0.21 
   0  -8  -4   -0.04    0.09 
   0   9  -5    0.17    0.10 
  -1   9  -5    0.42    0.13 
  -2   9  -5    0.13    0.10 
   1   8  -5    0.42    0.11 
   0   8  -5    0.53    0.12 
  -1   8  -5    0.83    0.14 
  -2   8  -5    1.21    0.16 
  -3   8  -5   10.86    0.64 
   4  -8   5    0.03    0.07 
   5  -8   5    0.22    0.11 
   2   7  -5    0.07    0.07 
   1   7  -5    0.02    0.06 
   0   7  -5    0.18    0.07 
  -1   7  -5   -0.02    0.05 
  -2   7  -5    0.26    0.09 
  -3   7  -5    7.87    0.48 
   4  -7   5    4.78    0.35 
   5  -7   5    6.99    0.46 
   6  -7   5    0.07    0.08 
   7  -7   5    0.17    0.11 
  -4  -6   5    2.60    0.26 
   3   6  -5    2.14    0.19 
  -3  -6   5    2.31    0.22 
   2   6  -5    6.27    0.38 
   1   6  -5    3.66    0.25 
   0   6  -5    2.24    0.18 
  -1   6  -5    2.19    0.18 
  -2   6  -5    1.49    0.15 
  -3   6  -5   13.82    0.74 
  -4   6  -5   11.24    0.69 
  -4   6  -5   11.08    0.63 
   4  -6   5   11.80    0.64 
  -5   6  -5    1.39    0.21 
   5  -6   5    1.11    0.16 
  -6   6  -5    2.59    0.30 
   6  -6   5    2.85    0.25 
  -7   6  -5    0.31    0.16 
  -5  -5   5   -0.03    0.10 
   4   5  -5    5.80    0.36 
  -4  -5   5    5.96    0.41 
   3   5  -5    2.92    0.21 
  -3  -5   5    2.55    0.23 
   2   5  -5    0.07    0.05 
  -2  -5   5   -0.01    0.05 
   1   5  -5    0.04    0.04 
  -1  -5   5   -0.01    0.04 
   0   5  -5    6.85    0.39 
  -1   5  -5    2.58    0.19 
  -2   5  -5    3.78    0.26 
  -2   5  -5    3.86    0.28 
  -3   5  -5   18.68    0.99 
  -3   5  -5   17.24    0.90 
  -4   5  -5    1.27    0.15 
  -4   5  -5    1.69    0.18 
  -5   5  -5    1.29    0.19 
   5  -5   5    1.27    0.16 
  -6   5  -5    1.57    0.22 
   6  -5   5    1.47    0.17 
  -7   5  -5   -0.04    0.10 
  -6  -4   5    0.96    0.20 
  -5  -4   5    0.44    0.13 
  -4  -4   5    1.84    0.20 
   3   4  -5    9.31    0.48 
  -3  -4   5    8.73    0.52 
   2   4  -5   21.26    1.01 
  -2  -4   5   20.67    1.05 
   1   4  -5    4.16    0.25 
  -1  -4   5    4.32    0.26 
   0   4  -5    0.38    0.07 
   0   4  -5    0.52    0.08 
  -1   4  -5    2.52    0.18 
  -1   4  -5    2.68    0.20 
  -2   4  -5    2.14    0.18 
  -2   4  -5    2.02    0.16 
  -3   4  -5    0.61    0.09 
  -4   4  -5   60.15    2.79 
  -4   4  -5   61.13    3.03 
  -5   4  -5    0.21    0.11 
   5  -4   5    0.33    0.09 
  -6   4  -5    1.03    0.19 
  -7   4  -5    0.21    0.13 
  -8   4  -5    0.24    0.13 
  -7  -3   5    0.56    0.17 
  -6  -3   5    0.30    0.13 
   5   3  -5    8.35    0.45 
  -5  -3   5    8.37    0.54 
   4   3  -5   13.52    0.69 
  -4  -3   5   14.47    0.78 
   3   3  -5    4.86    0.29 
  -3  -3   5    5.41    0.34 
   2   3  -5    0.10    0.04 
  -2  -3   5    0.14    0.06 
   1   3  -5    1.14    0.10 
  -1  -3   5    1.00    0.09 
   0   3  -5   24.97    1.14 
   0   3  -5   23.66    1.22 
  -1   3  -5    1.67    0.14 
  -1   3  -5    1.96    0.14 
  -2   3  -5    2.25    0.16 
  -2   3  -5    2.58    0.19 
  -3   3  -5    5.36    0.31 
  -4   3  -5    8.12    0.45 
   4  -3   5    8.71    0.46 
  -5   3  -5    2.01    0.20 
  -6   3  -5    2.58    0.25 
  -7   3  -5    0.27    0.12 
  -8   3  -5    0.72    0.17 
  -7  -2   5    0.01    0.09 
   6   2  -5    0.74    0.09 
  -6  -2   5    0.73    0.16 
   5   2  -5    0.38    0.07 
  -5  -2   5    0.38    0.11 
   4   2  -5    1.86    0.14 
  -4  -2   5    1.94    0.19 
   3   2  -5   19.22    0.92 
  -3  -2   5   20.01    0.99 
   2   2  -5   27.64    1.27 
  -2  -2   5   27.36    1.33 
   1   2  -5    1.04    0.09 
   1   2  -5    1.21    0.09 
  -1  -2   5    1.37    0.10 
   0   2  -5    6.17    0.31 
   0   2  -5    5.79    0.33 
  -1   2  -5   10.07    0.49 
  -1   2  -5    9.96    0.54 
  -2   2  -5   38.40    1.99 
  -2   2  -5   41.56    1.83 
  -3   2  -5    8.89    0.49 
  -3   2  -5    8.11    0.43 
  -4   2  -5   52.02    2.60 
  -5   2  -5    8.06    0.50 
  -6   2  -5    0.29    0.11 
  -7   2  -5    0.03    0.08 
  -8   2  -5    0.02    0.11 
  -8  -1   5    2.45    0.30 
   7   1  -5    4.14    0.26 
  -7  -1   5    4.47    0.36 
   6   1  -5    5.93    0.32 
  -6  -1   5    5.38    0.41 
   5   1  -5   21.50    1.00 
  -5  -1   5   20.64    1.10 
   4   1  -5    1.44    0.11 
  -4  -1   5    1.69    0.17 
   3   1  -5    9.64    0.46 
  -3  -1   5    8.95    0.51 
   2   1  -5    6.61    0.33 
   1   1  -5    0.25    0.04 
   1   1  -5    0.18    0.03 
   0   1  -5   28.98    1.41 
   0   1  -5   28.19    1.31 
  -1   1  -5    0.56    0.07 
  -1   1  -5    0.62    0.06 
  -2   1  -5    1.10    0.09 
  -2   1  -5    0.85    0.10 
  -3   1  -5    0.43    0.08 
  -3   1  -5    0.09    0.03 
  -4   1  -5   20.04    1.06 
  -5   1  -5    5.11    0.35 
  -6   1  -5    0.90    0.15 
  -7   1  -5    0.12    0.11 
  -8   0   5    0.07    0.10 
   7   0  -5    1.20    0.12 
  -7   0   5    1.27    0.20 
   6   0  -5    1.33    0.11 
  -6   0   5    1.09    0.17 
   5   0  -5    4.87    0.27 
  -5   0   5    4.74    0.34 
   4   0  -5   30.67    1.35 
  -4   0   5   27.87    1.44 
   3   0  -5   15.63    0.73 
   2   0  -5    8.56    0.41 
   2   0  -5    7.55    0.39 
   1   0  -5    0.50    0.05 
   1   0  -5    0.50    0.05 
   0   0  -5    0.33    0.04 
   0   0  -5    0.50    0.05 
  -1   0  -5    9.96    0.50 
  -1   0  -5   11.18    0.55 
  -2   0  -5   65.65    3.11 
  -2   0  -5   61.91    2.86 
  -3   0  -5    7.14    0.41 
  -4   0  -5    9.85    0.53 
  -4   0  -5    9.37    0.55 
  -5   0  -5    8.67    0.52 
  -6   0  -5    0.33    0.11 
  -7   0  -5    0.17    0.11 
   8  -1  -5    7.46    0.41 
   7  -1  -5    8.76    0.46 
   6  -1  -5    2.09    0.15 
   5  -1  -5    0.28    0.06 
   4  -1  -5   22.18    1.04 
   3  -1  -5    0.02    0.03 
   3  -1  -5    0.04    0.03 
   2  -1  -5    3.50    0.18 
   2  -1  -5    3.27    0.19 
   1  -1  -5   49.95    2.40 
   1  -1  -5   48.80    2.22 
   0  -1  -5   12.67    0.57 
   0  -1  -5   11.86    0.62 
  -1  -1  -5    1.56    0.11 
  -1  -1  -5    1.40    0.09 
  -2  -1  -5    1.59    0.13 
  -3  -1  -5    4.03    0.26 
  -4  -1  -5    9.85    0.56 
  -5  -1  -5    0.89    0.13 
  -5  -1  -5    1.17    0.15 
  -6  -1  -5    0.20    0.09 
  -7  -1  -5    0.10    0.10 
   8  -2  -5    2.04    0.18 
   7  -2  -5    3.36    0.23 
   6  -2  -5   11.13    0.58 
   5  -2  -5   18.53    0.90 
   4  -2  -5   17.13    0.83 
   4  -2  -5   17.07    0.89 
   3  -2  -5    0.08    0.04 
   3  -2  -5    0.00    0.04 
   2  -2  -5    1.60    0.11 
   2  -2  -5    1.52    0.12 
   1  -2  -5    9.04    0.44 
   1  -2  -5    9.17    0.48 
   0  -2  -5    5.70    0.28 
   0  -2  -5    5.84    0.32 
  -1  -2  -5    0.78    0.08 
  -2  -2  -5   40.51    1.99 
  -3  -2  -5    0.34    0.08 
  -4  -2  -5    0.62    0.10 
  -5  -2  -5    2.34    0.21 
  -5  -2  -5    2.27    0.23 
  -6  -2  -5    0.12    0.10 
  -6  -2  -5    0.21    0.11 
   8  -3  -5    6.45    0.40 
   7  -3  -5    2.31    0.20 
   6  -3  -5    6.41    0.39 
   5  -3  -5   20.09    1.00 
   4  -3  -5   42.24    2.00 
   4  -3  -5   43.61    2.15 
   3  -3  -5   24.70    1.20 
   3  -3  -5   25.46    1.29 
   2  -3  -5   35.72    1.79 
   2  -3  -5   35.91    1.66 
   1  -3  -5   62.67    2.84 
   1  -3  -5   63.01    3.07 
   0  -3  -5    1.34    0.12 
  -1  -3  -5    1.06    0.10 
  -2  -3  -5    0.29    0.07 
  -3  -3  -5    3.12    0.22 
  -4  -3  -5    0.36    0.09 
  -5  -3  -5    0.02    0.07 
  -5  -3  -5    0.05    0.08 
   8  -4  -5    4.47    0.33 
   7  -4  -5    1.50    0.18 
   6  -4  -5    7.82    0.47 
   5  -4  -5    3.46    0.26 
   4  -4  -5    0.51    0.10 
   4  -4  -5    0.53    0.12 
   3  -4  -5    9.38    0.56 
   3  -4  -5    9.46    0.52 
   2  -4  -5   17.18    0.94 
   2  -4  -5   17.75    0.87 
   1  -4  -5   38.81    1.96 
   1  -4  -5   39.60    1.82 
   0  -4  -5    9.57    0.53 
  -1  -4  -5    2.34    0.18 
  -2  -4  -5    5.40    0.33 
  -3  -4  -5    0.59    0.11 
  -4  -4  -5    0.08    0.08 
  -5  -4  -5    0.19    0.11 
  -5  -4  -5    0.32    0.11 
   7  -5  -5    0.34    0.11 
   6  -5  -5   12.01    0.67 
   5  -5  -5   11.91    0.72 
   5  -5  -5   13.36    0.70 
   4  -5  -5    6.32    0.43 
   4  -5  -5    6.54    0.40 
   3  -5  -5   23.59    1.15 
   3  -5  -5   22.87    1.23 
   2  -5  -5    5.83    0.40 
   2  -5  -5    6.19    0.37 
   1  -5  -5    2.95    0.24 
   0  -5  -5   16.61    0.89 
  -1  -5  -5   -0.05    0.06 
  -2  -5  -5    0.19    0.08 
  -3  -5  -5    0.59    0.11 
  -4  -5  -5    0.24    0.10 
  -4  -5  -5    0.09    0.11 
   7  -6  -5    0.18    0.11 
   6  -6  -5    1.07    0.17 
   5  -6  -5    0.27    0.10 
   5  -6  -5    0.11    0.10 
   4  -6  -5    2.00    0.21 
   4  -6  -5    1.81    0.20 
   3  -6  -5    3.04    0.27 
   3  -6  -5    2.84    0.24 
   2  -6  -5   12.15    0.71 
   1  -6  -5   14.08    0.79 
   0  -6  -5    0.19    0.10 
  -1  -6  -5   -0.03    0.08 
  -2  -6  -5    0.05    0.09 
  -3  -6  -5    0.80    0.14 
   6  -7  -5    2.49    0.26 
   6  -7  -5    2.46    0.24 
   5  -7  -5    0.36    0.12 
   5  -7  -5    0.28    0.12 
   4  -7  -5    0.13    0.10 
   4  -7  -5    0.04    0.09 
   3  -7  -5    6.26    0.44 
   2  -7  -5    0.95    0.17 
   1  -7  -5    0.98    0.16 
   0  -7  -5    8.07    0.51 
  -1  -7  -5    0.06    0.09 
   5  -8  -5    0.47    0.14 
   5  -8  -5    0.26    0.13 
   4  -8  -5   -0.07    0.10 
   3  -8  -5    0.02    0.11 
   2  -8  -5    1.56    0.21 
   1  -8  -5    0.15    0.10 
   1   8  -6    0.65    0.13 
   0   8  -6   -0.01    0.06 
  -1   8  -6    0.46    0.11 
  -3   8  -6    0.04    0.07 
   4  -8   6    0.44    0.13 
   2   7  -6    0.25    0.09 
   1   7  -6    0.20    0.08 
   0   7  -6    0.10    0.07 
  -1   7  -6    0.55    0.11 
  -2   7  -6    0.73    0.13 
  -3   7  -6    2.52    0.22 
  -4   7  -6    4.11    0.31 
   5  -7   6    1.63    0.21 
  -6   7  -6    0.42    0.15 
   6  -7   6   -0.03    0.08 
  -4  -6   6    1.39    0.19 
   3   6  -6    0.28    0.09 
   2   6  -6    0.57    0.11 
   1   6  -6    1.64    0.16 
   0   6  -6    0.08    0.06 
  -1   6  -6    0.45    0.09 
  -2   6  -6    0.16    0.07 
  -3   6  -6    0.57    0.11 
  -3   6  -6    0.92    0.15 
  -4   6  -6    2.79    0.24 
  -4   6  -6    2.99    0.27 
  -5   6  -6    3.26    0.30 
   5  -6   6    3.63    0.29 
  -6   6  -6    7.05    0.52 
   6  -6   6    6.99    0.45 
  -7   6  -6    0.09    0.13 
  -5  -5   6    2.35    0.26 
   4   5  -6    1.11    0.14 
  -4  -5   6    1.06    0.16 
   3   5  -6   16.93    0.84 
  -3  -5   6   15.91    0.87 
   2   5  -6    0.31    0.08 
  -2  -5   6    0.56    0.09 
   1   5  -6    3.77    0.25 
   0   5  -6    1.86    0.16 
  -1   5  -6    4.09    0.29 
  -1   5  -6    4.16    0.27 
  -2   5  -6    0.50    0.10 
  -2   5  -6    0.34    0.08 
  -3   5  -6    4.22    0.31 
  -3   5  -6    3.94    0.27 
  -4   5  -6   10.21    0.63 
  -4   5  -6   10.28    0.57 
  -5   5  -6    1.05    0.18 
   5  -5   6    1.08    0.15 
  -6   5  -6    1.46    0.22 
  -7   5  -6    1.48    0.23 
  -6  -4   6   -0.10    0.09 
   5   4  -6    0.00    0.05 
  -5  -4   6    0.00    0.08 
   4   4  -6    0.02    0.05 
  -4  -4   6   -0.02    0.07 
  -3  -4   6   18.73    0.97 
   2   4  -6   10.26    0.54 
  -2  -4   6   10.61    0.56 
   1   4  -6    5.37    0.31 
  -1  -4   6    5.35    0.30 
   0   4  -6    0.89    0.10 
  -1   4  -6    0.02    0.04 
  -1   4  -6    0.00    0.04 
  -2   4  -6    0.05    0.05 
  -2   4  -6    0.03    0.04 
  -3   4  -6    0.54    0.09 
  -3   4  -6    0.59    0.11 
  -4   4  -6    5.14    0.37 
  -4   4  -6    5.27    0.32 
  -5   4  -6    3.31    0.29 
  -6   4  -6    2.30    0.25 
  -7   4  -6    0.76    0.18 
   6   3  -6    0.09    0.06 
  -6  -3   6   -0.02    0.10 
   5   3  -6    3.40    0.24 
  -5  -3   6    4.19    0.32 
   4   3  -6    0.07    0.04 
  -4  -3   6   -0.06    0.06 
   3   3  -6   18.37    0.91 
  -3  -3   6   19.23    0.96 
   2   3  -6   19.93    0.99 
  -2  -3   6   21.73    1.03 
   1   3  -6   41.16    2.02 
  -1  -3   6   47.09    2.08 
   0   3  -6    5.88    0.34 
   0   3  -6    5.70    0.32 
  -1   3  -6    3.74    0.26 
  -1   3  -6    4.27    0.24 
  -2   3  -6    0.43    0.07 
  -2   3  -6    0.47    0.08 
  -3   3  -6    1.86    0.17 
  -3   3  -6    1.54    0.14 
  -4   3  -6    5.09    0.36 
  -6   3  -6    0.07    0.10 
  -7   3  -6    0.66    0.16 
  -7  -2   6   -0.01    0.11 
  -6  -2   6    0.89    0.17 
   5   2  -6    2.38    0.17 
  -5  -2   6    2.55    0.24 
   4   2  -6   13.81    0.68 
  -4  -2   6   14.07    0.76 
   3   2  -6   65.07    2.97 
  -3  -2   6   65.89    3.09 
   2   2  -6   23.45    1.10 
   1   2  -6    5.84    0.31 
   0   2  -6    1.01    0.10 
   0   2  -6    1.16    0.10 
  -1   2  -6    7.41    0.43 
  -1   2  -6    7.89    0.40 
  -2   2  -6    0.19    0.06 
  -2   2  -6    0.24    0.05 
  -3   2  -6    1.20    0.13 
  -3   2  -6    1.04    0.10 
  -4   2  -6    4.39    0.31 
  -5   2  -6    0.29    0.10 
  -6   2  -6    0.21    0.11 
  -7   2  -6    0.82    0.17 
   7   1  -6    2.49    0.19 
  -7  -1   6    2.35    0.28 
   6   1  -6    0.75    0.09 
  -6  -1   6    0.54    0.14 
   5   1  -6    1.11    0.11 
  -5  -1   6    1.22    0.16 
   4   1  -6    0.01    0.04 
  -4  -1   6   -0.03    0.05 
   3   1  -6    0.21    0.05 
   2   1  -6   92.33    4.15 
   1   1  -6   72.66    3.78 
   1   1  -6   83.72    3.52 
   0   1  -6    6.78    0.34 
   0   1  -6    6.60    0.37 
  -1   1  -6    3.19    0.20 
  -1   1  -6    2.79    0.17 
  -2   1  -6    2.82    0.21 
  -2   1  -6    3.02    0.18 
  -3   1  -6    0.78    0.11 
  -4   1  -6    0.16    0.08 
  -5   1  -6   17.07    0.94 
  -6   1  -6    1.00    0.17 
  -7   1  -6    0.08    0.09 
   8   0  -6    0.07    0.08 
  -8   0   6    0.03    0.11 
   7   0  -6    2.47    0.18 
  -7   0   6    1.76    0.23 
   6   0  -6    3.50    0.22 
   5   0  -6    7.97    0.41 
   4   0  -6   21.03    0.99 
   3   0  -6   14.39    0.69 
   2   0  -6    3.02    0.17 
   2   0  -6    2.76    0.17 
   1   0  -6    1.01    0.08 
   1   0  -6    0.94    0.08 
   0   0  -6    4.74    0.27 
   0   0  -6    4.89    0.25 
  -1   0  -6   26.04    1.38 
  -1   0  -6   29.49    1.27 
  -2   0  -6    2.60    0.19 
  -3   0  -6    4.20    0.28 
  -4   0  -6    1.29    0.14 
  -5   0  -6    3.39    0.27 
  -6   0  -6    0.73    0.15 
   8  -1  -6    4.72    0.30 
   7  -1  -6    1.23    0.13 
   6  -1  -6    3.30    0.21 
   5  -1  -6    0.12    0.05 
   4  -1  -6    2.13    0.15 
   3  -1  -6   24.50    1.15 
   3  -1  -6   25.28    1.23 
   2  -1  -6   44.58    2.11 
   2  -1  -6   42.20    1.97 
   1  -1  -6   10.94    0.56 
   1  -1  -6   10.90    0.52 
   0  -1  -6    0.01    0.03 
   0  -1  -6   -0.01    0.02 
  -1  -1  -6    0.02    0.03 
  -2  -1  -6    0.24    0.07 
  -3  -1  -6   11.96    0.65 
  -4  -1  -6    3.11    0.24 
  -5  -1  -6    6.64    0.43 
  -6  -1  -6    2.15    0.23 
   8  -2  -6    0.41    0.10 
   7  -2  -6    7.19    0.41 
   6  -2  -6    5.19    0.31 
   5  -2  -6    1.70    0.14 
   4  -2  -6    0.36    0.07 
   3  -2  -6   16.02    0.82 
   3  -2  -6   15.59    0.76 
   2  -2  -6    5.25    0.29 
   2  -2  -6    5.75    0.32 
   1  -2  -6   17.51    0.81 
   1  -2  -6   17.21    0.88 
   0  -2  -6   20.75    1.05 
   0  -2  -6   21.16    0.96 
  -1  -2  -6   17.70    0.90 
  -2  -2  -6    2.70    0.19 
  -3  -2  -6    2.68    0.20 
  -4  -2  -6   -0.03    0.06 
  -5  -2  -6    3.05    0.26 
  -5  -2  -6    3.25    0.28 
  -6  -2  -6    0.12    0.11 
   7  -3  -6   -0.01    0.06 
   6  -3  -6    1.77    0.17 
   5  -3  -6    0.57    0.10 
   4  -3  -6    4.11    0.28 
   4  -3  -6    3.85    0.26 
   3  -3  -6    6.16    0.36 
   3  -3  -6    6.58    0.39 
   2  -3  -6    1.06    0.12 
   2  -3  -6    1.15    0.11 
   1  -3  -6    4.28    0.23 
   1  -3  -6    4.10    0.26 
   0  -3  -6    7.38    0.42 
  -1  -3  -6    5.25    0.32 
  -2  -3  -6    1.96    0.16 
  -3  -3  -6   11.87    0.66 
  -4  -3  -6    1.48    0.16 
  -5  -3  -6    0.78    0.15 
  -5  -3  -6    1.07    0.18 
   7  -4  -6   12.44    0.68 
   6  -4  -6    3.40    0.26 
   5  -4  -6    0.54    0.11 
   5  -4  -6    0.72    0.14 
   4  -4  -6    4.38    0.30 
   4  -4  -6    4.65    0.33 
   3  -4  -6   25.83    1.34 
   3  -4  -6   25.23    1.24 
   2  -4  -6    5.34    0.32 
   2  -4  -6    5.45    0.36 
   1  -4  -6    8.53    0.50 
   0  -4  -6    8.63    0.50 
  -1  -4  -6   -0.04    0.06 
  -2  -4  -6    0.20    0.08 
  -3  -4  -6    0.27    0.09 
  -4  -4  -6    0.51    0.12 
   7  -5  -6    1.40    0.19 
   6  -5  -6    1.22    0.17 
   5  -5  -6    4.46    0.33 
   5  -5  -6    3.99    0.30 
   4  -5  -6    3.10    0.25 
   4  -5  -6    3.08    0.27 
   3  -5  -6    0.11    0.09 
   3  -5  -6    0.07    0.07 
   2  -5  -6    5.79    0.39 
   1  -5  -6    4.78    0.33 
   0  -5  -6    8.63    0.52 
  -1  -5  -6    2.04    0.19 
  -2  -5  -6    0.32    0.11 
  -3  -5  -6    2.24    0.21 
   6  -6  -6    0.40    0.14 
   6  -6  -6    0.18    0.10 
   5  -6  -6    1.54    0.19 
   5  -6  -6    1.90    0.23 
   4  -6  -6    2.35    0.23 
   4  -6  -6    2.69    0.26 
   3  -6  -6    5.34    0.39 
   2  -6  -6    2.45    0.24 
   1  -6  -6    0.86    0.15 
   0  -6  -6    0.31    0.11 
  -1  -6  -6    2.28    0.22 
  -2  -6  -6    0.10    0.10 
   6  -7  -6    1.83    0.24 
   5  -7  -6    3.61    0.30 
   5  -7  -6    3.59    0.32 
   4  -7  -6    0.81    0.17 
   3  -7  -6   -0.02    0.10 
   2  -7  -6    0.13    0.12 
   1  -7  -6    0.97    0.17 
   0  -7  -6    2.05    0.22 
   3  -8  -6    0.29    0.14 
   0   8  -7    3.41    0.28 
  -1   8  -7    0.46    0.11 
  -2   8  -7    0.26    0.10 
  -3   8  -7    0.05    0.07 
   2   7  -7    0.90    0.15 
   1   7  -7    2.61    0.23 
   0   7  -7    1.08    0.15 
  -1   7  -7   -0.05    0.05 
  -2   7  -7    1.03    0.15 
  -3   7  -7    3.58    0.28 
  -4   7  -7    0.07    0.07 
  -5   7  -7    0.17    0.11 
   5  -7   7    0.09    0.09 
   4   6  -7    1.66    0.19 
   3   6  -7    1.96    0.20 
   2   6  -7    5.09    0.34 
   1   6  -7    1.63    0.17 
   0   6  -7    5.45    0.35 
  -1   6  -7    0.04    0.05 
  -2   6  -7    0.17    0.08 
  -2   6  -7    0.17    0.07 
  -3   6  -7    0.67    0.13 
  -3   6  -7    0.28    0.09 
  -4   6  -7    5.03    0.38 
  -4   6  -7    4.96    0.34 
  -5   6  -7    0.88    0.18 
   5  -6   7    0.73    0.14 
  -6   6  -7    1.52    0.23 
  -5  -5   7    0.21    0.11 
   4   5  -7   -0.02    0.06 
  -4  -5   7   -0.01    0.08 
   3   5  -7    1.45    0.15 
   2   5  -7    0.17    0.07 
   1   5  -7    0.01    0.04 
   0   5  -7    9.26    0.51 
  -1   5  -7    0.41    0.09 
  -2   5  -7    5.57    0.35 
  -2   5  -7    5.89    0.38 
  -3   5  -7    2.67    0.22 
  -3   5  -7    2.97    0.25 
  -4   5  -7    0.49    0.13 
  -4   5  -7    0.50    0.10 
  -5   5  -7    0.41    0.14 
  -6   5  -7    0.96    0.19 
  -6  -4   7    0.00    0.09 
   5   4  -7    0.22    0.07 
  -5  -4   7    0.22    0.10 
  -4  -4   7    5.50    0.37 
  -3  -4   7    6.55    0.40 
   2   4  -7   23.82    1.20 
  -2  -4   7   26.37    1.23 
   1   4  -7    0.07    0.05 
   0   4  -7    0.39    0.08 
  -1   4  -7    3.10    0.22 
  -1   4  -7    3.24    0.24 
  -2   4  -7    4.95    0.30 
  -3   4  -7    0.64    0.11 
  -3   4  -7    1.23    0.12 
  -4   4  -7    7.22    0.42 
  -4   4  -7    7.56    0.49 
  -5   4  -7    3.12    0.28 
  -6   4  -7    0.69    0.16 
  -7   4  -7    0.21    0.14 
   6   3  -7    1.18    0.14 
  -6  -3   7    1.34    0.20 
   5   3  -7   -0.02    0.04 
  -5  -3   7   -0.04    0.06 
   4   3  -7    0.54    0.09 
  -4  -3   7    0.47    0.11 
   3   3  -7    0.01    0.04 
  -3  -3   7    0.00    0.05 
   2   3  -7   22.88    1.09 
   1   3  -7    9.15    0.48 
   0   3  -7   17.14    0.83 
  -1   3  -7    0.55    0.09 
  -1   3  -7    0.48    0.08 
  -2   3  -7    3.34    0.24 
  -2   3  -7    3.21    0.21 
  -3   3  -7    0.10    0.05 
  -3   3  -7    0.10    0.07 
  -4   3  -7    0.44    0.11 
  -5   3  -7    0.99    0.17 
  -6   3  -7    2.05    0.23 
  -7   3  -7    1.31    0.22 
   7   2  -7    0.16    0.08 
  -7  -2   7    0.22    0.12 
   6   2  -7    1.05    0.13 
  -6  -2   7    1.42    0.21 
   5   2  -7    0.29    0.07 
  -5  -2   7    0.09    0.09 
   4   2  -7    5.08    0.30 
  -4  -2   7    5.09    0.34 
   3   2  -7    6.73    0.36 
   2   2  -7   40.13    1.85 
   1   2  -7   32.82    1.52 
   0   2  -7   31.39    1.44 
   0   2  -7   30.76    1.55 
  -1   2  -7   10.27    0.51 
  -1   2  -7   10.03    0.56 
  -2   2  -7    9.03    0.48 
  -2   2  -7    9.92    0.54 
  -3   2  -7    0.74    0.12 
  -4   2  -7    4.32    0.32 
  -5   2  -7    1.84    0.20 
  -6   2  -7    0.37    0.13 
  -7   2  -7    0.27    0.13 
   7   1  -7    0.32    0.09 
  -7  -1   7    0.31    0.14 
   6   1  -7    0.52    0.09 
  -6  -1   7    0.75    0.16 
   5   1  -7    0.15    0.06 
   4   1  -7    1.26    0.12 
   3   1  -7    4.04    0.24 
   2   1  -7   63.57    2.88 
   1   1  -7   12.16    0.57 
   1   1  -7   11.20    0.61 
   0   1  -7    6.16    0.35 
   0   1  -7    6.03    0.32 
  -1   1  -7    1.52    0.13 
  -1   1  -7    1.37    0.11 
  -2   1  -7    1.58    0.15 
  -3   1  -7    1.48    0.15 
  -4   1  -7    0.57    0.12 
  -5   1  -7    1.46    0.19 
  -6   1  -7    0.29    0.13 
   7   0  -7    0.88    0.12 
   6   0  -7    7.22    0.40 
   5   0  -7    0.27    0.07 
   4   0  -7    5.49    0.31 
   3   0  -7    0.20    0.05 
   2   0  -7   17.08    0.81 
   1   0  -7   91.96    4.36 
   1   0  -7   88.40    4.05 
   0   0  -7   35.84    1.78 
   0   0  -7   36.39    1.65 
  -1   0  -7    3.55    0.23 
  -1   0  -7    3.75    0.21 
  -2   0  -7    3.13    0.22 
  -3   0  -7   -0.01    0.04 
  -4   0  -7    0.07    0.07 
  -5   0  -7    0.06    0.07 
  -6   0  -7    2.43    0.25 
   7  -1  -7    0.29    0.09 
   6  -1  -7    0.00    0.05 
   5  -1  -7    0.88    0.10 
   4  -1  -7    3.31    0.20 
   3  -1  -7    7.75    0.40 
   2  -1  -7   31.84    1.54 
   2  -1  -7   30.88    1.44 
   1  -1  -7    0.65    0.08 
   1  -1  -7    0.49    0.07 
   0  -1  -7    0.93    0.08 
   0  -1  -7    0.97    0.10 
  -1  -1  -7    7.15    0.40 
  -2  -1  -7    7.01    0.41 
  -3  -1  -7    1.63    0.16 
  -4  -1  -7    0.79    0.13 
  -5  -1  -7    0.79    0.15 
   7  -2  -7   10.56    0.57 
   6  -2  -7   10.22    0.54 
   5  -2  -7    0.27    0.07 
   4  -2  -7    9.19    0.48 
   3  -2  -7    1.40    0.12 
   3  -2  -7    1.29    0.11 
   2  -2  -7    0.50    0.08 
   2  -2  -7    0.42    0.06 
   1  -2  -7   38.31    1.87 
   1  -2  -7   37.53    1.73 
   0  -2  -7    1.09    0.11 
  -1  -2  -7    0.13    0.06 
  -2  -2  -7    0.04    0.06 
  -3  -2  -7    0.68    0.12 
  -4  -2  -7    0.97    0.14 
  -5  -2  -7    0.67    0.14 
   7  -3  -7   -0.01    0.07 
   6  -3  -7    6.11    0.37 
   5  -3  -7    6.44    0.38 
   4  -3  -7    4.45    0.28 
   3  -3  -7    6.83    0.39 
   3  -3  -7    5.77    0.35 
   2  -3  -7    2.33    0.19 
   2  -3  -7    2.51    0.17 
   1  -3  -7    0.41    0.09 
   0  -3  -7    2.16    0.18 
  -1  -3  -7    2.90    0.21 
  -2  -3  -7    2.20    0.19 
  -3  -3  -7    0.34    0.10 
  -4  -3  -7    0.54    0.13 
   7  -4  -7   10.04    0.57 
   6  -4  -7    1.30    0.16 
   5  -4  -7    0.76    0.13 
   4  -4  -7    1.56    0.19 
   4  -4  -7    1.49    0.15 
   3  -4  -7    0.97    0.15 
   3  -4  -7    1.00    0.13 
   2  -4  -7    1.19    0.16 
   1  -4  -7    2.95    0.23 
   0  -4  -7    1.61    0.17 
  -1  -4  -7    0.51    0.11 
  -2  -4  -7    0.47    0.11 
  -3  -4  -7    0.30    0.11 
   6  -5  -7   15.11    0.82 
   5  -5  -7    5.94    0.42 
   5  -5  -7    5.60    0.38 
   4  -5  -7    0.74    0.16 
   4  -5  -7    0.86    0.14 
   3  -5  -7    0.60    0.15 
   3  -5  -7    0.55    0.12 
   2  -5  -7    2.14    0.21 
   1  -5  -7    1.08    0.16 
   0  -5  -7    0.62    0.13 
  -1  -5  -7    0.57    0.13 
  -2  -5  -7    0.01    0.09 
   5  -6  -7    3.59    0.31 
   5  -6  -7    3.18    0.28 
   4  -6  -7    2.93    0.25 
   4  -6  -7    2.79    0.28 
   3  -6  -7    6.04    0.43 
   2  -6  -7    1.31    0.19 
   1  -6  -7    0.02    0.10 
   0  -6  -7    0.29    0.11 
  -1  -6  -7    0.15    0.12 
   5  -7  -7    0.28    0.14 
   5  -7  -7    0.09    0.11 
   4  -7  -7    0.57    0.16 
   3  -7  -7    0.66    0.17 
   2  -7  -7    4.00    0.34 
   1  -7  -7    0.67    0.17 
   1   7  -8    0.34    0.10 
   0   7  -8    0.63    0.12 
  -1   7  -8    5.49    0.37 
  -2   7  -8    0.93    0.14 
  -3   7  -8    0.80    0.13 
  -4   7  -8    0.29    0.12 
  -4   7  -8    0.18    0.09 
  -5   7  -8    0.78    0.18 
   3   6  -8    0.67    0.13 
   2   6  -8    1.38    0.16 
   1   6  -8    0.83    0.13 
   0   6  -8    2.74    0.22 
  -1   6  -8    1.06    0.14 
  -2   6  -8    0.44    0.10 
  -3   6  -8    1.24    0.16 
  -3   6  -8    1.09    0.17 
  -4   6  -8    5.38    0.37 
  -4   6  -8    5.79    0.42 
  -5   6  -8    0.08    0.11 
   4   5  -8   -0.03    0.07 
   3   5  -8    0.79    0.13 
   2   5  -8    0.89    0.13 
   1   5  -8    1.53    0.15 
   0   5  -8    0.98    0.12 
  -1   5  -8    9.51    0.53 
  -2   5  -8   -0.02    0.05 
  -2   5  -8    0.00    0.04 
  -3   5  -8   -0.01    0.06 
  -3   5  -8   -0.03    0.04 
  -4   5  -8    0.52    0.13 
  -4   5  -8    0.49    0.10 
  -5   5  -8    4.54    0.37 
  -6   5  -8    0.56    0.18 
   5   4  -8    0.86    0.13 
  -5  -4   8    1.07    0.17 
   4   4  -8    0.56    0.10 
  -4  -4   8    0.66    0.13 
   3   4  -8    0.64    0.11 
   2   4  -8    0.54    0.09 
   1   4  -8    0.08    0.05 
   0   4  -8    0.57    0.09 
  -1   4  -8    7.63    0.43 
  -2   4  -8    0.60    0.11 
  -2   4  -8    0.72    0.10 
  -3   4  -8    4.38    0.29 
  -5   4  -8    0.35    0.13 
  -6   4  -8    0.08    0.13 
   5   3  -8    0.96    0.13 
  -5  -3   8    1.19    0.17 
   4   3  -8    0.69    0.11 
  -4  -3   8    0.32    0.10 
   3   3  -8    3.34    0.23 
   2   3  -8   10.24    0.54 
   1   3  -8    9.41    0.50 
   0   3  -8    0.00    0.03 
  -1   3  -8    1.31    0.13 
  -1   3  -8    1.50    0.14 
  -2   3  -8    4.39    0.28 
  -2   3  -8    4.87    0.32 
  -3   3  -8    1.06    0.15 
  -4   3  -8    1.87    0.20 
  -5   3  -8    4.92    0.38 
  -6   3  -8    0.44    0.16 
   6   2  -8    3.09    0.23 
   5   2  -8    5.07    0.31 
   4   2  -8    1.57    0.14 
   3   2  -8    0.45    0.08 
   2   2  -8    0.06    0.05 
   1   2  -8    3.30    0.21 
   0   2  -8    1.21    0.11 
   0   2  -8    1.08    0.12 
  -1   2  -8   12.40    0.61 
  -1   2  -8   11.91    0.67 
  -2   2  -8   -0.02    0.05 
  -2   2  -8    0.03    0.04 
  -3   2  -8    1.88    0.19 
  -4   2  -8    0.32    0.11 
  -5   2  -8    0.54    0.15 
  -6   2  -8    0.20    0.12 
   6   1  -8    0.70    0.11 
   5   1  -8    0.47    0.09 
   4   1  -8    3.37    0.22 
   3   1  -8    7.18    0.38 
   2   1  -8    9.18    0.47 
   1   1  -8   42.50    1.95 
   0   1  -8    7.53    0.44 
   0   1  -8    7.81    0.40 
  -1   1  -8    2.61    0.18 
  -1   1  -8    2.64    0.20 
  -2   1  -8    7.71    0.46 
  -3   1  -8    1.02    0.14 
  -4   1  -8    0.66    0.14 
  -5   1  -8    1.49    0.20 
  -6   1  -8    0.17    0.12 
   6   0  -8    2.97    0.22 
   5   0  -8    7.27    0.40 
   4   0  -8    0.66    0.09 
   3   0  -8   -0.01    0.04 
   2   0  -8    0.61    0.08 
   1   0  -8   21.67    1.01 
   1   0  -8   21.35    1.08 
   0   0  -8    7.06    0.41 
   0   0  -8    7.51    0.38 
  -1   0  -8    6.90    0.41 
  -2   0  -8    1.47    0.15 
  -3   0  -8   -0.01    0.06 
  -4   0  -8    0.12    0.09 
  -5   0  -8    0.18    0.10 
   6  -1  -8    2.34    0.19 
   5  -1  -8   12.25    0.63 
   4  -1  -8    5.81    0.33 
   3  -1  -8   17.21    0.83 
   2  -1  -8    0.13    0.05 
   2  -1  -8    0.20    0.05 
   1  -1  -8   55.70    2.61 
   1  -1  -8   50.81    2.42 
   0  -1  -8   28.15    1.41 
  -1  -1  -8    4.73    0.30 
  -2  -1  -8    2.51    0.20 
  -3  -1  -8    0.21    0.09 
  -4  -1  -8    0.03    0.08 
  -5  -1  -8    0.16    0.10 
   6  -2  -8    0.08    0.07 
   5  -2  -8    0.25    0.08 
   4  -2  -8    2.68    0.19 
   3  -2  -8    4.57    0.27 
   2  -2  -8    8.54    0.46 
   2  -2  -8    8.00    0.43 
   1  -2  -8   37.40    1.86 
   0  -2  -8    9.10    0.51 
  -1  -2  -8    0.69    0.11 
  -2  -2  -8    1.53    0.15 
  -3  -2  -8    0.07    0.07 
  -4  -2  -8    0.27    0.11 
   6  -3  -8   10.82    0.59 
   5  -3  -8   13.06    0.68 
   4  -3  -8    0.83    0.11 
   3  -3  -8   13.10    0.69 
   3  -3  -8   14.65    0.76 
   2  -3  -8    1.32    0.14 
   2  -3  -8    1.09    0.12 
   1  -3  -8    8.66    0.50 
   0  -3  -8   30.49    1.54 
  -1  -3  -8    0.54    0.11 
  -2  -3  -8    0.35    0.11 
  -3  -3  -8   -0.03    0.08 
   6  -4  -8    0.70    0.13 
   5  -4  -8    5.21    0.34 
   4  -4  -8   10.15    0.58 
   4  -4  -8    9.06    0.53 
   3  -4  -8    4.97    0.35 
   3  -4  -8    4.72    0.30 
   2  -4  -8    8.79    0.53 
   1  -4  -8   12.89    0.73 
   0  -4  -8    0.87    0.14 
  -1  -4  -8    0.20    0.11 
  -2  -4  -8    0.67    0.14 
   5  -5  -8    0.64    0.14 
   4  -5  -8    1.83    0.22 
   4  -5  -8    1.55    0.18 
   3  -5  -8    0.45    0.13 
   2  -5  -8    0.96    0.17 
   1  -5  -8    0.01    0.10 
   0  -5  -8    8.87    0.55 
  -1  -5  -8   -0.02    0.11 
   5  -6  -8    6.10    0.45 
   5  -6  -8    6.17    0.41 
   4  -6  -8    1.82    0.24 
   3  -6  -8    0.30    0.14 
   2  -6  -8    0.47    0.15 
   1  -6  -8    0.03    0.12 
   1   6  -9   -0.05    0.05 
   0   6  -9    0.03    0.05 
  -1   6  -9    0.44    0.10 
  -2   6  -9    2.49    0.22 
  -3   6  -9    0.77    0.13 
  -4   6  -9    0.79    0.14 
  -4   6  -9    1.01    0.18 
   3   5  -9    0.05    0.07 
   2   5  -9    1.95    0.18 
   1   5  -9    2.73    0.22 
   0   5  -9    1.96    0.18 
  -1   5  -9    1.82    0.17 
  -2   5  -9    0.07    0.06 
  -3   5  -9    0.28    0.09 
  -3   5  -9    0.40    0.12 
  -4   5  -9    0.11    0.10 
  -5   5  -9    3.13    0.30 
   3   4  -9    0.58    0.10 
   2   4  -9    0.94    0.12 
   1   4  -9    0.04    0.05 
   0   4  -9   -0.01    0.04 
  -1   4  -9    0.89    0.12 
  -2   4  -9    7.63    0.46 
  -2   4  -9    6.77    0.41 
  -3   4  -9    0.03    0.05 
  -3   4  -9    0.07    0.08 
  -4   4  -9    0.14    0.09 
  -5   4  -9    0.13    0.10 
   4   3  -9    1.70    0.17 
   3   3  -9    1.66    0.15 
   2   3  -9    5.93    0.35 
   1   3  -9    2.32    0.18 
   0   3  -9    2.47    0.19 
  -1   3  -9    2.39    0.18 
  -2   3  -9    1.13    0.15 
  -2   3  -9    1.25    0.13 
  -3   3  -9    0.63    0.13 
  -4   3  -9    0.90    0.16 
  -5   3  -9    2.41    0.25 
   5   2  -9    4.02    0.27 
   4   2  -9    3.66    0.25 
   3   2  -9    0.98    0.12 
   2   2  -9    0.48    0.08 
   1   2  -9    0.78    0.10 
   0   2  -9    1.87    0.15 
  -1   2  -9    1.29    0.14 
  -1   2  -9    1.31    0.13 
  -2   2  -9    4.91    0.34 
  -3   2  -9    0.92    0.15 
  -4   2  -9   -0.04    0.07 
  -5   2  -9    0.77    0.17 
   5   1  -9    9.09    0.50 
   4   1  -9    6.79    0.39 
   3   1  -9    4.91    0.29 
   2   1  -9    3.38    0.22 
   1   1  -9    0.02    0.04 
   0   1  -9    0.12    0.06 
   0   1  -9    0.08    0.05 
  -1   1  -9    0.01    0.05 
  -2   1  -9    5.35    0.36 
  -3   1  -9    0.14    0.09 
  -4   1  -9    0.95    0.16 
  -5   1  -9    0.76    0.16 
   5   0  -9    0.72    0.11 
   4   0  -9    0.37    0.09 
   3   0  -9   14.22    0.71 
   2   0  -9    7.60    0.40 
   1   0  -9    0.29    0.07 
   0   0  -9   17.03    0.89 
  -1   0  -9    0.02    0.06 
  -2   0  -9    0.18    0.09 
  -3   0  -9    2.35    0.22 
  -4   0  -9    0.01    0.08 
   6  -1  -9    2.12    0.19 
   5  -1  -9    5.27    0.33 
   4  -1  -9    5.06    0.31 
   3  -1  -9    0.33    0.08 
   2  -1  -9    0.80    0.10 
   1  -1  -9    2.69    0.20 
   1  -1  -9    2.60    0.18 
   0  -1  -9    5.42    0.34 
  -1  -1  -9    5.71    0.36 
  -2  -1  -9    6.16    0.40 
  -3  -1  -9    0.11    0.10 
  -4  -1  -9    0.31    0.11 
   5  -2  -9    1.69    0.17 
   4  -2  -9    8.21    0.46 
   3  -2  -9   13.76    0.69 
   2  -2  -9    8.23    0.46 
   2  -2  -9    7.79    0.43 
   1  -2  -9    0.10    0.07 
   0  -2  -9   18.44    0.97 
  -1  -2  -9    4.87    0.33 
  -2  -2  -9    0.46    0.12 
  -3  -2  -9    1.40    0.19 
   5  -3  -9    0.01    0.08 
   4  -3  -9   -0.01    0.07 
   3  -3  -9    2.56    0.20 
   2  -3  -9    5.35    0.35 
   1  -3  -9    4.11    0.29 
   0  -3  -9   13.71    0.76 
  -1  -3  -9    6.86    0.44 
  -2  -3  -9    0.75    0.16 
   5  -4  -9    3.33    0.26 
   4  -4  -9    3.67    0.27 
   3  -4  -9    1.18    0.18 
   2  -4  -9    1.88    0.20 
   1  -4  -9    0.01    0.09 
   0  -4  -9    4.24    0.32 
  -1  -4  -9   10.39    0.63 
   3  -5  -9    1.74    0.23 
   2  -5  -9    0.34    0.14 
   1  -5  -9    0.85    0.17 
   0  -5  -9    4.20    0.35 
  -2   6 -10    0.14    0.08 
   1   5 -10    4.72    0.32 
   0   5 -10    0.42    0.10 
  -1   5 -10   -0.01    0.05 
  -2   5 -10    0.48    0.10 
  -3   5 -10    0.38    0.10 
  -4   5 -10    0.32    0.13 
   2   4 -10    0.11    0.07 
   1   4 -10    2.55    0.21 
   0   4 -10    5.62    0.35 
  -1   4 -10    4.75    0.31 
  -2   4 -10    0.81    0.12 
  -3   4 -10    0.21    0.09 
  -4   4 -10   -0.06    0.07 
   3   3 -10    2.51    0.20 
   2   3 -10    0.94    0.12 
   1   3 -10    5.44    0.34 
   0   3 -10    0.21    0.07 
  -1   3 -10    0.00    0.05 
  -2   3 -10    1.18    0.16 
  -3   3 -10    2.82    0.26 
  -4   3 -10    0.35    0.12 
   4   2 -10    3.60    0.26 
   3   2 -10    0.62    0.10 
   2   2 -10    1.07    0.12 
   1   2 -10    7.98    0.44 
   0   2 -10    4.99    0.31 
  -1   2 -10    2.52    0.22 
  -2   2 -10    1.24    0.16 
  -3   2 -10    0.04    0.08 
  -4   2 -10    0.17    0.11 
   4   1 -10    5.16    0.32 
   3   1 -10    2.47    0.19 
   2   1 -10    0.66    0.10 
   1   1 -10    0.20    0.07 
   0   1 -10    1.49    0.14 
  -1   1 -10    0.33    0.09 
  -2   1 -10    1.92    0.19 
  -3   1 -10    2.51    0.24 
  -4   1 -10    0.08    0.10 
   4   0 -10    7.18    0.41 
   3   0 -10    1.29    0.13 
   2   0 -10    2.30    0.18 
   1   0 -10    1.93    0.16 
   0   0 -10    0.05    0.06 
  -1   0 -10    0.11    0.08 
  -2   0 -10   -0.03    0.06 
  -3   0 -10    1.52    0.20 
   5  -1 -10    4.31    0.30 
   4  -1 -10    4.03    0.27 
   3  -1 -10    0.02    0.06 
   2  -1 -10    6.23    0.36 
   1  -1 -10    0.87    0.12 
   0  -1 -10    0.35    0.09 
  -1  -1 -10    0.90    0.14 
  -2  -1 -10    0.32    0.11 
  -3  -1 -10    0.33    0.12 
   5  -2 -10   -0.05    0.08 
   4  -2 -10    6.80    0.41 
   3  -2 -10    0.83    0.12 
   1  -2 -10    0.66    0.12 
   0  -2 -10    1.68    0.18 
  -1  -2 -10    0.49    0.12 
  -2  -2 -10    0.80    0.15 
   4  -3 -10    0.56    0.13 
   2  -3 -10    6.09    0.40 
   1  -3 -10    0.86    0.15 
   0  -3 -10    0.06    0.10 
  -1  -3 -10    1.23    0.19 
   2  -4 -10    0.00    0.12 
   1  -4 -10    0.96    0.17 
   1   4 -11    0.72    0.12 
   0   4 -11    2.09    0.19 
  -1   4 -11    1.51    0.17 
   2   3 -11    0.08    0.06 
   1   3 -11    0.40    0.09 
   0   3 -11    0.82    0.12 
  -3   3 -11    0.10    0.09 
   2   2 -11    0.66    0.11 
   1   2 -11    0.88    0.12 
   0   2 -11    4.06    0.28 
  -2   2 -11    0.22    0.10 
  -3   2 -11    0.98    0.16 
   3   1 -11    0.27    0.09 
   2   1 -11   -0.01    0.06 
   1   1 -11    0.15    0.06 
  -1   1 -11    2.71    0.24 
  -2   1 -11    1.42    0.19 
  -3   1 -11    0.07    0.09 
   3   0 -11    7.10    0.42 
   2   0 -11    1.39    0.15 
  -1   0 -11    0.40    0.11 
  -2   0 -11    0.01    0.08 
   3  -1 -11    1.97    0.19 
   0  -1 -11    1.33    0.17 
  -1  -1 -11    0.23    0.11 
   0  -2 -11    0.20    0.10 
   0   3 -12    0.27    0.09 
   1   2 -12    0.04    0.06 
   0   0   0    0.00    0.00 
;
loop_
_space_group_symop_operation_xyz
'x, y, z'
'-x, -y, -z'
loop_
_atom_site_label
_atom_site_type_symbol
_atom_site_fract_x
_atom_site_fract_y
_atom_site_fract_z
_atom_site_U_iso_or_equiv
_atom_site_adp_type
_atom_site_occupancy
_atom_site_site_symmetry_order
_atom_site_calc_flag
_atom_site_refinement_flags_posn
_atom_site_refinement_flags_adp
_atom_site_refinement_flags_occupancy
_atom_site_disorder_assembly
_atom_site_disorder_group
C8 C 0.4992(4) 0.3222(3) 0.1778(3) 0.0513(6) Uani 1 1 d . . . . .
H8A H 0.466664 0.387157 0.098975 0.062 Uiso 1 1 calc R U . . .
H8B H 0.634715 0.395843 0.228498 0.062 Uiso 1 1 calc R U . . .
C4 C -0.0337(3) 0.2908(3) 0.6430(3) 0.0455(6) Uani 1 1 d . . . . .
H4A H -0.143052 0.334390 0.625803 0.055 Uiso 1 1 calc R U . . .
O1 O -0.0773(3) 0.2127(3) 1.0123(2) 0.0709(6) Uani 1 1 d . . . . .
C5 C 0.0850(3) 0.2767(3) 0.5343(2) 0.0431(6) Uani 1 1 d . . . . .
H5A H 0.056239 0.310533 0.442775 0.052 Uiso 1 1 calc R U . . .
O2 O -0.2450(3) 0.3330(3) 0.8710(2) 0.0724(6) Uani 1 1 d . . . . .
C1 C 0.2852(3) 0.1541(3) 0.6962(2) 0.0433(6) Uani 1 1 d . . . . .
H1A H 0.390893 0.105597 0.712958 0.052 Uiso 1 1 calc R U . . .
C7 C 0.3472(3) 0.3047(3) 0.2843(2) 0.0455(6) Uani 1 1 d . . . . .
H7A H 0.212532 0.227622 0.234038 0.055 Uiso 1 1 calc R U . . .
H7B H 0.343364 0.429941 0.322803 0.055 Uiso 1 1 calc R U . . .
C3 C 0.0095(3) 0.2401(3) 0.7776(2) 0.0413(6) Uani 1 1 d . . . . .
C2 C 0.1665(3) 0.1680(3) 0.8052(2) 0.0433(6) Uani 1 1 d . . . . .
H2A H 0.190757 0.129968 0.895750 0.052 Uiso 1 1 calc R U . . .
C6 C 0.2500(3) 0.2115(3) 0.5608(2) 0.0380(5) Uani 1 1 d . . . . .
O3 O 0.4932(3) 0.1385(2) 0.11832(18) 0.0628(6) Uani 1 1 d . . . . .
H3A H 0.601173 0.144326 0.087239 0.094 Uiso 1 1 calc R U . . .
N1 N -0.1122(3) 0.2632(3) 0.8941(2) 0.0490(5) Uani 1 1 d . . . . .
S1 S 0.41818(8) 0.19517(8) 0.43422(6) 0.0474(3) Uani 1 1 d . . . . .
loop_
_atom_site_aniso_label
_atom_site_aniso_U_11
_atom_site_aniso_U_22
_atom_site_aniso_U_33
_atom_site_aniso_U_23
_atom_site_aniso_U_13
_atom_site_aniso_U_12
C8 0.0610(15) 0.0458(13) 0.0438(12) -0.0020(10) 0.0192(11) 0.0136(11)
C4 0.0383(11) 0.0497(13) 0.0527(13) 0.0076(10) 0.0107(9) 0.0194(10)
O1 0.0757(12) 0.0960(16) 0.0486(11) 0.0181(10) 0.0277(9) 0.0315(11)
C5 0.0444(12) 0.0493(13) 0.0379(11) 0.0065(9) 0.0086(9) 0.0180(10)
O2 0.0691(12) 0.0908(15) 0.0788(14) 0.0216(11) 0.0397(10) 0.0455(11)
C1 0.0446(12) 0.0462(13) 0.0435(12) 0.0034(9) 0.0075(9) 0.0220(10)
C7 0.0579(15) 0.0417(12) 0.0395(12) 0.0008(9) 0.0151(10) 0.0202(11)
C3 0.0395(12) 0.0380(12) 0.0423(12) -0.0008(9) 0.0154(9) 0.0076(9)
C2 0.0450(12) 0.0447(12) 0.0395(11) 0.0041(9) 0.0069(9) 0.0145(10)
C6 0.0409(11) 0.0337(11) 0.0370(11) -0.0034(8) 0.0075(8) 0.0118(9)
O3 0.0799(13) 0.0555(11) 0.0566(10) -0.0047(8) 0.0355(9) 0.0259(10)
N1 0.0444(11) 0.0468(12) 0.0522(12) 0.0020(9) 0.0188(9) 0.0093(9)
S1 0.0527(5) 0.0576(5) 0.0419(4) 0.0056(3) 0.0173(3) 0.0301(3)
loop_
_atom_type_symbol
_atom_type_description
_atom_type_scat_dispersion_real
_atom_type_scat_dispersion_imag
_atom_type_scat_source
C C 0.0033 0.0016 'International Tables Vol C Tables 4.2.6.8 and 6.1.1.4'
H H 0.0000 0.0000 'International Tables Vol C Tables 4.2.6.8 and 6.1.1.4'
N N 0.0061 0.0033 'International Tables Vol C Tables 4.2.6.8 and 6.1.1.4'
O O 0.0106 0.0060 'International Tables Vol C Tables 4.2.6.8 and 6.1.1.4'
S S 0.1246 0.1234 'International Tables Vol C Tables 4.2.6.8 and 6.1.1.4'
loop_
_geom_angle_atom_site_label_1
_geom_angle_atom_site_label_2
_geom_angle_atom_site_label_3
_geom_angle
_geom_angle_site_symmetry_1
_geom_angle_site_symmetry_3
O3 C8 C7 108.41(18) . .
O3 C8 H8A 110.0 . .
C7 C8 H8A 110.0 . .
O3 C8 H8B 110.0 . .
C7 C8 H8B 110.0 . .
H8A C8 H8B 108.4 . .
C5 C4 C3 119.6(2) . .
C5 C4 H4A 120.2 . .
C3 C4 H4A 120.2 . .
C4 C5 C6 120.0(2) . .
C4 C5 H5A 120.0 . .
C6 C5 H5A 120.0 . .
C2 C1 C6 121.0(2) . .
C2 C1 H1A 119.5 . .
C6 C1 H1A 119.5 . .
C8 C7 S1 109.18(17) . .
C8 C7 H7A 109.8 . .
S1 C7 H7A 109.8 . .
C8 C7 H7B 109.8 . .
S1 C7 H7B 109.8 . .
H7A C7 H7B 108.3 . .
C4 C3 C2 121.7(2) . .
C4 C3 N1 119.1(2) . .
C2 C3 N1 119.2(2) . .
C1 C2 C3 118.5(2) . .
C1 C2 H2A 120.8 . .
C3 C2 H2A 120.8 . .
C1 C6 C5 119.08(19) . .
C1 C6 S1 116.43(17) . .
C5 C6 S1 124.48(18) . .
C8 O3 H3A 109.5 . .
O2 N1 O1 122.3(2) . .
O2 N1 C3 118.8(2) . .
O1 N1 C3 118.9(2) . .
C6 S1 C7 104.44(11) . .
loop_
_geom_bond_atom_site_label_1
_geom_bond_atom_site_label_2
_geom_bond_distance
_geom_bond_site_symmetry_2
C8 O3 1.402(3) .
C8 C7 1.493(3) .
C8 H8A 0.9700 .
C8 H8B 0.9700 .
C4 C5 1.367(3) .
C4 C3 1.373(3) .
C4 H4A 0.9300 .
O1 N1 1.222(3) .
C5 C6 1.401(3) .
C5 H5A 0.9300 .
O2 N1 1.216(3) .
C1 C2 1.370(3) .
C1 C6 1.391(3) .
C1 H1A 0.9300 .
C7 S1 1.797(2) .
C7 H7A 0.9700 .
C7 H7B 0.9700 .
C3 C2 1.385(3) .
C3 N1 1.451(3) .
C2 H2A 0.9300 .
C6 S1 1.745(2) .
O3 H3A 0.8200 .
loop_
_geom_hbond_atom_site_label_D
_geom_hbond_atom_site_label_H
_geom_hbond_atom_site_label_A
_geom_hbond_distance_DH
_geom_hbond_distance_HA
_geom_hbond_distance_DA
_geom_hbond_angle_DHA
_geom_hbond_site_symmetry_A
_geom_hbond_publ_flag
O3 H3A O1 0.82 2.33 3.139(3) 170.9 1_654 yes
loop_
_geom_torsion_atom_site_label_1
_geom_torsion_atom_site_label_2
_geom_torsion_atom_site_label_3
_geom_torsion_atom_site_label_4
_geom_torsion
_geom_torsion_site_symmetry_1
_geom_torsion_site_symmetry_2
_geom_torsion_site_symmetry_3
_geom_torsion_site_symmetry_4
C3 C4 C5 C6 -0.2(3) . . . .
O3 C8 C7 S1 62.6(2) . . . .
C5 C4 C3 C2 -2.4(3) . . . .
C5 C4 C3 N1 177.4(2) . . . .
C6 C1 C2 C3 0.2(3) . . . .
C4 C3 C2 C1 2.3(3) . . . .
N1 C3 C2 C1 -177.43(19) . . . .
C2 C1 C6 C5 -2.7(3) . . . .
C2 C1 C6 S1 177.55(17) . . . .
C4 C5 C6 C1 2.7(3) . . . .
C4 C5 C6 S1 -177.59(17) . . . .
C4 C3 N1 O2 -2.4(3) . . . .
C2 C3 N1 O2 177.4(2) . . . .
C4 C3 N1 O1 177.9(2) . . . .
C2 C3 N1 O1 -2.4(3) . . . .
C1 C6 S1 C7 -173.55(17) . . . .
C5 C6 S1 C7 6.7(2) . . . .
C8 C7 S1 C6 172.57(15) . . . .
