#------------------------------------------------------------------------------
#$Date: 2022-05-09 12:10:04 +0300 (Mon, 09 May 2022) $
#$Revision: 275277 $
#$URL: file:///home/coder/svn-repositories/cod/cif/8/10/51/8105190.cif $
#------------------------------------------------------------------------------
#
# This file is available in the Crystallography Open Database (COD),
# http://www.crystallography.net/
#
# All data on this site have been placed in the public domain by the
# contributors.
#
data_8105190
loop_
_publ_author_name
'Cong, Chen'
'Yun, Xiao'
'Chong, Li'
'LiZhen, Chen'
'Jianlong, Wang'
_publ_section_title
;
 The crystal structure of 1-methyl-1H-pyrazol-2-ium nitrate, C4H7O3N3
;
_journal_issue                   2
_journal_name_full
'Zeitschrift f\"ur Kristallographie - New Crystal Structures'
_journal_page_first              237
_journal_page_last               238
_journal_paper_doi               10.1515/ncrs-2021-0474
_journal_volume                  237
_journal_year                    2022
_chemical_formula_moiety         'N O3, 0.5(C8 H14 N4)'
_chemical_formula_sum            'C4 H7 N3 O3'
_chemical_formula_weight         145.13
_space_group_crystal_system      orthorhombic
_space_group_IT_number           62
_space_group_name_Hall           '-P 2ac 2n'
_space_group_name_H-M_alt        'P n m a'
_atom_sites_solution_hydrogens   mixed
_atom_sites_solution_primary     dual
_cell_angle_alpha                90
_cell_angle_beta                 90
_cell_angle_gamma                90
_cell_formula_units_Z            4
_cell_length_a                   14.2289(10)
_cell_length_b                   6.1881(4)
_cell_length_c                   7.5592(5)
_cell_measurement_reflns_used    1247
_cell_measurement_temperature    150
_cell_measurement_theta_max      26.077
_cell_measurement_theta_min      2.863
_cell_volume                     665.59(8)
_computing_cell_refinement       'SAINT V8.40A (?, 2016)'
_computing_data_reduction        'SAINT V8.40A (?, 2016)'
_computing_molecular_graphics    'Olex2 (Dolomanov et al., 2009)'
_computing_publication_material  'Olex2 (Dolomanov et al., 2009)'
_computing_structure_refinement  'ShelXL (Sheldrick, 2015)'
_computing_structure_solution    'ShelXT (Sheldrick, 2015)'
_diffrn_ambient_temperature      150.0
_diffrn_measured_fraction_theta_full 0.992
_diffrn_measured_fraction_theta_max 0.988
_diffrn_measurement_device_type  'Bruker D8 VENTURE'
_diffrn_measurement_method       '\f and \w scans'
_diffrn_radiation_type           MoK\a
_diffrn_radiation_wavelength     0.71073
_diffrn_reflns_av_R_equivalents  0.0413
_diffrn_reflns_av_unetI/netI     0.0314
_diffrn_reflns_Laue_measured_fraction_full 0.992
_diffrn_reflns_Laue_measured_fraction_max 0.988
_diffrn_reflns_limit_h_max       17
_diffrn_reflns_limit_h_min       -16
_diffrn_reflns_limit_k_max       7
_diffrn_reflns_limit_k_min       -7
_diffrn_reflns_limit_l_max       9
_diffrn_reflns_limit_l_min       -8
_diffrn_reflns_number            3531
_diffrn_reflns_point_group_measured_fraction_full 0.992
_diffrn_reflns_point_group_measured_fraction_max 0.988
_diffrn_reflns_theta_full        25.242
_diffrn_reflns_theta_max         26.355
_diffrn_reflns_theta_min         2.863
_diffrn_standards_number         0
_exptl_absorpt_coefficient_mu    0.124
_exptl_absorpt_correction_T_max  0.7454
_exptl_absorpt_correction_T_min  0.6319
_exptl_absorpt_correction_type   multi-scan
_exptl_absorpt_process_details
'SADABS-2016/2 (Bruker,2016/2) was used for absorption correction. wR2(int) was 0.0967 before and 0.0403 after correction. The Ratio of minimum to maximum transmission is 0.8477. The \l/2 correction factor is Not present.'
_exptl_crystal_colour            colourless
_exptl_crystal_colour_primary    colourless
_exptl_crystal_density_diffrn    1.448
_exptl_crystal_description       block
_exptl_crystal_F_000             304
_exptl_crystal_size_max          0.15
_exptl_crystal_size_mid          0.08
_exptl_crystal_size_min          0.05
_refine_diff_density_max         0.211
_refine_diff_density_min         -0.254
_refine_diff_density_rms         0.044
_refine_ls_extinction_coef       .
_refine_ls_extinction_method     none
_refine_ls_goodness_of_fit_ref   1.082
_refine_ls_hydrogen_treatment    mixed
_refine_ls_matrix_type           full
_refine_ls_number_parameters     65
_refine_ls_number_reflns         737
_refine_ls_number_restraints     1
_refine_ls_restrained_S_all      1.091
_refine_ls_R_factor_all          0.0619
_refine_ls_R_factor_gt           0.0427
_refine_ls_shift/su_max          0.000
_refine_ls_shift/su_mean         0.000
_refine_ls_structure_factor_coef Fsqd
_refine_ls_weighting_details
'w=1/[\s^2^(Fo^2^)+(0.0449P)^2^+0.2821P] where P=(Fo^2^+2Fc^2^)/3'
_refine_ls_weighting_scheme      calc
_refine_ls_wR_factor_gt          0.0980
_refine_ls_wR_factor_ref         0.1098
_reflns_Friedel_coverage         0.000
_reflns_Friedel_fraction_full    .
_reflns_Friedel_fraction_max     .
_reflns_number_gt                585
_reflns_number_total             737
_reflns_threshold_expression     'I > 2\s(I)'
_iucr_refine_instructions_details
;
TITL c_a.res in Pnma
    c.res
    created by SHELXL-2018/3 at 22:27:32 on 14-Dec-2021
REM Old TITL C in Pnma
REM SHELXT solution in Pnma: R1 0.151, Rweak 0.027, Alpha 0.022
REM <I/s> 0.563 for 91 systematic absences, Orientation as input
REM Formula found by SHELXT: C6 N O3
CELL 0.71073 14.2289 6.1881 7.5592 90 90 90
ZERR 4 0.001 0.0004 0.0005 0 0 0
LATT 1
SYMM 0.5-X,-Y,0.5+Z
SYMM -X,0.5+Y,-Z
SYMM 0.5+X,0.5-Y,0.5-Z
SFAC C H N O
UNIT 16 28 12 12
DFIX 0.87 N2 H2

L.S. 4
PLAN  20
SIZE 0.15 0.08 0.05
TEMP -123.15
BOND
list 4
fmap 2
ACTA
REM <olex2.extras>
REM <HklSrc "%.\\C.hkl">
REM </olex2.extras>

WGHT    0.044900    0.282100
FVAR       1.18823
O1    4    0.550424    0.250000    0.534854    10.50000    0.02657    0.05940 =
         0.02307    0.00000    0.00239    0.00000
O2    4    0.655008    0.250000    0.327558    10.50000    0.03231    0.05007 =
         0.04317    0.00000    0.01530    0.00000
O3    4    0.506751    0.250000    0.260153    10.50000    0.04731    0.06252 =
         0.02894    0.00000   -0.01193    0.00000
N2    3    0.367601    0.250000    0.585591    10.50000    0.02460    0.03457 =
         0.02275    0.00000    0.00274    0.00000
N1    3    0.338105    0.250000    0.754484    10.50000    0.02824    0.03132 =
         0.02331    0.00000    0.00240    0.00000
N3    3    0.571042    0.250000    0.371251    10.50000    0.03446    0.02840 =
         0.02815    0.00000    0.00223    0.00000
C2    1    0.244425    0.250000    0.756426    10.50000    0.02766    0.03429 =
         0.04561    0.00000    0.01168    0.00000
AFIX  43
H2A   2    0.205788    0.250000    0.858919    10.50000   -1.20000
AFIX   0
C3    1    0.213380    0.250000    0.583296    10.50000    0.02349    0.03946 =
         0.05268    0.00000   -0.00566    0.00000
AFIX  43
H3    2    0.150044    0.250000    0.543535    10.50000   -1.20000
AFIX   0
C4    1    0.292807    0.250000    0.480693    10.50000    0.03373    0.03899 =
         0.02897    0.00000   -0.00638    0.00000
AFIX  43
H4    2    0.294106    0.250000    0.355042    10.50000   -1.20000
AFIX   0
C1    1    0.405022    0.250000    0.899944    10.50000    0.04888    0.04574 =
         0.02849    0.00000   -0.00889    0.00000
PART -1
AFIX 137
H1C   2    0.372162    0.282803    1.010671    10.50000   -1.50000
H1B   2    0.453335    0.359746    0.878360    10.50000   -1.50000
H1A   2    0.434655    0.107450    0.908807    10.50000   -1.50000
AFIX   0
PART 0
H2    2    0.431253    0.250000    0.551490    10.50000    0.08395
HKLF 4




REM  c_a.res in Pnma
REM wR2 = 0.1098, GooF = S = 1.082, Restrained GooF = 1.091 for all data
REM R1 = 0.0427 for 585 Fo > 4sig(Fo) and 0.0619 for all 737 data
REM 65 parameters refined using 1 restraints

END  
     
WGHT      0.0406      0.2933 

REM Highest difference peak  0.211,  deepest hole -0.254,  1-sigma level  0.044
Q1    1   0.4668  0.2500  0.5657  10.50000  0.05    0.21
Q2    1   0.0713  0.2500  0.6458  10.50000  0.05    0.15
Q3    1   0.3458  0.2500  1.0784  10.50000  0.05    0.14
Q4    1   0.4230  0.2500  0.3193  10.50000  0.05    0.13
Q5    1   0.5711  0.2500  0.7266  10.50000  0.05    0.13
Q6    1   0.2234  0.2500  0.9228  10.50000  0.05    0.13
Q7    1   0.5011  0.2500  0.6776  10.50000  0.05    0.12
Q8    1   0.2983  0.2500  0.4307  10.50000  0.05    0.12
Q9    1   0.7066  0.2500  0.4451  10.50000  0.05    0.12
Q10   1   0.7084  0.1063  0.3681  11.00000  0.05    0.12
Q11   1   0.3574  0.2500  0.6810  10.50000  0.05    0.12
Q12   1   0.7126  0.2500  0.3113  10.50000  0.05    0.12
Q13   1   0.5722  0.1045  0.4993  11.00000  0.05    0.12
Q14   1   0.4259  0.2500  0.1667  10.50000  0.05    0.11
Q15   1   0.6562  0.2500  0.1761  10.50000  0.05    0.11
Q16   1   0.3615  0.3853  0.9920  11.00000  0.05    0.11
Q17   1   0.5117  0.1002  0.5917  11.00000  0.05    0.11
Q18   1   0.3281  0.1870  0.5263  11.00000  0.05    0.11
Q19   1   0.0407  0.2500  0.5319  10.50000  0.05    0.10
Q20   1   0.4913  0.0831  0.5337  11.00000  0.05    0.10

  REM The information below was added by Olex2.
  REM
  REM R1 = 0.0427 for 585 Fo > 4sig(Fo) and 0.0619 for all 3803 data
  REM n/a parameters refined using n/a restraints
  REM Highest difference peak 0.21, deepest hole -0.25
  REM Mean Shift 0, Max Shift 0.000.

  REM +++ Tabular Listing of Refinement Information +++
  REM R1_all = 0.0619
  REM R1_gt = 0.0427
  REM wR_ref = 0.1098
  REM GOOF = 1.082
  REM Shift_max = 0.000
  REM Shift_mean = 0
  REM Reflections_all = 3803
  REM Reflections_gt = 585
  REM Parameters = n/a
  REM Hole = -0.25
  REM Peak = 0.21
  REM Flack = n/a

  
;
_cod_data_source_file            suppl_j_ncrs-2021-0474_suppl.cif
_cod_data_source_block           c
_cod_database_code               8105190
_shelx_space_group_comment
;
The symmetry employed for this shelxl refinement is uniquely defined
by the following loop, which should always be used as a source of
symmetry information in preference to the above space-group names.
They are only intended as comments.
;
_shelx_estimated_absorpt_t_max   0.994
_shelx_estimated_absorpt_t_min   0.982
_olex2_refinement_description
;
1. Fixed Uiso
 At 1.2 times of:
  All C(H) groups
 At 1.5 times of:
  All C(H,H,H) groups
2. Restrained distances
 N2-H2
 0.87 with sigma of 0.02
3. Others
 Fixed Sof: H1C(0.5) H1B(0.5) H1A(0.5)
4.a Aromatic/amide H refined with riding coordinates:
 C2(H2A), C3(H3), C4(H4)
4.b Idealised Me refined as rotating group:
 C1(H1C,H1B,H1A)
;
_olex2_submission_special_instructions 'No special instructions were received'
loop_
_space_group_symop_operation_xyz
'x, y, z'
'-x+1/2, -y, z+1/2'
'-x, y+1/2, -z'
'x+1/2, -y+1/2, -z+1/2'
'-x, -y, -z'
'x-1/2, y, -z-1/2'
'x, -y-1/2, z'
'-x-1/2, y-1/2, z-1/2'
loop_
_atom_site_label
_atom_site_type_symbol
_atom_site_fract_x
_atom_site_fract_y
_atom_site_fract_z
_atom_site_U_iso_or_equiv
_atom_site_adp_type
_atom_site_occupancy
_atom_site_site_symmetry_order
_atom_site_calc_flag
_atom_site_refinement_flags_posn
_atom_site_refinement_flags_adp
_atom_site_refinement_flags_occupancy
_atom_site_disorder_assembly
_atom_site_disorder_group
O1 O 0.55042(10) 0.250000 0.5349(2) 0.0363(5) Uani 1 2 d S T P . .
O2 O 0.65501(11) 0.250000 0.3276(2) 0.0419(5) Uani 1 2 d S T P . .
O3 O 0.50675(14) 0.250000 0.2602(2) 0.0463(6) Uani 1 2 d S T P . .
N2 N 0.36760(13) 0.250000 0.5856(2) 0.0273(5) Uani 1 2 d DS T P . .
N1 N 0.33810(13) 0.250000 0.7545(2) 0.0276(5) Uani 1 2 d S T P . .
N3 N 0.57104(13) 0.250000 0.3713(3) 0.0303(5) Uani 1 2 d S T P . .
C2 C 0.24443(17) 0.250000 0.7564(4) 0.0359(7) Uani 1 2 d S T P . .
H2A H 0.205788 0.250000 0.858919 0.043 Uiso 1 2 calc RS T P . .
C3 C 0.21338(16) 0.250000 0.5833(4) 0.0385(7) Uani 1 2 d S T P . .
H3 H 0.150044 0.250000 0.543535 0.046 Uiso 1 2 calc RS T P . .
C4 C 0.29281(16) 0.250000 0.4807(3) 0.0339(6) Uani 1 2 d S T P . .
H4 H 0.294106 0.250000 0.355042 0.041 Uiso 1 2 calc RS T P . .
C1 C 0.40502(19) 0.250000 0.8999(3) 0.0410(7) Uani 1 2 d S T P . .
H1C H 0.372162 0.282803 1.010671 0.062 Uiso 0.5 1 calc GR . . A -1
H1B H 0.453335 0.359746 0.878360 0.062 Uiso 0.5 1 calc GR . . A -1
H1A H 0.434655 0.107450 0.908807 0.062 Uiso 0.5 1 calc GR . . A -1
H2 H 0.4313(14) 0.250000 0.551(4) 0.084(12) Uiso 1 2 d DS T P . .
loop_
_atom_site_aniso_label
_atom_site_aniso_U_11
_atom_site_aniso_U_22
_atom_site_aniso_U_33
_atom_site_aniso_U_23
_atom_site_aniso_U_13
_atom_site_aniso_U_12
O1 0.0266(9) 0.0594(12) 0.0231(9) 0.000 0.0024(7) 0.000
O2 0.0323(10) 0.0501(12) 0.0432(12) 0.000 0.0153(8) 0.000
O3 0.0473(11) 0.0625(13) 0.0289(11) 0.000 -0.0119(8) 0.000
N2 0.0246(10) 0.0346(11) 0.0228(11) 0.000 0.0027(8) 0.000
N1 0.0282(10) 0.0313(11) 0.0233(11) 0.000 0.0024(8) 0.000
N3 0.0345(11) 0.0284(11) 0.0282(12) 0.000 0.0022(9) 0.000
C2 0.0277(13) 0.0343(13) 0.0456(17) 0.000 0.0117(11) 0.000
C3 0.0235(12) 0.0395(15) 0.0527(18) 0.000 -0.0057(11) 0.000
C4 0.0337(13) 0.0390(14) 0.0290(14) 0.000 -0.0064(11) 0.000
C1 0.0489(15) 0.0457(16) 0.0285(14) 0.000 -0.0089(12) 0.000
loop_
_atom_type_symbol
_atom_type_description
_atom_type_scat_dispersion_real
_atom_type_scat_dispersion_imag
_atom_type_scat_source
C C 0.0033 0.0016 'International Tables Vol C Tables 4.2.6.8 and 6.1.1.4'
H H 0.0000 0.0000 'International Tables Vol C Tables 4.2.6.8 and 6.1.1.4'
N N 0.0061 0.0033 'International Tables Vol C Tables 4.2.6.8 and 6.1.1.4'
O O 0.0106 0.0060 'International Tables Vol C Tables 4.2.6.8 and 6.1.1.4'
loop_
_geom_angle_atom_site_label_1
_geom_angle_atom_site_label_2
_geom_angle_atom_site_label_3
_geom_angle
_geom_angle_site_symmetry_1
_geom_angle_site_symmetry_3
C4 N2 N1 108.49(19) . .
N2 N1 C1 120.91(19) . .
C2 N1 N2 108.8(2) . .
C2 N1 C1 130.3(2) . .
O2 N3 O1 118.80(19) . .
O2 N3 O3 122.0(2) . .
O3 N3 O1 119.21(19) . .
N1 C2 C3 108.0(2) . .
C4 C3 C2 105.8(2) . .
N2 C4 C3 108.8(2) . .
loop_
_geom_bond_atom_site_label_1
_geom_bond_atom_site_label_2
_geom_bond_distance
_geom_bond_site_symmetry_2
O1 N3 1.271(3) .
O2 N3 1.240(2) .
O3 N3 1.242(2) .
N2 N1 1.344(3) .
N2 C4 1.327(3) .
N1 C2 1.333(3) .
N1 C1 1.455(3) .
C2 C3 1.381(4) .
C3 C4 1.371(3) .
loop_
_refln_index_h
_refln_index_k
_refln_index_l
_refln_F_squared_meas
_refln_F_squared_sigma
0 -1 0 0.4 0.5
0 1 0 0.1 0.6
0 -3 0 1.9 1.6
0 3 0 -1.5 1.3
0 -4 0 9693.53 150.38
0 4 0 9999 154.78
0 -5 0 2.7 3.4
0 5 0 0.5 4.1
0 5 0 2.3 3.3
0 6 0 2268.27 56.09
0 6 0 2151.58 63.59
0 7 0 7.5 5.7
0 7 -1 13.8 6.3
0 6 -1 0.9 3.1
0 5 -1 26.3 6.2
0 -5 1 31.7 6.3
0 4 -1 -2.4 1.8
0 -4 1 -2.6 1.5
0 3 -1 34.4 4.4
0 -3 1 27.9 4
0 -2 1 0.5 1.2
0 0 -1 0.2 0.4
0 0 1 -0.2 0.3
0 -1 -1 287.47 7.3
0 1 1 287.27 7
0 1 1 288.47 10
0 -2 -1 -1.1 0.5
0 -2 -1 -0.3 0.8
0 2 1 0.5 1.1
0 2 1 -0.7 0.5
0 -3 -1 33.9 4.7
0 3 1 29.9 3.7
0 3 1 32 6.2
0 4 1 -1.8 1.3
0 4 1 -4 1.8
0 5 1 26 4.9
0 5 1 18.3 6.9
0 6 1 4.1 3.3
0 7 1 13.4 5
0 7 -2 -0.3 5.1
0 -6 2 7 3.6
0 -5 2 3.2 2.5
0 -4 2 42.9 5.2
0 -3 2 -0.7 1
0 1 -2 -0.3 0.7
0 0 -2 78.89 4.4
0 0 2 82.69 4.7
0 -1 -2 -0.1 0.6
0 1 2 -0.4 0.6
0 1 2 0.5 0.7
0 -2 -2 97.79 5.5
0 2 2 94.09 5
0 2 2 93.59 8
0 -3 -2 0.3 0.9
0 3 2 0.5 0.8
0 3 2 2.4 2.5
0 4 2 29.5 4.6
0 4 2 31.1 7.2
0 5 2 -4.9 3.1
0 5 2 -2.2 1.5
0 6 2 8.4 3.3
0 7 2 -6.3 3.3
0 -6 3 0.6 2.4
0 -5 3 51.69 6.3
0 -4 3 -2.9 1.4
0 -3 3 372.76 14.1
0 2 -3 1.6 1.5
0 1 -3 1637.04 39.8
0 0 -3 1.3 0.9
0 0 3 -0.5 0.8
0 -1 -3 1722.63 31.2
0 1 3 1727.03 31.4
0 -2 -3 0.3 0.9
0 2 3 1 0.8
0 2 3 -1.5 1.3
0 -3 -3 379.56 14
0 3 3 380.46 12.4
0 3 3 370.46 20.6
0 4 3 6.2 3.8
0 5 3 45.1 5.2
0 6 3 0.5 2.5
0 7 3 6.9 3.2
0 -6 4 10.1 3.7
0 -5 4 -0.6 2.2
0 4 -4 71.59 8.4
0 -4 4 68.99 6.3
0 3 -4 5.9 2.9
0 2 -4 272.17 14
0 1 -4 1 1.5
0 0 -4 403.76 14.4
0 0 4 396.56 15.4
0 -1 -4 -0.9 0.9
0 1 4 -1.4 0.8
0 -2 -4 269.27 11.3
0 2 4 269.47 10.9
0 2 4 262.87 16.2
0 3 4 0.9 1.3
0 3 4 4.4 3.2
0 -4 -4 72.69 7
0 4 4 80.19 6.1
0 4 4 71.79 9.9
0 5 4 0.2 1.6
0 6 4 8.3 3.5
0 7 4 -2.4 3.5
0 -5 5 296.37 12.7
0 -4 5 2.6 2.1
0 3 -5 825.22 29.5
0 2 -5 0.1 2
0 1 -5 1683.33 39.6
0 0 -5 1.5 2
0 0 5 -0.2 1.2
0 -1 -5 1603.94 35.5
0 1 5 1645.44 37.1
0 1 5 1640.84 43.4
0 -2 -5 -0.1 1.5
0 2 5 2.4 2.8
0 2 5 -3.2 1.3
0 -3 -5 809.82 23.9
0 3 5 787.52 34.9
0 3 5 817.22 22.4
0 -4 -5 5.4 3.1
0 4 5 0.9 1.9
0 -5 -5 273.27 14.8
0 5 5 302.97 13.1
0 6 5 2.4 3
0 -5 6 -0.8 2.1
0 -4 6 197.68 11
0 2 -6 421.86 20.5
0 1 -6 -2 2
0 0 -6 562.34 21.2
0 -1 -6 2.1 2.3
0 1 6 1.1 2.9
0 1 6 -2 2
0 -2 -6 426.26 17.7
0 2 6 412.96 23.7
0 2 6 429.66 17.7
0 -3 -6 5.3 3.1
0 3 6 0.9 2
0 -4 -6 227.18 13.8
0 4 6 226.58 11.9
0 -5 -6 1.5 3.8
0 5 6 1.5 3
0 -4 7 -2.5 2.6
0 0 -7 -4.5 2.9
0 0 7 1.9 3.2
0 -1 -7 131.19 10.2
0 1 7 125.19 13
0 -2 -7 -2.4 5.2
0 2 7 -2.3 2.5
0 -3 -7 103.99 9.3
0 3 7 82.29 8.3
0 -4 -7 0.4 4.1
0 4 7 1.4 3.3
0 -5 -7 84.49 9.9
0 5 7 61.79 8.2
0 -4 8 2.7 3.5
0 -4 8 0 3.1
0 -3 8 0.4 3.8
0 -2 8 149.79 12.6
0 -1 8 -5.1 4.8
0 0 8 177.18 16.3
0 -3 -8 1.6 4.4
0 3 8 5.8 4.3
0 -4 -8 77.69 9.8
0 4 8 62.59 9
0 -2 9 12.8 7.6
-1 -1 9 16.2 8.3
-1 -2 9 8.4 6.8
1 -4 -8 7.5 6.4
1 -3 -8 18.3 6.2
1 -2 -8 10.4 5.1
-1 0 8 2 4.6
-1 -1 8 29.4 7.7
-1 -2 8 8.6 4.8
-1 -3 8 13.1 6.3
-1 5 7 1.7 3.7
1 -5 -7 8.6 4.5
-1 4 7 -5.6 2.8
1 -4 -7 3.4 4.2
-1 3 7 13.1 3.7
1 -3 -7 9.5 4.4
1 -2 -7 -4.8 3
-1 1 7 17.4 6.5
-1 0 7 14.6 5.1
1 0 -7 6.3 3.3
-1 -1 7 11.7 5
-1 -2 7 -1.8 2.8
-1 -3 7 10.3 3.1
-1 5 6 28 4.6
1 -5 -6 21.4 5.1
-1 4 6 47.3 5.1
1 -4 -6 38.1 6.3
-1 3 6 74.89 7
1 -3 -6 90.69 7.8
-1 2 6 64.19 9.4
-1 2 6 60.09 6.3
1 -2 -6 72.49 6.5
-1 1 6 172.78 13.8
1 -1 -6 176.98 10.8
-1 0 6 66.99 8.4
1 0 -6 70.59 7.1
-1 -1 6 160.28 11.1
1 1 -6 144.79 14.4
1 2 -6 56.29 8.6
-1 -4 6 34.4 2.8
-1 6 5 -3.6 2.4
-1 4 5 15.8 3.4
1 -4 -5 11.4 3.3
-1 3 5 46.6 10.9
-1 3 5 38.4 4.5
1 -3 -5 47.1 5.2
-1 2 5 78.09 9.8
-1 2 5 58.59 5.5
1 -2 -5 59.79 5.5
-1 1 5 82.69 8.8
-1 1 5 82.09 7.1
1 -1 -5 91.09 6.8
-1 0 5 150.48 10.7
1 0 -5 161.38 9.7
1 1 -5 94.49 8.1
1 2 -5 73.69 8
1 3 -5 29.5 6.3
-1 -4 5 11.8 2.1
-1 6 4 -3.1 1.9
-1 5 4 63.19 5.4
-1 4 4 1.3 1.8
-1 4 4 -1.5 1
1 -4 -4 -1.3 1.7
-1 3 4 344.67 21.5
-1 3 4 337.47 11.4
1 -3 -4 322.27 12.4
-1 2 4 7.2 2.1
-1 2 4 4.2 2.9
1 -2 -4 8.5 2
-1 1 4 842.72 27.3
-1 1 4 810.32 21.3
1 -1 -4 816.42 20.2
-1 0 4 11.4 2.9
1 0 -4 14.4 3.1
1 1 -4 780.52 23.2
1 2 -4 2.1 2.2
-1 -3 4 336.37 11.3
1 3 -4 314.77 16.5
-1 -4 4 0 1.1
-1 7 3 29.5 5.3
-1 6 3 5.5 2.6
-1 5 3 111.59 7.3
-1 4 3 11 2.4
-1 4 3 10.1 8.6
-1 3 3 481.35 23.8
-1 3 3 479.75 12.8
1 -3 -3 474.05 14.8
-1 2 3 19.8 5.3
-1 2 3 20.4 2.3
1 -2 -3 22.2 2.6
-1 1 3 1229.68 24
-1 1 3 1216.08 30.9
1 -1 -3 1205.68 23.2
-1 0 3 17.5 2.7
1 0 -3 13.7 2.4
1 1 -3 1175.98 27.8
-1 -3 3 469.85 13
-1 -4 3 11.4 2.8
-1 7 2 18.4 5.2
-1 6 2 42.2 6.3
-1 5 2 81.19 10.9
-1 5 2 70.79 6.3
-1 4 2 234.28 10.1
-1 4 2 222.78 16.4
1 -4 -2 229.08 15.3
-1 3 2 252.97 8.9
-1 3 2 261.87 15.8
1 -3 -2 257.77 14.6
-1 2 2 787.92 15.2
1 -2 -2 805.72 16.7
1 -2 -2 778.02 23.8
-1 1 2 1138.09 19.6
-1 1 2 1170.08 27.7
1 -1 -2 1146.39 19.5
-1 0 2 1286.27 24.5
1 0 -2 1249.88 23.1
-1 -2 2 803.42 15.8
-1 -3 2 281.57 10.5
-1 -4 2 234.68 11
1 7 -2 16.3 8.1
-1 7 1 13.1 4.8
-1 6 1 75.99 25.5
-1 6 1 81.99 8.6
-1 5 1 15.8 4
-1 5 1 25.5 7.4
1 -5 -1 35.1 7.2
-1 4 1 523.45 24.9
-1 4 1 534.35 17.8
1 -4 -1 553.04 23.5
-1 3 1 81.39 5.5
-1 3 1 87.59 8.5
1 -3 -1 87.89 8
-1 2 1 2092.89 43.7
-1 2 1 2097.99 32.9
1 -2 -1 2114.99 42.7
-1 1 1 235.88 9.6
-1 1 1 228.28 4.7
1 -1 -1 229.28 5
-1 -2 1 2057.89 33.3
1 2 -1 2060.89 34.7
-1 -3 1 87.99 6.1
1 3 -1 83.19 6.6
-1 -4 1 521.15 18.5
1 4 -1 538.15 20.9
1 5 -1 25.8 6.2
1 5 -1 19.5 5.7
1 6 -1 91.49 11
1 6 -1 95.29 10.7
1 7 -1 3.3 4
-1 7 0 1.5 3.6
-1 6 0 6.9 6.5
-1 6 0 9.3 4.2
-1 5 0 -1.8 3.1
-1 5 0 2.3 2.4
1 -5 0 -2.2 2.1
-1 4 0 3.2 3.6
1 -4 0 1.8 2.3
1 -3 0 2 2.1
-1 2 0 1.4 1.6
1 -2 0 0.3 1.5
-1 1 0 0.9 0.8
1 -1 0 -0.5 0.4
1 1 0 0.6 0.5
1 2 0 0.5 1.2
1 2 0 0.5 1.1
1 3 0 -1.2 0.8
1 3 0 1.6 1.4
1 4 0 4.3 2.5
1 4 0 2.2 2.2
1 5 0 -3 2.2
1 5 0 1.1 2.4
1 6 0 7.7 4.8
1 6 0 -0.1 5
1 7 0 -1.7 4.4
-1 7 -1 -3.3 3.4
-1 6 -1 76.29 9.6
1 -6 1 94.19 10.4
1 -5 1 32 7
1 -4 1 555.84 22.5
1 -3 1 79.29 7.2
1 -2 1 2057.59 39.8
-1 1 -1 230.08 7.8
-1 -1 -1 231.18 7.6
1 1 1 235.88 7.4
-1 -2 -1 2096.49 37.8
1 2 1 2086.19 36.4
1 2 1 2051.29 40.4
1 3 1 86.19 6.6
1 3 1 79.59 7.7
1 4 1 492.75 22.2
1 5 1 22.6 6.5
1 5 1 14.1 4.1
1 6 1 88.99 11.9
1 6 1 101.69 10.1
1 7 1 -1.1 3.8
-1 7 -2 23.6 7.3
1 -6 2 53.89 7.5
1 -5 2 84.99 8.7
1 -4 2 229.38 13.5
1 -3 2 269.97 13.2
-1 2 -2 809.42 21.6
-1 1 -2 1131.29 23.8
1 -1 2 1132.49 24.4
-1 0 -2 1309.17 24.4
1 0 2 1333.67 24.9
-1 -1 -2 1138.89 22.5
1 1 2 1170.08 22.3
-1 -2 -2 816.52 20
1 2 2 847.02 26.3
1 2 2 813.32 19
-1 -3 -2 259.37 12.1
1 3 2 279.37 11.3
1 3 2 282.47 15.8
1 4 2 224.78 11.6
1 4 2 222.88 16.3
1 5 2 71.79 10.1
1 5 2 69.59 7.1
1 6 2 58.49 6.8
1 7 2 25 6.6
1 -6 3 5.3 3.3
-1 5 -3 138.09 11.7
1 -5 3 134.99 10.9
-1 4 -3 13.8 4.3
1 -4 3 13.8 3.6
-1 3 -3 492.15 19.7
1 -3 3 474.45 18.4
-1 2 -3 22.5 4.2
-1 1 -3 1130.59 29.2
1 -1 3 1194.28 28.2
-1 0 -3 18.1 3.1
1 0 3 14.3 3
-1 -1 -3 1288.27 26.9
1 1 3 1319.77 27
-1 -2 -3 23.6 3.7
1 2 3 27 5.6
1 2 3 20.3 3.5
-1 -3 -3 470.95 18.2
1 3 3 466.95 15.3
1 3 3 479.65 22.3
-1 -4 -3 4.5 2.4
1 4 3 10.9 3.6
1 4 3 17.8 5.6
1 5 3 140.79 9.5
1 5 3 111.69 16.7
1 6 3 4 3.2
1 7 3 36 6.9
1 -6 4 -1.9 3.4
1 -5 4 67.99 8.1
-1 4 -4 -0.2 3.1
1 -4 4 4.1 2.1
-1 3 -4 326.57 16.7
-1 2 -4 3.2 2.3
-1 1 -4 809.22 23.6
-1 0 -4 13.9 3.1
-1 -1 -4 826.52 21.9
1 1 4 792.42 21.8
-1 -2 -4 0.5 1.6
1 2 4 3 1.5
1 2 4 5 2.4
-1 -3 -4 316.97 14.3
1 3 4 314.37 15.4
1 3 4 320.07 19.3
-1 -4 -4 2.6 2.6
1 4 4 -1.9 1.5
1 4 4 -0.5 4.1
1 5 4 62.59 6.1
1 6 4 0.5 2.6
1 -5 5 15.9 4.7
1 -4 5 16.5 4.4
-1 3 -5 50.19 8.5
-1 2 -5 66.19 7.1
-1 1 -5 100.39 8.2
-1 0 -5 153.68 9.9
1 0 5 149.29 10.7
-1 -1 -5 82.19 7.2
1 1 5 86.89 7.5
-1 -2 -5 75.89 7
1 2 5 65.29 6.1
1 2 5 76.69 9.1
-1 -3 -5 52.89 6
1 3 5 51.69 5.5
1 3 5 41.9 8.9
-1 -4 -5 5.3 3.7
1 4 5 11.5 3.5
-1 -5 -5 3.7 3.5
1 5 5 7.5 2.9
1 6 5 -0.3 2.8
1 -5 6 26.4 5.7
1 -4 6 41.1 7.1
-1 2 -6 34 7.1
-1 1 -6 182.48 12.3
-1 0 -6 86.79 8.2
1 0 6 63.09 7.7
-1 -1 -6 175.98 11.3
1 1 6 174.08 12.1
-1 -2 -6 61.49 6.7
1 2 6 54.39 10.8
1 2 6 69.49 7.1
-1 -3 -6 93.09 8.8
1 3 6 84.49 8
-1 -4 -6 27.9 6.3
1 4 6 34.9 5.8
-1 -5 -6 28.8 6.8
1 5 6 23.6 5.5
1 -5 7 -4.9 3.2
-1 0 -7 6.3 3.8
-1 -1 -7 11.2 5.3
1 1 7 17.4 5.2
1 1 7 32.7 6.9
-1 -2 -7 7 4.5
1 2 7 -1.5 2.8
-1 -3 -7 8.5 4.2
1 3 7 6.8 4
-1 -4 -7 12.8 5.2
1 4 7 3.4 3.3
-1 -5 -7 15.7 7.3
1 5 7 0.5 4.2
1 2 8 6.2 5.2
1 3 8 17.6 6.9
1 4 8 13.2 5.8
1 -2 9 -12.7 7.1
-2 -1 9 -1 7.4
-2 -2 9 10.9 6.7
2 -4 -8 -11.9 4.7
2 -3 -8 -6.5 6.1
2 -2 -8 9.9 4
2 -1 -8 13 6.9
-2 0 8 -4.2 6.1
-2 -1 8 13.5 5.7
-2 -2 8 5.6 4.8
-2 -3 8 8.1 3.4
2 -5 -7 121.79 9.4
2 -4 -7 146.39 10.6
2 -3 -7 368.16 16.2
2 -2 -7 239.88 13.2
-2 1 7 642.54 31.8
2 -1 -7 668.33 23.2
-2 0 7 328.07 19.7
2 0 -7 332.27 17.1
-2 -1 7 633.34 25.7
-2 -2 7 249.38 14
-2 -3 7 364.86 12.4
-2 5 6 106.09 7.1
-2 4 6 -0.1 2.6
2 -4 -6 -0.3 2.4
-2 3 6 305.97 14.3
2 -3 -6 304.57 13.4
-2 2 6 0.4 4.5
2 -2 -6 -2.7 1.6
-2 1 6 591.04 27.7
2 -1 -6 567.54 19.7
-2 0 6 -0.2 2.6
2 0 -6 5.3 2.9
-2 -1 6 560.04 21.4
-2 -2 6 3.1 2.3
2 2 -6 0.6 2.7
-2 -3 6 299.57 9.6
-2 6 5 6.4 2.3
-2 5 5 21.2 3.4
-2 4 5 18.9 3.2
2 -4 -5 16.7 3.8
-2 3 5 58.19 11
-2 3 5 71.39 5.5
2 -3 -5 60.09 5.5
-2 2 5 58.49 5.4
-2 2 5 63.69 9.4
-2 1 5 168.68 13.2
2 -1 -5 156.88 8.7
-2 0 5 89.09 8.4
2 0 -5 99.09 7.5
-2 -1 5 166.58 9.9
2 1 -5 165.08 10.8
-2 -2 5 73.39 5.2
2 2 -5 61.89 7.2
-2 -3 5 62.59 3.2
-2 -3 5 67.99 2.9
2 3 -5 61.99 9.2
-2 6 4 16 2.9
-2 5 4 28.5 3.2
-2 4 4 14.9 2.5
-2 4 4 11 5.8
-2 3 4 78.39 4.8
-2 3 4 78.39 9.6
2 -3 -4 78.89 5.3
-2 2 4 7.3 1.9
-2 2 4 0.6 2.3
2 -2 -4 4.3 1.4
-2 1 4 118.39 10.1
2 -1 -4 115.19 6.5
-2 0 4 7.3 2.6
2 0 -4 7.9 2.3
-2 -1 4 108.59 6.6
2 1 -4 108.09 8.1
-2 -2 4 5.2 1.4
-2 7 3 21.3 4.1
-2 6 3 3.4 2.1
-2 5 3 118.89 6.7
-2 4 3 0.2 2.7
-2 4 3 1.3 1.1
-2 3 3 524.65 25.5
-2 3 3 541.85 12.3
2 -3 -3 541.35 23.3
2 -3 -3 542.45 14
-2 2 3 1 0.9
-2 2 3 2.8 2.1
2 -2 -3 2.5 1.9
2 -2 -3 3.3 1.2
-2 1 3 1959.5 43.9
2 -1 -3 1952.1 32.3
-2 0 3 16 3.3
2 0 -3 13.2 2.7
-2 -1 3 1850.31 31.5
2 7 -3 19.3 7.9
-2 7 2 -1.2 3.4
-2 6 2 2.4 2.3
-2 5 2 -2.9 4
-2 5 2 3.4 1.9
2 -5 -2 4.3 3.5
-2 4 2 4.6 1.5
-2 4 2 -0.1 2.7
2 -4 -2 4.9 3.4
-2 3 2 3.9 3.3
-2 3 2 4.3 1.2
2 -3 -2 5.7 2.5
-2 2 2 17.2 1.4
-2 2 2 18.9 4.8
2 -2 -2 16.5 4.2
2 -2 -2 16.1 1.6
-2 1 2 40.1 4.6
2 -1 -2 38.6 2.2
2 -1 -2 37.1 4.3
-2 0 2 25 2.8
2 0 -2 28.4 2.9
-2 -1 2 44.7 2.3
2 6 -2 0.9 3.8
2 7 -2 14.9 6.1
-2 7 1 40.8 7.4
-2 6 1 223.18 13
2 -6 -1 191.78 16.9
-2 5 1 255.57 12.9
2 -5 -1 262.97 17.8
-2 4 1 817.22 21.6
-2 4 1 802.52 32.1
2 -4 -1 832.92 30.8
-2 3 1 1198.08 23.8
-2 3 1 1212.68 36.1
2 -3 -1 1131.09 38.3
-2 2 1 3361.96 63.39
-2 2 1 3438.56 47.2
2 -2 -1 3396.36 62.19
-2 1 1 3479.25 58.39
2 -1 -1 3503.15 57.99
2 2 -1 3194.68 47
2 3 -1 1249.97 28.1
2 4 -1 846.32 25.9
2 5 -1 272.47 17.7
2 5 -1 261.17 16
2 6 -1 193.68 15.9
2 6 -1 224.48 17.1
2 7 -1 57.79 11.2
-2 7 0 -0.8 4.4
-2 6 0 13.9 6.4
-2 6 0 23.9 5.9
2 -6 0 6 4.8
-2 5 0 -2 1.7
-2 5 0 4.8 3.7
2 -5 0 2.8 2.7
-2 4 0 41.5 6.3
2 -4 0 44.3 8.1
-2 3 0 0.3 1.5
2 -3 0 1.4 1.8
-2 2 0 57.79 5.9
2 -2 0 56.89 5.8
-2 1 0 18.5 1.5
2 -1 0 20 2.9
2 -1 0 18.2 1.5
-2 0 0 43 2.6
2 0 0 43.4 2.5
-2 -1 0 19.3 2.4
2 1 0 21.6 2.6
2 2 0 58.19 5.2
2 2 0 56.89 4.4
2 3 0 2.9 1.6
2 3 0 0.6 1.6
2 4 0 37.2 5.5
2 4 0 26.5 5.5
2 5 0 2.3 3
2 5 0 3.4 2.6
2 6 0 17.9 6.5
2 6 0 14.1 5.5
2 7 0 -1.8 3.7
-2 7 -1 56.89 12.2
2 -7 1 51.09 12.5
2 -6 1 195.68 16.3
2 -5 1 249.48 17
2 -4 1 806.42 28.6
2 -3 1 1244.68 34.1
-2 2 -1 3580.04 56.29
2 -2 1 3586.54 63.69
-2 1 -1 3591.74 52.49
2 -1 1 3595.84 53.09
-2 -1 -1 3609.64 54.69
2 1 1 3540.95 53.59
-2 -2 -1 3518.75 58.49
2 2 1 3456.75 56.69
2 3 1 1197.08 29.4
2 3 1 1159.78 31.3
2 4 1 835.92 29.9
2 4 1 833.62 26.1
2 5 1 277.37 18.8
2 5 1 277.47 15.8
2 6 1 179.78 13.9
2 6 1 186.78 17.3
2 7 1 47 9.2
2 -7 2 10.2 5.5
-2 6 -2 8.1 4.1
2 -6 2 -4.7 2.6
-2 5 -2 2.9 3.3
2 -5 2 1.8 3.4
-2 4 -2 13.2 3.3
-2 3 -2 9.6 2.9
2 -3 2 12.3 3.5
-2 2 -2 14.6 3.2
-2 1 -2 41.5 3.8
2 -1 2 45 4.1
-2 0 -2 35.3 3.3
2 0 2 29.4 3
-2 -1 -2 42.2 3.8
2 1 2 39 3.6
-2 -2 -2 12 2.7
2 2 2 13.4 2.7
-2 -3 -2 6.2 1.7
2 3 2 5.2 2
2 3 2 7.8 2.8
2 4 2 1.8 2.4
2 4 2 12.1 4.4
2 5 2 1.3 3.7
2 5 2 3.1 2.6
2 6 2 0.6 2.4
2 7 2 -6.1 3.6
2 -7 3 22.3 6.7
2 -6 3 11.4 5
-2 5 -3 132.39 11.2
2 -5 3 115.29 10.9
-2 4 -3 -3.5 2.4
2 -4 3 5.5 3
-2 3 -3 538.65 20.2
-2 2 -3 3 1.9
-2 1 -3 1895.61 37.8
2 -1 3 1992.1 40.1
-2 0 -3 14.3 3.1
2 0 3 16.6 3.3
-2 -1 -3 1947.01 37.7
2 1 3 2004.3 37.2
-2 -2 -3 0.7 1.9
2 2 3 0.6 1
-2 -3 -3 580.64 20.5
2 3 3 569.04 18.4
2 3 3 575.24 24.5
-2 -4 -3 4.2 2.7
2 4 3 -0.9 1.8
2 4 3 -1.9 2.7
2 5 3 125.19 18
2 5 3 125.79 9.3
2 6 3 1.4 2.3
2 7 3 17.7 5.7
2 -6 4 24.2 6.6
2 -5 4 31.1 6.7
-2 4 -4 18.4 4.9
2 -4 4 17.5 5.9
-2 3 -4 78.69 7.8
-2 2 -4 1.9 2.3
-2 1 -4 119.09 8.1
2 -1 4 102.79 8.5
-2 0 -4 8.3 2.4
2 0 4 6.6 2.6
-2 -1 -4 120.29 7.9
2 1 4 112.29 7.9
-2 -2 -4 3.8 2.1
2 2 4 2.2 1.6
-2 -3 -4 65.79 6.7
2 3 4 73.79 6.5
2 3 4 68.49 8.7
-2 -4 -4 14.9 3.7
2 4 4 16.6 3.8
2 4 4 23.5 7.2
-2 -5 -4 29.6 6.5
2 5 4 19 4.8
2 6 4 14.6 4.4
2 -6 5 1.1 4.7
2 -5 5 29.7 6.6
2 -4 5 25.5 6
-2 3 -5 82.79 8.6
-2 2 -5 69.19 8.9
-2 1 -5 153.38 10.6
2 -1 5 171.18 11.8
-2 0 -5 98.89 8
2 0 5 98.79 8.4
-2 -1 -5 167.08 10.5
2 1 5 174.38 10.9
-2 -2 -5 64.39 6.5
2 2 5 56.59 6.1
-2 -3 -5 91.79 8.3
2 3 5 78.29 9.8
2 3 5 73.49 6.9
-2 -4 -5 15.4 5
2 4 5 24.3 4.9
-2 -5 -5 26 5.9
2 5 5 13.1 4.3
2 6 5 2.8 4.1
2 -5 6 122.89 11.4
-2 2 -6 -3.7 5.3
-2 1 -6 541.55 22.2
2 0 6 5.2 3.2
-2 -1 -6 599.24 22.7
2 1 6 576.44 22.5
-2 -2 -6 1.3 2.5
2 2 6 -1.7 1.8
-2 -3 -6 315.47 16.7
2 3 6 299.87 15.4
2 4 6 2.8 3.1
-2 -5 -6 107.79 12.3
2 5 6 139.99 10.2
2 -5 7 123.49 11.5
2 0 7 323.77 19
-2 -1 -7 628.74 25.3
2 1 7 633.04 26.3
-2 -2 -7 233.78 15.5
2 2 7 258.27 15.3
-2 -3 -7 360.56 19.1
2 3 7 406.86 19.6
-2 -4 -7 111.09 12.2
2 4 7 128.19 10.3
2 5 7 165.18 12.3
2 1 8 6.8 4.4
2 2 8 15.7 5.5
2 3 8 10.7 4.2
2 4 8 8.8 5.4
2 2 9 16.6 6.1
-3 -1 9 1.8 7.5
3 -3 -8 71.39 7.7
3 -2 -8 7 4
3 -1 -8 100.19 9.1
-3 0 8 8.9 5.9
-3 -1 8 104.19 11.6
-3 -2 8 5.4 4.2
3 -4 -7 8.9 3.4
3 -3 -7 36.1 5.6
3 -2 -7 21.3 5
-3 1 7 66.99 10.3
3 -1 -7 60.29 8.4
-3 0 7 26.2 7.6
3 0 -7 36.7 7
-3 -1 7 58.39 7.9
-3 -2 7 22.9 4.7
3 -4 -6 15.4 3.1
3 -3 -6 48.7 5.8
-3 2 6 34 8.5
3 -2 -6 40 4.7
-3 1 6 105.39 11.5
3 -1 -6 87.99 7.3
-3 0 6 51.99 9.3
3 0 -6 70.49 7
-3 -1 6 97.09 8.8
3 1 -6 69.49 14.5
-3 -2 6 39.1 4.5
3 2 -6 34.7 6.9
3 -4 -5 0.2 1.5
-3 3 5 0 4
3 -3 -5 1.6 1.7
-3 2 5 -1.4 2.6
-3 1 5 6.3 3.4
3 -1 -5 3.6 2.2
-3 0 5 3.5 2.5
3 0 -5 0.9 1.9
-3 -1 5 -0.1 1.4
3 1 -5 1.8 2.6
-3 -2 5 -0.5 1.2
3 2 -5 -0.9 2.3
-3 6 4 11.5 1.9
-3 5 4 0.4 1.1
-3 4 4 56.69 3.3
-3 4 4 33.2 11.9
-3 3 4 7.7 4.3
3 -3 -4 2.5 1.4
-3 2 4 179.88 14.3
3 -2 -4 191.58 7.5
-3 1 4 2.9 2.5
3 -1 -4 4.3 1.4
-3 0 4 335.97 15.3
3 0 -4 355.96 14.8
-3 -1 4 4 1.7
-3 -2 4 189.58 5.3
-3 7 3 0.2 2.3
-3 7 3 -2.9 3.5
-3 6 3 2.1 1.7
-3 5 3 2.4 1.1
3 -5 -3 0.3 3.2
-3 4 3 23.1 2
-3 4 3 21.1 6.4
3 -4 -3 26.5 6.8
-3 3 3 3.6 0.8
-3 3 3 6 3.5
3 -3 -3 2.9 2.6
-3 2 3 174.68 13.3
3 -2 -3 178.68 5.6
3 -2 -3 169.48 11.9
-3 1 3 8.7 3
3 -1 -3 15.1 3.5
3 -1 -3 14.8 1.9
-3 0 3 373.16 14.6
-3 -1 3 12.2 2.4
-3 7 2 5.8 3.2
-3 7 2 4.7 3.7
-3 6 2 6.6 2.8
3 -6 -2 6.4 4.8
-3 5 2 37.4 3.8
-3 5 2 28.7 9.3
3 -5 -2 22.8 7.3
-3 4 2 30.2 7.8
-3 4 2 29.8 2.8
3 -4 -2 27.3 7.1
-3 3 2 157.58 4.3
-3 3 2 187.48 14.4
3 -3 -2 163.38 12.6
-3 2 2 50.79 6.6
3 -2 -2 65.19 7.3
-3 1 2 434.36 17.3
3 -1 -2 419.16 8.7
3 -1 -2 410.86 16.2
-3 0 2 15.5 3.1
3 0 -2 17.2 3.1
3 1 -2 398.96 8.7
3 5 -2 29.8 7.8
3 6 -2 11 5.2
3 7 -2 0.6 4.6
-3 7 1 71.89 7.7
-3 7 1 63.39 7.9
3 -7 -1 82.69 11.7
-3 6 1 5.4 2.9
3 -6 -1 -0.2 4.7
-3 5 1 286.27 12.8
-3 5 1 288.07 21.7
3 -5 -1 277.87 19.2
-3 4 1 4.5 4
-3 4 1 5.1 2
3 -4 -1 6.9 4
-3 3 1 1153.08 22.1
-3 3 1 1202.38 37.7
3 -3 -1 1224.68 36.3
-3 2 1 13.8 3.9
-3 2 1 12.6 1.1
-3 2 1 12.6 0.9
3 -2 -1 16.2 4.2
-3 1 1 4689.73 76.19
3 -1 -1 4581.04 75.29
3 0 -1 31.9 3.3
3 0 -1 37 3
3 3 -1 1208.78 33.8
3 3 -1 1188.48 25.8
3 4 -1 5.8 2.4
3 4 -1 2.4 2.5
3 5 -1 318.87 19.4
3 5 -1 280.47 15.9
3 6 -1 -6.7 4.2
3 6 -1 -0.3 4.2
3 7 -1 82.89 11.2
3 7 -1 50.09 10.5
-3 7 0 -2.8 5.2
-3 7 0 -9.4 3.3
3 -7 0 -0.7 5.5
-3 6 0 -1.5 2.6
-3 6 0 5.5 3.9
3 -6 0 3 4
3 -5 0 -1.8 2.2
-3 4 0 -2 2.1
3 -4 0 0.1 2
-3 3 0 -0.5 1
-3 3 0 0.2 1.8
3 -3 0 -2.1 1.4
-3 2 0 1 0.6
3 -2 0 -1.1 0.8
-3 1 0 0.2 0.5
3 -1 0 -0.1 0.5
-3 0 0 -0.2 0.5
3 0 0 0.4 0.6
3 3 0 0.9 1.3
3 4 0 1.1 1.9
3 4 0 -0.4 1.7
3 5 0 -3.8 2
3 5 0 1 2.6
3 6 0 3.8 3.8
3 6 0 1.9 3.9
3 7 0 16 7.6
3 7 0 1.8 4.4
-3 7 -1 48.2 9.6
3 -7 1 75.89 12.9
-3 6 -1 -4.2 3.3
3 -6 1 -1.6 3.8
-3 5 -1 284.77 14.8
3 -5 1 283.67 18.8
-3 4 -1 7.4 2.7
3 -4 1 3.4 2.6
-3 3 -1 1298.67 28.4
3 -3 1 1272.87 36.7
-3 2 -1 17.2 2.9
-3 1 -1 4848.61 68.79
3 -1 1 4781.42 68.89
-3 0 -1 46.4 3.5
3 0 1 37.7 3.2
-3 -1 -1 4784.32 71.69
3 1 1 4661.83 70.19
-3 -2 -1 7.9 2.6
3 2 1 10.9 2.8
-3 -3 -1 1266.97 33.2
3 3 1 1263.47 32.3
3 3 1 1212.58 31.2
3 4 1 7.7 3.7
3 4 1 5.8 2.7
3 5 1 268.77 17.7
3 5 1 266.27 16.1
3 6 1 -1.2 4.1
3 6 1 -2.5 2.7
3 7 1 70.99 11
3 -7 2 13.2 6.5
-3 6 -2 19.6 5.4
3 -6 2 -0.1 3.8
-3 5 -2 40.7 7.4
3 -5 2 24 6.7
-3 4 -2 37.2 6.1
3 -4 2 32.2 6.8
-3 3 -2 173.78 9.8
3 -3 2 169.08 12.5
-3 2 -2 51.19 6.1
-3 1 -2 432.56 13.5
3 -1 2 433.86 13.9
-3 0 -2 16.7 3
3 0 2 17.9 2.9
-3 -1 -2 426.46 14
3 1 2 412.96 13.3
-3 -2 -2 70.79 6
3 2 2 52.19 4.9
-3 -3 -2 173.08 11.2
3 3 2 146.79 11.7
-3 -4 -2 39 7.1
3 4 2 32.5 5.6
3 4 2 32.6 7.2
3 5 2 19.3 6.7
3 5 2 27.3 5.3
3 6 2 10.4 4.2
3 7 2 -1.6 4.7
3 -7 3 -7.9 4.6
3 -6 3 -3.3 2.9
-3 5 -3 3.9 3.5
3 -5 3 -2.7 2.9
-3 4 -3 29.7 5.6
3 -4 3 21.8 5.7
-3 3 -3 1.6 2.1
-3 2 -3 173.98 10
-3 1 -3 13.9 3.1
3 -1 3 13.6 3.2
-3 0 -3 391.76 14.1
3 0 3 393.36 14.2
-3 -1 -3 23.4 4
3 1 3 11.5 2.7
-3 -2 -3 177.28 10.1
3 2 3 171.68 9.5
-3 -3 -3 3.1 2.2
3 3 3 2.3 1.5
-3 -4 -3 24.1 5.3
3 4 3 14.1 7.4
3 4 3 31.8 5.4
3 5 3 1.1 1.9
3 6 3 -3.3 3.1
3 7 3 -0.5 3.9
3 -6 4 7.4 5.2
3 -5 4 -3.8 3
-3 4 -4 59.29 8.7
3 -4 4 48 7.4
-3 3 -4 -1.9 1.8
-3 2 -4 183.68 11.3
-3 1 -4 -0.5 1.7
3 -1 4 1.8 1.7
-3 0 -4 352.56 14.8
3 0 4 378.86 15.7
-3 -1 -4 7.6 2.6
3 1 4 2.8 1.7
-3 -2 -4 185.78 11.3
3 2 4 187.48 10.4
-3 -3 -4 1.1 2.2
3 3 4 1.3 2
-3 -4 -4 52.49 8.5
3 4 4 52.09 10
3 4 4 50.99 6
-3 -5 -4 -2.1 4.6
3 5 4 1.4 2.5
3 6 4 9.6 4.1
3 -6 5 0.5 4.6
3 -5 5 9.3 4.1
-3 3 -5 3.5 3
-3 2 -5 2.3 2.2
-3 1 -5 3.3 2.8
3 -1 5 4.7 3
-3 0 -5 3.6 2.3
3 0 5 1.5 1.7
-3 -1 -5 5.2 2.3
3 1 5 2.3 2.1
-3 -2 -5 2.4 2.4
3 2 5 1.8 1.9
-3 -3 -5 1.8 3
3 3 5 1.9 4
3 3 5 0.6 1.7
-3 -4 -5 0.4 3.8
3 4 5 10.4 3.1
-3 -5 -5 -0.1 3.9
3 5 5 5.6 3
3 6 5 3.9 3.8
3 -5 6 30.4 7
-3 1 -6 87.09 9.2
3 -1 6 98.09 9.9
-3 0 -6 62.09 7.2
3 0 6 61.59 7.8
-3 -1 -6 98.69 9.9
3 1 6 104.69 9.4
-3 -2 -6 35 8.2
3 2 6 41.6 7.1
-3 -3 -6 48.8 8.2
3 3 6 47.4 7.2
-3 -4 -6 6.4 5.2
3 4 6 16.6 4.3
3 5 6 27.1 5.7
3 -5 7 16.4 6.5
3 1 7 82.59 9.4
3 2 7 27.8 6.2
3 3 7 47.8 7.8
3 4 7 1.8 7.6
3 5 7 29.3 6.5
3 0 8 -2 3.3
3 1 8 126.09 12.9
3 2 8 -1.1 3.3
3 3 8 65.39 10.1
3 1 9 5.3 5.1
4 -3 -8 99.19 8.2
4 -2 -8 40 6.5
4 -1 -8 126.39 10.5
-4 0 8 37.8 10
-4 -1 8 107.99 11.9
4 -4 -7 35.8 4.4
4 -3 -7 107.59 7.7
4 -2 -7 101.79 7.9
-4 1 7 218.88 18.3
4 -1 -7 229.18 12.7
-4 0 7 126.99 13.3
4 0 -7 139.09 10.4
-4 -1 7 210.58 14.3
-4 -2 7 94.19 7.7
4 -4 -6 2.8 1.4
4 -3 -6 0.9 1.9
-4 2 6 0.3 4.1
4 -2 -6 0.8 2.1
-4 1 6 5.9 3.9
4 -1 -6 4.3 2.2
-4 0 6 6.9 4.2
4 0 -6 7 3
-4 -1 6 -2.2 2.4
-4 -2 6 -0.9 1.8
4 2 -6 3.6 3.9
-4 3 5 146.29 15.1
4 -3 -5 130.99 6.2
-4 2 5 103.19 11.9
4 -2 -5 113.69 6.3
-4 1 5 316.17 19.2
4 -1 -5 338.47 12.6
-4 0 5 171.18 12.1
4 0 -5 157.48 9.7
-4 -1 5 331.87 14.7
4 1 -5 327.67 15.9
-4 -2 5 106.49 5.4
4 -4 -4 320.37 20.9
-4 3 4 276.77 26.4
4 -3 -4 315.97 19.3
-4 2 4 890.41 34.1
4 -2 -4 867.41 30.6
4 -2 -4 885.71 17.5
-4 1 4 855.71 30.1
4 -1 -4 865.51 27.2
4 -1 -4 887.91 20.1
-4 0 4 1304.17 34.3
4 0 -4 1337.37 30.3
-4 -1 4 885.51 22.9
4 -6 -3 76.79 11.3
4 -5 -3 -0.6 3.7
-4 4 3 184.08 17
4 -4 -3 177.88 15.3
-4 3 3 0.8 2.9
4 -3 -3 1.4 2.3
-4 2 3 519.35 24.3
4 -2 -3 493.75 21.9
4 -2 -3 518.55 9.1
-4 1 3 0.9 1.7
4 -1 -3 0.5 0.8
4 -1 -3 -1.6 1
-4 0 3 992.1 26.9
4 0 -3 996.3 24.8
4 6 -3 51.49 11.3
4 7 -3 -9.6 5.5
-4 7 2 2.9 2.4
4 -7 -2 -0.7 6.3
-4 6 2 1.1 1.7
-4 6 2 4.1 2.2
4 -6 -2 3 4.2
-4 5 2 10.5 1.9
-4 5 2 11.1 2.2
4 -5 -2 8.4 4.8
-4 4 2 13.9 1.4
-4 4 2 19.6 6.6
-4 4 2 20.2 1.6
4 -4 -2 23.7 6.6
-4 3 2 65.99 8.8
4 -3 -2 64.29 8.2
-4 2 2 98.99 9.7
4 -2 -2 81.19 9.1
-4 1 2 167.78 11.2
4 -1 -2 159.98 10.4
4 -1 -2 166.28 5.8
-4 0 2 212.58 10.6
4 0 -2 224.48 10.3
4 1 -2 163.08 6.7
4 3 -2 63.39 3.1
4 4 -2 21 3
4 5 -2 10.8 4.7
4 6 -2 9 5.1
4 7 -2 5.1 6
-4 7 1 7.2 4.2
-4 7 1 -0.3 3.2
4 -7 -1 1.1 5.3
-4 6 1 -1.4 2.9
4 -6 -1 -2.3 3.5
-4 5 1 1.5 4.7
-4 5 1 10.5 2.6
-4 5 1 5.5 2.2
4 -5 -1 -4.9 2.3
-4 4 1 4.5 3.8
-4 4 1 -0.7 1
-4 4 1 0.7 1
4 -4 -1 1.8 2.4
-4 3 1 51.09 2.8
-4 3 1 49.99 7.3
4 -3 -1 59.29 7.7
-4 2 1 0.1 1
-4 2 1 0.5 0.3
4 -2 -1 -1.5 1.2
-4 1 1 150.08 5
4 -1 -1 149.29 4.5
4 -1 -1 150.28 9.8
4 0 -1 26.6 2.9
4 1 -1 152.28 8.5
4 2 -1 2.2 1.2
4 3 -1 44.9 4.1
4 3 -1 51.19 6.5
4 4 -1 0.9 1.5
4 4 -1 4.4 2.3
4 5 -1 11.9 4.5
4 5 -1 10.6 3.7
4 6 -1 -4 3.6
4 6 -1 3.6 4.7
4 7 -1 15.9 6.1
4 7 -1 -4.3 4
-4 7 0 39.9 7
-4 7 0 33.7 7.6
4 -7 0 20.6 7.9
-4 6 0 7.3 3.4
-4 6 0 10.1 3.6
4 -6 0 -0.4 6.4
-4 5 0 147.69 9
4 -5 0 137.49 13.8
-4 4 0 15.5 2.8
4 -4 0 13.4 5.4
-4 3 0 695.63 16.4
4 -3 0 680.13 27.6
-4 2 0 15.4 1.8
4 -2 0 16.3 4.2
-4 1 0 1337.67 23
4 -1 0 1277.57 22.1
-4 0 0 10.5 2.1
4 0 0 7.6 1.8
-4 -1 0 1235.78 28.1
4 1 0 1264.67 27.6
4 2 0 16.2 3.6
4 3 0 689.33 24.1
4 4 0 11.2 3.6
4 4 0 3.2 2.5
4 5 0 142.89 11.7
4 5 0 117.99 11.8
4 6 0 12 5.5
4 7 0 35 10
-4 7 -1 -1.5 5
-4 7 -1 8.5 5.1
4 -7 1 2.3 4.5
-4 6 -1 1.5 4
4 -6 1 0.2 4.1
-4 5 -1 7.5 2.7
4 -5 1 7.1 4.2
-4 4 -1 0.6 1.3
4 -4 1 0.4 1.9
-4 3 -1 45.6 4.6
4 -3 1 51.09 7.1
-4 2 -1 0.4 0.7
4 -2 1 1.8 1
-4 1 -1 171.58 7.3
4 -1 1 163.78 7.1
-4 0 -1 24.7 2.9
4 0 1 29.7 3.1
-4 -1 -1 155.48 8.5
4 1 1 155.18 8.1
-4 -2 -1 2 1.3
4 2 1 -0.4 0.7
-4 -3 -1 48.9 6.2
4 3 1 54.59 6
4 4 1 0.3 1.4
4 4 1 -1.2 1.6
4 5 1 4.6 3.2
4 5 1 9.2 4.7
4 6 1 2.1 4.7
4 6 1 0 3.1
4 7 1 0.4 4
4 -7 2 -3.4 4.8
-4 6 -2 3.4 4.9
4 -6 2 2.1 3.9
-4 5 -2 7.3 3.7
4 -5 2 7 4.3
-4 4 -2 22.4 4.4
4 -4 2 13.3 5.2
-4 3 -2 69.79 6
4 -3 2 75.39 8.6
-4 2 -2 98.09 6.7
4 -2 2 111.19 7.7
-4 1 -2 165.08 8.3
4 -1 2 174.18 8.6
-4 0 -2 231.08 10.1
4 0 2 222.18 9.6
-4 -1 -2 167.78 9.2
4 1 2 172.68 8.9
-4 -2 -2 111.99 8.2
4 2 2 91.09 7
-4 -3 -2 56.59 6.7
4 3 2 76.29 6.9
-4 -4 -2 16.2 5
4 4 2 23.1 5.3
4 4 2 19.1 5
4 5 2 4.3 3.8
4 5 2 1.8 2.8
4 6 2 4.3 4
4 7 2 2 4.2
4 -7 3 3.4 6.9
4 -6 3 69.59 10.5
-4 5 -3 10.3 4.2
4 -5 3 -1.2 4.2
-4 4 -3 181.78 12
4 -4 3 189.28 15.2
-4 3 -3 1.3 2
-4 2 -3 501.05 17.9
4 -2 3 530.85 19.8
-4 1 -3 0.1 0.8
4 -1 3 -0.7 0.7
-4 0 -3 1046 26.4
4 0 3 976.9 32
-4 -1 -3 1 1.3
4 1 3 -0.5 1
-4 -2 -3 508.85 19.2
4 2 3 531.85 18.2
-4 -3 -3 2.9 2.2
4 3 3 1.4 1.7
-4 -4 -3 163.48 13.1
4 4 3 169.28 14.5
4 4 3 179.28 11.7
-4 -5 -3 16.8 5.3
4 6 3 65.69 8.2
4 7 3 -1.7 4.5
4 -6 4 86.29 11.7
4 -5 4 71.99 10.2
-4 4 -4 310.17 16.9
4 -4 4 314.67 20.2
-4 3 -4 342.77 16.9
-4 2 -4 898.41 27.4
4 -2 4 913.41 29.2
-4 1 -4 860.91 25.9
4 -1 4 915.01 27.4
-4 0 -4 1313.97 32.9
4 0 4 1398.36 33.9
-4 -1 -4 925.61 27
4 1 4 940.11 26.5
-4 -2 -4 860.91 27
4 2 4 903.21 26
-4 -3 -4 318.97 16.8
4 3 4 319.47 15.2
-4 -4 -4 317.77 18.7
4 4 4 326.57 16
4 4 4 319.87 26.4
-4 -5 -4 83.49 9.7
4 5 4 91.79 8.9
4 -6 5 13.3 6.4
4 -5 5 40.9 9
-4 3 -5 140.59 11.4
-4 2 -5 103.99 9.4
4 -2 5 105.79 10
-4 1 -5 336.47 16.4
4 -1 5 322.27 17.3
-4 0 -5 168.68 11.3
4 0 5 182.48 12
-4 -1 -5 316.17 16.1
4 1 5 331.67 16
-4 -2 -5 108.39 9.4
4 2 5 112.79 9.3
-4 -3 -5 113.39 11
4 3 5 151.88 10.7
-4 -4 -5 33.5 7.8
4 4 5 36.5 6.9
-4 -5 -5 33.2 9.5
4 5 5 48.2 8.1
4 6 5 11.1 4.2
4 -5 6 -4.7 4.8
-4 1 -6 10.3 4.1
4 -1 6 1.7 3.3
-4 0 -6 0.9 2.9
4 0 6 5 3.1
-4 -1 -6 3.8 2.5
4 1 6 1.5 2.1
-4 -2 -6 1.2 3.5
4 2 6 5 2.8
-4 -3 -6 -3.4 3
4 3 6 3 2.6
4 4 6 -1.1 2.5
4 5 6 -2.3 3
4 -1 7 203.88 15.9
4 0 7 136.99 12.8
4 1 7 202.48 15.6
4 2 7 106.79 11.4
4 3 7 135.89 11.4
4 4 7 29.8 7
4 0 8 68.99 11.5
4 1 8 97.19 11.5
4 2 8 43.9 8.4
4 3 8 71.99 10.7
4 1 9 5.2 5.1
5 -3 -8 -6.8 2.5
5 -2 -8 6.9 4.4
5 -1 -8 10.8 4.3
-5 0 8 6.8 7.3
-5 -1 8 4.9 4.6
-5 -2 8 5.7 3.6
5 -2 -7 8.5 3
-5 1 7 13.7 7
5 -1 -7 6.9 3.2
-5 0 7 8.6 5.4
5 0 -7 7.3 4.7
5 -3 -6 111.29 5.9
-5 2 6 139.89 15.3
5 -2 -6 140.69 8.4
-5 1 6 193.78 16.6
5 -1 -6 202.58 10.5
-5 0 6 208.68 15.2
5 0 -6 200.28 12.2
5 1 -6 169.68 13.3
5 2 -6 151.38 25.2
-5 3 5 78.09 16.8
5 -3 -5 83.79 3.3
-5 2 5 156.78 15.6
5 -2 -5 169.08 7.3
-5 1 5 190.08 15.4
5 -1 -5 195.28 9.5
-5 0 5 220.68 14.3
5 0 -5 218.48 11.6
-5 -1 5 193.48 11.3
5 -5 -4 3.4 4.6
5 -4 -4 7.7 6.6
-5 3 4 23.7 6.9
5 -3 -4 23.8 6.5
-5 2 4 20.7 6.1
5 -2 -4 27.4 2.3
5 -2 -4 22.2 6.3
-5 1 4 31.9 7.1
5 -1 -4 33 3.4
5 -1 -4 29.3 5.9
-5 0 4 59.89 6.7
5 0 -4 45.2 5.1
-5 -1 4 28.6 3.9
5 6 -4 1.6 5.5
5 -6 -3 16.4 7.9
5 -5 -3 18.5 6.1
-5 4 3 25.4 7.7
5 -4 -3 13.5 5.5
-5 3 3 93.99 11.6
5 -3 -3 119.99 11.9
-5 2 3 37.6 7.8
5 -2 -3 34.6 7.3
-5 1 3 285.77 16.4
5 -1 -3 283.77 15.3
-5 0 3 44.1 5.4
5 0 -3 53.49 5.5
5 1 -3 270.57 10.1
5 5 -3 12.1 4.9
5 6 -3 6.2 6.2
5 7 -3 2.8 7.5
-5 7 2 0.5 1.9
-5 7 2 1.9 1.9
5 -7 -2 -9.8 4.7
-5 6 2 13.6 2.2
-5 6 2 13.2 2.1
5 -6 -2 7.6 4.8
-5 5 2 0.4 0.7
-5 5 2 3.9 0.8
-5 4 2 83.19 10.9
5 -4 -2 78.89 10.2
-5 3 2 16.7 5.2
5 -3 -2 17.2 4.8
-5 2 2 384.26 20.6
5 -2 -2 394.76 19.9
-5 1 2 53.29 7.1
5 -1 -2 41.3 5.5
5 -1 -2 53.39 3.5
5 0 -2 908.31 22.4
5 0 -2 916.41 25.1
5 1 -2 52.29 4.4
5 1 -2 54.69 5.6
5 3 -2 17.3 1.9
5 3 -2 21.5 5.5
5 4 -2 81.79 5.3
5 4 -2 86.79 10.2
5 5 -2 6.7 2.5
5 6 -2 17.6 7.1
5 7 -2 8 4.5
-5 7 1 -1.2 3.5
-5 7 1 22 4.8
5 -7 -1 0.2 4.9
-5 6 1 -0.6 2.4
5 -6 -1 -1.3 3.7
-5 5 1 50.09 4.3
5 -5 -1 53.59 10.8
-5 4 1 1.9 3.3
-5 4 1 -0.5 1
-5 4 1 0.6 1
-5 3 1 259.47 6.6
-5 3 1 277.37 18.3
5 -3 -1 257.87 17.3
-5 2 1 4.1 1
5 -2 -1 3.3 2.9
-5 1 1 968.2 18.8
5 -1 -1 918.31 17.2
5 -1 -1 961.5 29.1
-5 0 1 27.2 3.3
5 0 -1 31.5 3.3
5 1 -1 992.5 25.9
5 2 -1 4.7 2.7
5 3 -1 265.37 15.7
5 4 -1 -0.8 1.5
5 4 -1 1 1.7
5 5 -1 64.39 7.4
5 5 -1 46.7 9.3
5 6 -1 12.9 4.5
5 6 -1 8.5 5
5 7 -1 6.8 6.1
5 7 -1 9.7 6.5
-5 7 0 2.7 3.9
-5 7 0 7.4 4.9
5 -7 0 -0.4 5.8
-5 6 0 -0.1 2.6
-5 6 0 -0.8 3.3
5 -6 0 -1.8 3.1
5 -5 0 -0.2 3
-5 4 0 1.5 1.3
5 -4 0 -1.8 1.9
-5 3 0 0.1 0.7
5 -3 0 0.8 2
-5 2 0 0.9 0.7
5 -2 0 -2.9 1.4
5 -2 0 3.5 1.2
-5 1 0 0.5 0.8
5 -1 0 -0.4 0.6
5 0 0 11.1 2.3
-5 -1 0 -1.7 0.9
5 1 0 1.3 1
-5 -2 0 -1.5 1.4
5 2 0 -0.9 1
5 4 0 0.3 1.8
5 4 0 0.8 2.1
5 5 0 4.3 3.1
5 5 0 2.1 3.4
5 6 0 -7.3 3.6
5 6 0 2.2 3.9
5 7 0 8.3 5.1
5 7 0 -10.7 5.9
-5 7 -1 29.8 7.3
5 -7 1 31.9 8.7
-5 6 -1 6.7 3.6
5 -6 1 -2.8 5.4
-5 5 -1 57.79 6.5
5 -5 1 72.49 10.9
-5 4 -1 4.3 1.7
5 -4 1 -0.2 2.7
-5 3 -1 283.17 11.1
5 -3 1 264.07 17.7
-5 2 -1 1.9 1.1
5 -2 1 3.2 1.6
-5 1 -1 997.5 22.3
5 -1 1 1026.9 22.3
-5 0 -1 26 3.2
5 0 1 30.4 3.4
-5 -1 -1 955.8 25.1
5 1 1 953.2 24
-5 -2 -1 4.3 2.5
-5 -3 -1 264.07 15
5 3 1 265.27 14.4
5 4 1 2.1 2.2
5 5 1 63.99 8.5
5 5 1 66.49 9.9
5 6 1 -5.1 4
5 6 1 -2.1 2.8
5 7 1 6.1 5.9
5 -7 2 -0.9 6.3
-5 6 -2 11.1 5.2
5 -6 2 -3.4 2.9
-5 5 -2 1.4 2.6
5 -5 2 -2.4 3.5
-5 4 -2 84.19 7.4
5 -4 2 71.09 10.1
-5 3 -2 23.1 4.3
-5 2 -2 407.06 14.7
5 -2 2 404.46 15.2
-5 1 -2 64.99 5.9
5 -1 2 59.49 5.3
-5 0 -2 952.5 25.9
5 0 2 943.01 23.4
-5 -1 -2 49.99 5.2
5 1 2 55.49 5.4
-5 -2 -2 420.56 17.6
5 2 2 380.56 15.6
-5 -3 -2 23.7 5.6
5 3 2 15.4 3.7
-5 -4 -2 86.29 9.2
5 4 2 73.99 7.9
5 4 2 84.29 9.5
5 5 2 1.3 3.2
5 5 2 -4.8 3.8
5 6 2 13.1 4.5
5 7 2 0.2 4.2
5 -7 3 3.1 6.6
5 -6 3 5.8 5.2
-5 5 -3 15.3 5.9
5 -5 3 12.8 6.3
-5 4 -3 10.7 3.4
5 -4 3 15.3 5.9
-5 3 -3 103.49 8.1
-5 2 -3 30.3 5.2
5 -2 3 33.3 5.5
-5 1 -3 272.87 12.8
5 -1 3 271.97 13
-5 0 -3 58.49 5.9
5 0 3 49.4 5.3
-5 -1 -3 283.57 13.6
5 1 3 282.07 13
-5 -2 -3 33.7 6.2
5 2 3 33.1 5.5
-5 -3 -3 103.09 9.7
5 3 3 105.89 8.7
-5 -4 -3 6.6 3.8
5 4 3 23.6 5.6
5 4 3 16.3 5.6
-5 -5 -3 9.6 4.6
5 5 3 11 4.3
5 6 3 7.5 3.9
5 7 3 4.9 4.6
5 -6 4 -1 5.5
5 -5 4 8.7 6
-5 4 -4 7.4 4
-5 3 -4 16.8 5.2
-5 2 -4 31 5.7
5 -2 4 27.5 5.8
-5 1 -4 28.9 5.4
5 -1 4 25 5
-5 0 -4 59.89 6.5
5 0 4 65.09 6.6
-5 -1 -4 33.6 6.1
5 1 4 30.4 5.5
-5 -2 -4 29.7 6.2
5 2 4 23.5 4.9
-5 -3 -4 16.6 4.7
5 3 4 27 5.4
-5 -4 -4 7.9 4
5 4 4 1.6 2.4
5 5 4 14.5 5.1
5 6 4 8 4.8
5 -6 5 18.4 8.6
5 -5 5 27.8 8.9
-5 2 -5 164.88 11.8
5 -2 5 171.78 13.3
-5 1 -5 197.38 12.5
5 -1 5 177.98 12.7
-5 0 -5 203.88 13.3
5 0 5 213.48 13.4
-5 -1 -5 196.48 13
5 1 5 183.98 12.2
5 2 5 164.68 11.4
-5 -3 -5 99.79 10.6
5 3 5 81.39 8.3
-5 -4 -5 62.69 10.1
5 4 5 87.99 8.8
5 5 5 27.7 6.4
5 6 5 16.9 5.2
5 -5 6 39.2 10.2
5 -2 6 153.28 13.3
5 -1 6 186.08 14.2
-5 0 -6 206.48 14.4
5 0 6 203.08 14.3
-5 -1 -6 176.48 13.4
5 1 6 189.88 13.3
-5 -2 -6 138.59 12.3
5 2 6 149.29 11.6
5 3 6 109.49 10
5 4 6 86.69 8.5
5 5 6 43.5 8.2
5 -1 7 0.3 3.8
5 0 7 8.4 4.5
5 1 7 0.1 2.9
5 2 7 7.9 3.8
5 3 7 -5.9 2.8
5 4 7 2 3.7
5 -1 8 -8 4.2
5 0 8 12.4 5.7
5 1 8 2.3 4.1
5 2 8 11.4 4.8
5 3 8 3.6 4.7
6 -3 -8 6.6 5.1
6 -2 -8 3.9 4
6 -1 -8 -7.8 3.6
-6 -1 8 -0.6 4.8
6 -3 -7 10.4 2.6
6 -2 -7 33.6 4.9
-6 1 7 1.9 5.9
6 -1 -7 9 4
-6 0 7 60.39 10.8
6 0 -7 45.7 7.5
-6 -1 7 9 4.9
6 -3 -6 236.88 6.7
-6 2 6 6.7 5
-6 1 6 384.16 23.4
6 -1 -6 378.96 15.1
-6 0 6 1.7 3.3
6 0 -6 2.7 2.6
-6 -1 6 443.56 29.5
6 1 -6 401.36 19.5
6 -4 -5 118.19 13.7
6 -3 -5 30.6 7.6
-6 2 5 254.07 20.2
6 -2 -5 259.37 17.5
6 -2 -5 261.17 8.7
-6 1 5 62.59 8.6
6 -1 -5 56.69 5.2
6 -1 -5 62.49 7.6
-6 0 5 341.67 18.9
6 0 -5 351.36 15.4
6 6 -5 40.7 11.2
6 -6 -4 37.3 10.8
6 -5 -4 25.3 6.8
6 -4 -4 125.89 14
-6 3 4 38 10.3
6 -3 -4 44.3 9.4
-6 2 4 323.57 21.3
6 -2 -4 316.07 7.7
6 -2 -4 320.97 9
6 -2 -4 334.57 19.3
-6 1 4 38.8 7.9
6 -1 -4 42.6 6.1
6 -1 -4 38.4 3.7
-6 0 4 509.95 21.9
6 0 -4 532.95 19.7
6 5 -4 35.9 9.7
6 6 -4 32.6 9.9
6 -6 -3 72.19 14.7
6 -5 -3 0.8 4.5
6 -4 -3 253.67 19.8
-6 3 3 54.79 11.5
6 -3 -3 34.3 7.9
-6 2 3 730.73 31.5
6 -2 -3 762.72 30.2
-6 1 3 63.89 8
6 -1 -3 46.9 4.1
6 -1 -3 52.99 6.7
6 0 -3 999.6 27.9
6 1 -3 44.4 4.5
6 2 -3 714.03 13
6 4 -3 262.57 19.5
6 5 -3 8.3 5
6 6 -3 38.4 10.9
6 -7 -2 2.9 8
6 -6 -2 33.1 9.6
6 -5 -2 14.7 6.5
-6 4 2 190.28 17.9
6 -4 -2 211.48 17.5
-6 3 2 53.49 10.4
6 -3 -2 73.09 9.4
-6 2 2 829.52 32.3
6 -2 -2 811.82 30.7
6 -1 -2 217.38 13.9
6 -1 -2 200.38 7.6
6 0 -2 1523.65 32.5
6 0 -2 1468.55 36
6 1 -2 197.18 10.1
6 1 -2 214.98 12
6 2 -2 855.51 28.8
6 3 -2 67.79 8.7
6 3 -2 64.39 3.9
6 4 -2 177.08 14.9
6 4 -2 211.38 8.7
6 5 -2 16.3 3.4
6 5 -2 10.8 5.4
6 6 -2 36.7 9.1
6 7 -2 17.9 7.8
-6 7 1 -0.9 3
6 -7 -1 6.7 5
-6 6 1 46.5 4.8
-6 6 1 37.6 3.9
6 -6 -1 36.2 10.4
-6 5 1 36.1 3.2
-6 5 1 34.2 3.9
6 -5 -1 60.39 12
-6 4 1 183.28 6.1
6 -4 -1 173.58 15.8
-6 3 1 223.58 6.2
6 -3 -1 223.68 17
-6 2 1 583.94 12.6
6 -2 -1 575.34 25.4
6 -2 -1 581.04 11.8
-6 1 1 869.31 19.5
6 -1 -1 860.41 17.9
6 -1 -1 901.51 29.8
-6 0 1 869.61 22.4
6 0 -1 888.91 21.7
6 1 -1 893.51 25.3
6 2 -1 590.84 22.5
6 3 -1 277.17 16.5
6 4 -1 157.48 13.8
6 4 -1 173.88 9.9
6 5 -1 41.2 7
6 5 -1 31.1 9.4
6 6 -1 32.5 8.9
6 6 -1 38.8 8.1
6 7 -1 -6.9 5.6
6 7 -1 -4.2 4.4
-6 7 0 59.39 8.9
-6 7 0 54.99 7.9
6 -7 0 81.69 15.2
-6 6 0 4.7 2.9
6 -6 0 5.7 5.9
-6 5 0 278.07 11.4
6 -5 0 269.47 21.5
-6 4 0 17.6 3
6 -4 0 13.8 5.3
-6 3 0 1102.59 22.4
6 -3 0 1080.89 38.9
-6 2 0 113.79 5.9
6 -2 0 112.79 5.8
6 -2 0 114.09 11.1
-6 1 0 2630.74 43.9
6 -1 0 2596.54 42.2
-6 0 0 142.39 8.2
6 0 0 147.79 7.8
-6 -1 0 2577.34 54.49
6 1 0 2634.74 49.6
-6 -2 0 121.59 9.6
6 2 0 100.99 8.5
6 3 0 1131.69 34.3
6 4 0 20.3 5.8
6 4 0 12.1 3.9
6 5 0 275.97 18.6
6 5 0 287.77 17.2
6 6 0 0.7 3.8
6 6 0 -0.5 4
6 7 0 63.99 11.2
6 7 0 33.2 9.9
-6 7 -1 -7.5 5.4
6 -7 1 -0.2 6.6
-6 6 -1 33.8 6.5
6 -6 1 29.2 7.9
-6 5 -1 41.4 5.1
6 -5 1 51.79 10.8
-6 4 -1 183.88 10
6 -4 1 184.98 16.5
-6 3 -1 212.38 15.9
6 -3 1 260.47 18.5
-6 2 -1 590.84 16.7
6 -2 1 582.04 16.8
-6 1 -1 896.91 22.2
6 -1 1 916.21 21.7
-6 0 -1 954.6 24.3
6 0 1 888.31 22.6
-6 -1 -1 850.61 24.7
6 1 1 817.62 23
-6 -2 -1 581.74 22.5
6 2 1 593.14 21
-6 -3 -1 256.87 15.5
6 3 1 224.88 13.8
6 4 1 181.28 13.5
6 5 1 44.6 8
6 5 1 34.1 7.4
6 6 1 25.4 7.2
6 6 1 18 7.6
6 7 1 1.5 4.8
6 -7 2 6 8.6
-6 6 -2 27.1 6.2
6 -6 2 25.6 8.9
-6 5 -2 7.3 4.2
6 -5 2 9.8 5.5
-6 4 -2 212.98 11.8
6 -4 2 198.68 17.1
-6 3 -2 82.89 6.8
-6 2 -2 810.12 22.3
6 -2 2 807.22 23.2
-6 1 -2 233.88 11.1
6 -1 2 216.78 10.8
-6 0 -2 1516.65 33.6
6 0 2 1340.07 38.4
-6 -1 -2 205.48 11.8
6 1 2 225.88 11.6
-6 -2 -2 824.02 27.3
6 2 2 832.12 25.3
-6 -3 -2 67.69 8.1
6 3 2 72.09 7.4
-6 -4 -2 171.18 18.4
6 4 2 218.28 14.1
6 5 2 3.1 3.6
6 5 2 1.1 5.1
6 6 2 40.4 8.6
6 7 2 1.7 4.6
6 -6 3 66.89 13.6
-6 5 -3 10.4 4.6
6 -5 3 4.3 4
-6 4 -3 263.57 14.7
6 -4 3 266.07 20.4
-6 3 -3 42.8 5.3
-6 2 -3 743.53 23.3
6 -2 3 743.33 24.4
-6 1 -3 51.49 5.7
6 -1 3 50.09 5.6
-6 0 -3 1109.39 30
6 0 3 1095.79 28.7
-6 -1 -3 48.8 7.3
6 1 3 50.79 5.5
-6 -2 -3 782.22 27.4
6 2 3 751.42 24.5
-6 -3 -3 35.4 7.2
6 3 3 36.6 6.5
-6 -4 -3 257.67 17.8
6 4 3 234.98 14.5
6 5 3 12.5 4.3
6 6 3 77.69 9.4
6 -6 4 42.8 10.3
6 -5 4 24.2 7.8
-6 4 -4 139.79 11.5
-6 3 -4 52.29 7.9
-6 2 -4 328.27 16.2
6 -2 4 310.57 16.7
-6 1 -4 51.29 6.3
6 -1 4 49.99 6.3
-6 0 -4 559.44 21.6
6 0 4 555.24 21
-6 -1 -4 45.4 7.3
6 1 4 49 5.8
-6 -2 -4 320.77 17.6
6 2 4 323.97 16
-6 -3 -4 48.2 8.5
6 3 4 50.39 6.4
-6 -4 -4 120.19 12.3
6 4 4 120.69 10.5
6 5 4 34.2 6.6
6 6 4 29.9 7.7
6 -6 5 62.79 13.5
6 -5 5 11.9 7.3
-6 2 -5 274.57 15.9
6 -2 5 272.27 17.3
-6 1 -5 63.09 7.7
6 -1 5 40 7.3
-6 0 -5 347.27 17.5
6 0 5 343.27 17.6
-6 -1 -5 55.09 8.6
6 1 5 54.09 6.9
-6 -2 -5 273.07 16.3
6 2 5 255.97 14.9
-6 -3 -5 16.6 5.6
6 3 5 26.9 6
6 5 5 15.3 5.2
6 6 5 51.19 8.6
6 -5 6 100.59 20.5
6 -2 6 -1.2 3.1
6 -1 6 379.16 22.8
6 0 6 1.6 3
6 1 6 370.26 19.4
6 2 6 5.6 4.2
6 3 6 231.18 15.2
6 4 6 -2.4 2.8
6 5 6 107.19 10.8
6 -1 7 7.2 4.5
6 0 7 58.19 10.3
6 1 7 15.6 4.6
6 2 7 22 6.9
6 3 7 16.8 6.3
6 4 7 6.5 5
6 -1 8 5.3 4.7
6 0 8 -0.9 4.1
6 1 8 -4.9 3.4
6 2 8 -3.6 4.2
6 3 8 -4.3 5.2
7 -2 -8 6.3 4.5
7 -1 -8 16.1 5.7
-7 0 8 12.2 8.5
7 -3 -7 1 1.4
7 -3 -7 -1.3 1.2
7 -2 -7 161.58 9
-7 1 7 2.2 5.4
7 -1 -7 13.6 3.6
-7 0 7 222.48 18.2
7 0 -7 242.88 14.6
7 -2 -6 54.69 4.5
7 -1 -6 217.28 11.2
-7 0 6 93.99 10.9
7 0 -6 66.79 7.5
7 1 -6 212.18 14.2
7 -5 -5 12.8 6.3
7 -4 -5 32.6 8
7 -3 -5 6.4 5
-7 2 5 64.19 12.4
7 -2 -5 58.89 3.9
7 -2 -5 70.09 9.6
7 -2 -5 63.89 4.9
-7 1 5 30.6 7.8
7 -1 -5 22.7 5.7
7 -1 -5 21.9 3.6
-7 0 5 108.89 10.6
7 0 -5 78.49 7.8
7 5 -5 17.2 7
7 -6 -4 7.7 8.9
7 -5 -4 70.79 14.1
7 -4 -4 51.49 10.4
-7 3 4 264.07 21.4
7 -3 -4 271.77 19.7
-7 2 4 116.69 12.6
7 -2 -4 98.09 11.3
7 -2 -4 114.39 4.2
7 -2 -4 117.99 4.7
-7 1 4 516.75 25.6
7 -1 -4 508.65 16.9
7 -1 -4 514.65 23.7
7 0 -4 180.28 13.1
7 1 -4 492.95 16.7
7 4 -4 37.8 9.2
7 5 -4 76.49 13.4
7 -6 -3 20.4 6.7
7 -5 -3 -1.5 3.4
-7 3 3 2.9 4.2
7 -3 -3 6.9 4.1
-7 2 3 330.37 21.6
7 -2 -3 352.86 20.6
7 -1 -3 0.6 2.3
7 -1 -3 0.8 1.4
7 0 -3 584.34 19.9
7 0 -3 601.04 22.5
7 1 -3 1.4 2
7 1 -3 4.8 2.3
7 2 -3 349.17 19.2
7 2 -3 357.16 11.2
7 3 -3 -0.2 2.5
7 5 -3 8.5 5.1
7 6 -3 33.3 9.1
7 -6 -2 -1.9 5.5
7 -5 -2 118.39 14.7
7 -4 -2 4 3.4
7 -3 -2 204.68 16.9
7 -2 -2 9.5 1
7 -2 -2 3.9 3.2
7 -1 -2 447.76 12.9
7 -1 -2 449.36 21.4
7 0 -2 1.1 2.1
7 0 -2 -0.2 1.1
7 1 -2 480.55 18.1
7 1 -2 452.55 18.9
7 2 -2 3.9 2.5
7 3 -2 222.88 15.8
7 4 -2 4.3 2
7 4 -2 4.1 3.4
7 5 -2 110.09 12.8
7 5 -2 104.39 7
7 6 -2 -2 5.7
7 6 -2 -1.5 2.5
-7 7 1 4.6 2.3
-7 7 1 5 2.3
7 -7 -1 2.3 5.7
-7 6 1 2.7 1.9
-7 6 1 1.9 1.8
7 -6 -1 -9 4.3
-7 5 1 5.4 1.5
-7 5 1 6.3 1.8
7 -5 -1 -1.7 2.8
-7 4 1 0 1
7 -4 -1 3.9 3.6
-7 3 1 41.1 2.9
7 -3 -1 43.3 9.2
-7 2 1 2.9 1.5
7 -2 -1 4.4 1.1
7 -2 -1 3.3 2.5
-7 1 1 165.48 8.2
7 -1 -1 142.49 12.1
7 -1 -1 160.48 7.2
-7 0 1 3.5 1.4
7 0 -1 3.3 1.8
-7 -1 1 157.98 10.5
7 1 -1 137.69 10.6
7 2 -1 4.3 2.9
7 3 -1 47.3 8.5
7 4 -1 4.6 2.1
7 4 -1 0.2 2
7 5 -1 3 3.9
7 5 -1 7.2 3.6
7 6 -1 -3.1 3.8
7 6 -1 -1 4.2
7 7 -1 9.7 6.3
7 7 -1 0.8 5.1
-7 7 0 2.9 4.2
7 -7 0 -0.1 5.9
-7 6 0 0.3 2.3
7 -6 0 1.2 5.3
-7 5 0 2 2.3
-7 4 0 -1.3 1.2
7 -4 0 4.8 3.2
-7 3 0 2.2 1.1
7 -3 0 -0.7 2.1
-7 2 0 -0.3 0.9
7 -2 0 1.7 1.8
7 -2 0 -1.3 0.9
-7 1 0 1.4 1.1
7 -1 0 -0.2 0.9
-7 0 0 1.6 1.6
7 0 0 -0.7 0.7
-7 -1 0 -0.5 0.9
-7 -2 0 5.1 2
7 2 0 2.4 1.4
7 3 0 -0.2 1.9
7 4 0 -1.2 1.7
7 5 0 -2.6 2.7
7 5 0 -2.1 3.2
7 6 0 11.5 5.4
7 6 0 -2.1 3.8
7 7 0 0 4.4
7 7 0 5.4 7
-7 7 -1 4.5 5.9
7 -7 1 3.8 8.5
-7 6 -1 6 3.8
7 -6 1 -9.7 4.1
-7 5 -1 6.2 3.3
7 -5 1 7.8 5.7
-7 4 -1 -0.3 1.7
7 -4 1 -5.4 2.3
-7 3 -1 37.6 4.4
7 -3 1 34.2 8.3
7 -3 1 43.4 4.9
7 -2 1 4.7 1.8
-7 1 -1 145.19 11.1
7 -1 1 156.98 8.3
-7 0 -1 -0.2 1.5
7 0 1 0.3 1.4
-7 -1 -1 143.69 10
7 1 1 165.18 9.8
-7 -2 -1 2.3 1.6
7 2 1 1.2 1.6
-7 -3 -1 38.4 7.2
7 3 1 52.79 6.5
7 4 1 2.6 2
7 5 1 8.6 4
7 5 1 8.1 3.8
7 6 1 -7.4 5.6
-7 6 -2 11.6 5.3
7 -6 2 2.8 5
-7 5 -2 115.99 9.5
7 -5 2 89.39 15.7
-7 4 -2 3.8 2.2
7 -4 2 2.6 3.7
-7 3 -2 201.18 10.9
7 -3 2 205.58 11.9
-7 2 -2 9.5 2.8
7 -2 2 11.8 3
-7 1 -2 462.75 17.2
7 -1 2 459.35 16.6
-7 0 -2 4.1 2.1
7 0 2 2.8 1.7
-7 -1 -2 462.05 19.1
7 1 2 453.05 17.9
-7 -2 -2 7.4 3.2
7 2 2 12 3.6
-7 -3 -2 223.58 15.6
7 3 2 199.58 13.1
-7 -4 -2 18.6 6.1
7 4 2 7.7 3.9
7 5 2 90.89 9.7
7 5 2 102.89 11.6
7 6 2 0.4 4.4
7 -6 3 12.4 6.8
-7 5 -3 -1.8 4.1
7 -5 3 -4 4.3
-7 4 -3 94.69 11.3
7 -4 3 118.39 14.4
-7 3 -3 5.6 2.7
7 -3 3 3.4 2.7
-7 2 -3 380.06 16.5
7 -2 3 351.66 16.5
-7 1 -3 6.3 2.9
7 -1 3 6 2.7
-7 0 -3 618.74 22.5
7 0 3 621.84 21.4
-7 -1 -3 -0.6 1.4
7 1 3 5.2 2.5
-7 -2 -3 357.66 18.4
7 2 3 355.26 17
-7 -3 -3 -6.6 2.3
7 3 3 3.6 2.9
-7 -4 -3 87.89 10.9
7 4 3 101.99 10.1
7 5 3 -2 2.9
7 6 3 20.5 5.6
7 -6 4 12.8 7.6
-7 3 -4 291.57 16.1
7 -3 4 247.58 16.1
-7 2 -4 96.89 11.9
7 -2 4 128.89 10.6
-7 1 -4 501.45 21
7 -1 4 501.15 20.8
-7 0 -4 173.78 12
7 0 4 162.78 11.3
-7 -1 -4 509.25 22
7 1 4 501.15 20.5
-7 -2 -4 110.19 10.4
7 2 4 121.09 10
-7 -3 -4 252.47 16.9
7 3 4 244.98 15
7 4 4 51.29 9
7 5 4 111.59 10.9
7 6 4 10 5.1
7 -5 5 -2.8 5.8
7 -2 5 55.49 9.2
-7 1 -5 26.9 5.7
7 -1 5 15 4.6
-7 0 -5 91.99 9.4
7 0 5 84.09 8.8
-7 -1 -5 15.7 4.5
7 1 5 20.9 5.1
-7 -2 -5 62.79 10.3
7 2 5 60.29 7.4
7 3 5 13.4 5.5
7 4 5 31.1 6.4
7 5 5 4.1 3.7
7 -5 6 29.8 9.4
7 -2 6 74.79 11.7
7 -1 6 184.78 14.9
7 0 6 67.99 10.2
7 1 6 237.88 15.9
7 2 6 61.69 9.6
7 3 6 112.49 11.2
7 4 6 29.1 7.3
7 5 6 31.3 6.6
7 -2 7 183.18 16.6
7 -1 7 -2.2 3.9
7 0 7 257.67 18.2
7 1 7 7.5 4.9
7 2 7 189.88 15.2
7 3 7 -1.1 3.8
7 4 7 58.19 10.3
7 -1 8 13.1 6.5
7 0 8 23.8 6.9
7 1 8 32 8.1
7 2 8 9.2 5.5
8 -2 -8 9.3 4.5
8 -1 -8 13.6 5.2
-8 0 8 7.2 6.7
8 -2 -7 2.1 2.4
8 -2 -7 6.2 3
-8 1 7 1.8 10.8
-8 0 7 4.7 5.7
8 0 -7 -3.5 3.8
8 -2 -6 204.88 9.8
8 -2 -6 191.38 8.1
-8 1 6 228.88 19.5
8 -1 -6 242.28 12
8 0 -6 254.37 14.6
8 -5 -5 9 7.2
8 -4 -5 44.4 10.2
8 -3 -5 50.49 10.6
-8 2 5 49.6 11.6
8 -2 -5 68.39 9.3
8 -2 -5 55.59 3.6
8 -2 -5 56.09 4.2
-8 1 5 116.99 13.6
8 -1 -5 131.89 8.2
8 -1 -5 128.09 11.6
8 -1 -5 117.79 8.7
8 0 -5 65.19 7.5
8 4 -5 42.4 10.1
8 5 -5 6.7 7.2
8 -6 -4 15.4 7.1
8 -5 -4 0.2 4.2
8 -4 -4 28.3 8.5
8 -3 -4 -4.3 2.8
-8 2 4 71.49 10.7
8 -2 -4 63.89 3.4
8 -2 -4 58.29 8.9
8 -2 -4 58.99 3
8 -1 -4 7.3 2.5
8 -1 -4 9.7 3.6
8 0 -4 103.49 8.6
8 0 -4 119.89 10
8 1 -4 9.2 3.2
8 1 -4 9.6 2.8
8 2 -4 66.99 10.8
8 3 -4 -0.9 3.4
8 4 -4 28.4 8.4
8 5 -4 -5.8 3.7
8 6 -4 2.2 5.6
8 -6 -3 34.8 10.1
8 -5 -3 36.4 9.6
8 -4 -3 107.89 13.3
8 -3 -3 126.69 13.8
8 -2 -3 205.28 5.3
8 -2 -3 202.28 16
8 -1 -3 239.18 16.2
8 -1 -3 253.27 10.6
8 0 -3 334.67 15.2
8 1 -3 256.67 13.5
8 1 -3 250.97 14.8
8 2 -3 239.28 15.9
8 2 -3 205.28 10
8 3 -3 143.59 13.5
8 4 -3 90.59 14.3
8 5 -3 39.3 9.6
8 6 -3 16.3 6.2
8 -6 -2 59.39 14.2
8 -5 -2 41 10.8
8 -4 -2 164.38 20.7
8 -3 -2 91.19 11.7
8 -2 -2 567.14 27.9
8 -2 -2 565.94 11.7
8 -1 -2 194.78 14.4
8 -1 -2 182.88 8.3
8 0 -2 894.21 30.5
8 0 -2 885.01 24.9
8 1 -2 181.08 11.8
8 1 -2 200.78 12.6
8 2 -2 556.94 24.2
8 3 -2 92.89 10.3
8 4 -2 192.78 20.2
8 4 -2 169.18 8.3
8 5 -2 35.4 4.4
8 5 -2 23.8 8
8 6 -2 37.9 10.3
8 6 -2 31.3 4.6
-8 6 1 57.69 2.9
-8 6 1 50.99 3
8 -6 -1 61.59 14.5
-8 5 1 17 1.9
-8 5 1 15.5 2.2
8 -5 -1 5.9 5.1
-8 4 1 232.88 7.1
8 -4 -1 248.08 20.8
-8 3 1 15.1 2.3
8 -3 -1 9.3 4.8
-8 2 1 742.73 18.2
8 -2 -1 780.02 33.2
8 -2 -1 757.52 16.5
-8 1 1 7.7 2.1
8 -1 -1 0.6 2.6
8 -1 -1 3.8 1.6
-8 0 1 1174.38 30.4
8 0 -1 1198.88 28.8
-8 -1 1 5.8 2.5
8 1 -1 8.8 3.2
8 2 -1 728.23 26.9
8 3 -1 11.3 3.7
8 4 -1 244.08 17.8
8 5 -1 17.6 5
8 5 -1 27.3 7.6
8 6 -1 58.89 11.8
8 6 -1 53.19 7.8
-8 6 0 -4.7 2.5
8 -6 0 -4.1 4.3
8 -5 0 -0.2 4
8 -4 0 5.9 4.2
-8 3 0 28.6 3.6
8 -3 0 36.9 3.8
8 -3 0 41.2 9.6
8 -2 0 1.7 2.3
8 -2 0 2.4 1.2
-8 1 0 143.99 8.6
8 -1 0 127.99 7.4
-8 0 0 2.3 1.5
8 0 0 1.4 1.2
-8 -1 0 132.89 10.5
8 1 0 139.29 9.7
-8 -2 0 -0.4 1.7
8 2 0 -2.4 0.9
8 3 0 43.3 7.6
8 4 0 1.2 2.8
8 5 0 2.6 3.1
8 5 0 -4.1 3
8 6 0 -1.4 3.3
8 6 0 1.1 5.5
-8 6 -1 70.29 7.7
8 -6 1 74.59 14.2
-8 5 -1 25.1 4.5
8 -5 1 12.4 6.1
-8 4 -1 243.88 11.7
8 -4 1 250.37 21.1
-8 3 -1 19.4 3.5
8 -3 1 10.7 4.8
-8 2 -1 759.92 21.8
8 -2 1 772.62 21.2
-8 1 -1 0.5 1.8
8 -1 1 4.8 2.1
-8 0 -1 1273.67 32.8
8 0 1 1233.38 30.3
-8 -1 -1 6.6 3.2
8 1 1 8.9 2.8
-8 -2 -1 744.83 28.3
8 2 1 742.63 25.8
-8 -3 -1 14.1 5.6
8 3 1 13.9 4.5
-8 -4 -1 213.28 16.8
8 4 1 237.18 16.2
8 5 1 9.5 5
8 6 1 30.1 9.9
8 6 1 67.99 11.7
-8 6 -2 51.49 8.2
8 -6 2 43.7 11.4
-8 5 -2 37.4 6.4
8 -5 2 34.7 9.6
-8 4 -2 169.88 10.9
8 -4 2 196.58 18.5
-8 3 -2 97.29 7.9
8 -3 2 101.89 8.7
-8 2 -2 552.04 19.4
8 -2 2 540.25 19.3
-8 1 -2 182.18 11.1
8 -1 2 181.28 10.6
-8 0 -2 930.71 28
8 0 2 919.11 26.1
-8 -1 -2 170.18 12.1
8 1 2 176.98 11.3
-8 -2 -2 581.34 24.8
8 2 2 563.34 22.2
-8 -3 -2 95.69 11.2
8 3 2 82.79 8.8
8 4 2 186.98 14.2
8 5 2 17.1 7.8
8 5 2 39.8 7.8
8 6 2 24.6 6.9
8 -6 3 17.5 9
-8 5 -3 31.4 8.3
8 -5 3 49.9 10.8
-8 4 -3 89.89 8.6
8 -4 3 55.89 12.2
-8 3 -3 135.99 10.5
8 -3 3 137.39 11
-8 2 -3 197.28 12.3
8 -2 3 203.48 12.4
-8 1 -3 248.08 14
8 -1 3 281.37 14.2
-8 0 -3 306.67 16
8 0 3 316.07 15.3
-8 -1 -3 249.38 15.3
8 1 3 279.47 14.7
8 2 3 193.28 12.8
-8 -3 -3 135.89 12.8
8 3 3 146.49 11.9
8 5 3 30 6.6
8 6 3 11 5.5
8 -6 4 9 7.8
8 -5 4 6.3 5.7
-8 3 -4 -2.3 2.9
8 -3 4 5.4 3.5
-8 2 -4 75.39 8.2
8 -2 4 61.49 9.2
-8 1 -4 -0.5 2.2
8 -1 4 4.4 2.8
-8 0 -4 98.09 9.7
8 0 4 109.49 9.4
-8 -1 -4 10.1 3.5
8 1 4 9 3.7
-8 -2 -4 59.39 9.6
8 2 4 68.29 7.9
8 3 4 -1.2 2.2
8 4 4 23.6 6.1
8 5 4 -3.7 3.1
8 6 4 7.5 5.3
8 -5 5 7.4 7.6
8 -3 5 55.59 9
8 -2 5 44.2 13.4
8 -1 5 120.19 11.3
8 0 5 56.19 8.8
8 1 5 118.39 10.8
8 3 5 52.39 8.5
8 4 5 48.9 9.2
8 5 5 22.4 6.8
8 -2 6 202.38 16.6
8 -1 6 267.67 17.9
8 0 6 253.07 17.2
8 1 6 243.68 16.2
8 2 6 192.58 14.2
8 3 6 186.78 14.2
8 4 6 87.59 10.7
8 -2 7 -8 2.9
8 -1 7 8.6 5.5
8 0 7 -0.1 3.5
8 1 7 30.2 7.5
8 2 7 6 3.4
8 3 7 21.5 6.7
8 -2 8 11.2 5.3
8 -1 8 9.5 7.4
8 0 8 2.9 5.5
8 1 8 20.5 6.9
8 2 8 2.7 4.9
9 -1 -8 5.5 4.4
9 -2 -7 2.7 3.1
9 -1 -7 2.5 3
9 -1 -7 1.8 3.6
9 0 -7 5.2 4.4
9 -4 -6 15.7 7.4
9 -3 -6 61.79 12.5
9 -2 -6 6.6 1.9
9 -2 -6 5.8 2.2
9 -2 -6 5.6 5.1
9 -1 -6 162.98 9.8
9 -1 -6 160.18 13.3
9 -1 -6 167.98 11.4
9 0 -6 9.8 4.3
9 0 -6 4.6 3.7
9 3 -6 74.09 13.8
9 4 -6 1.5 6.3
9 -5 -5 66.49 15.5
9 -4 -5 14.7 7.8
9 -3 -5 204.18 18.3
9 -2 -5 22.8 2.5
9 -2 -5 31.5 8.2
9 -2 -5 21 2.9
9 -1 -5 383.86 17.1
9 -1 -5 410.66 22.3
9 -1 -5 384.76 15.2
9 0 -5 18 5
9 0 -5 12.5 4.7
9 1 -5 399.36 22
9 1 -5 376.76 16.4
9 2 -5 25.3 7.2
9 3 -5 232.58 19.6
9 4 -5 19.9 6.2
9 5 -5 104.59 19.7
9 -5 -4 46.5 11.7
9 -4 -4 4.6 4.8
9 -3 -4 151.08 16.4
9 -2 -4 9 4.4
9 -2 -4 9.5 1.7
9 -2 -4 11.6 1.8
9 -1 -4 276.17 12.5
9 -1 -4 265.17 18
9 0 -4 16.4 5
9 0 -4 17.1 4.3
9 1 -4 267.17 16.8
9 1 -4 264.57 14.4
9 2 -4 10.4 2.7
9 2 -4 5.4 3.7
9 3 -4 149.29 15
9 4 -4 7.8 5.1
9 5 -4 54.99 11.7
9 -6 -3 8.1 7.3
9 -5 -3 9.6 7.4
9 -4 -3 14.2 5.5
9 -3 -3 8 5.4
9 -2 -3 24.8 2.2
9 -2 -3 26.1 7.4
9 -1 -3 43.5 8.5
9 -1 -3 31.5 4.6
9 0 -3 27.1 5
9 0 -3 31.9 6.7
9 1 -3 35.5 7.3
9 1 -3 37 6.7
9 2 -3 31.4 7.1
9 2 -3 29.6 4.3
9 3 -3 31.7 3.4
9 3 -3 16.8 6.7
9 4 -3 18.9 6.8
9 5 -3 16.1 5.4
9 6 -3 8.7 8.1
9 -6 -2 4.5 7.1
9 -5 -2 -4.6 4.3
9 -4 -2 11.4 6.4
9 -3 -2 2.9 3.7
9 -2 -2 51.89 10.5
9 -2 -2 49.4 3.4
9 -1 -2 3.4 2.3
9 -1 -2 1.5 1.5
9 0 -2 76.59 8.7
9 1 -2 4.7 2.2
9 2 -2 47.9 8.3
9 3 -2 2.2 3.1
9 4 -2 16 4.9
9 4 -2 13.7 3.2
9 5 -2 -2.8 2
9 5 -2 -4.5 2.4
9 6 -2 3.8 5.5
9 6 -2 2.6 2.9
9 -6 -1 27.6 9.9
9 -5 -1 8.3 6.4
-9 4 1 122.19 5.2
9 -4 -1 113.39 16.3
-9 3 1 0.6 1.3
9 -3 -1 4 3.4
-9 2 1 388.96 13.6
9 -2 -1 386.86 11.8
9 -2 -1 392.66 24.2
-9 1 1 3.6 2.1
9 -1 -1 2.5 2.6
9 -1 -1 1.8 1.3
-9 0 1 538.65 20.3
9 0 -1 502.45 20
-9 -1 1 3.4 2.1
9 1 -1 3.3 2.5
9 2 -1 399.36 19.8
9 3 -1 3.3 2.6
9 4 -1 143.49 13.9
9 5 -1 1.5 3.7
9 5 -1 5.2 2.9
9 6 -1 38.7 9.6
9 6 -1 19.1 6.2
-9 6 0 -2.1 2.8
9 -6 0 -0.7 6
9 -5 0 -5.9 3.7
-9 4 0 -2.2 1.8
9 -4 0 1.3 5
-9 3 0 3.6 1.8
9 -3 0 0.8 3.7
9 -3 0 2.7 1.7
-9 2 0 -0.1 1.4
9 -2 0 -1.3 1.3
9 -2 0 -0.5 1.9
-9 1 0 -0.9 1.4
9 -1 0 1.3 1.3
-9 0 0 1.5 1.7
-9 -1 0 0.6 2
9 1 0 3.5 1.9
-9 -2 0 1.6 2.6
9 2 0 2.9 2.1
-9 -3 0 -1.9 1.5
9 3 0 -2.3 1.6
9 5 0 1.5 3.4
9 5 0 4.3 3.6
9 6 0 0.1 3.6
-9 6 -1 14.5 4.9
9 -6 1 21.9 9.1
9 -5 1 17.2 7.3
-9 4 -1 139.29 8.9
9 -4 1 114.99 14.6
-9 3 -1 2.6 2.1
9 -3 1 0.9 1.6
9 -3 1 -1.3 2.4
-9 2 -1 394.76 15.7
9 -2 1 389.46 14.9
-9 1 -1 1.3 2
9 -1 1 4.4 2
-9 0 -1 552.84 21.6
9 0 1 551.34 19.6
-9 -1 -1 0.9 1.6
9 1 1 3.6 2.4
-9 -2 -1 395.06 21.2
9 2 1 360.66 18.1
9 3 1 0.4 2
9 5 1 0.6 3.8
9 5 1 11.6 5.2
9 6 1 10.4 6.4
-9 6 -2 -1.1 5.5
9 -6 2 -1.6 7.9
9 -5 2 1.9 4.4
-9 4 -2 13.1 4.1
9 -4 2 22.3 10.4
-9 3 -2 5.8 2.5
9 -3 2 -1.4 1.4
-9 2 -2 51.09 7.5
9 -2 2 47 5.4
-9 1 -2 -0.8 2.1
9 -1 2 3.7 2
-9 0 -2 93.29 8.8
9 0 2 92.49 7.9
-9 -1 -2 -0.5 2
9 1 2 -0.3 1.2
-9 -2 -2 38.8 9.8
9 2 2 43.9 8.1
-9 -3 -2 -4.2 2.3
9 3 2 -1.7 1.4
9 4 2 16.4 5.3
9 5 2 4.7 3.6
9 6 2 -2.9 4.7
9 -6 3 1.4 7.6
9 -5 3 4.5 6.3
-9 4 -3 7.8 5.3
9 -4 3 18.4 6.7
-9 3 -3 38.2 6.6
9 -3 3 38.4 6.8
-9 2 -3 30.1 5.5
9 -2 3 29.1 5.7
-9 1 -3 37.2 7
9 -1 3 50.59 6.3
-9 0 -3 19.9 5.1
9 0 3 15 4.3
-9 -1 -3 34.4 7.9
9 1 3 37.2 6.4
-9 -2 -3 27.5 6.3
9 2 3 23.9 5.3
9 3 3 32.2 6.7
9 4 3 23.7 6.5
9 5 3 3.4 4.1
9 6 3 8 4.6
9 -5 4 53.69 12.3
9 -3 4 159.58 13.4
-9 2 -4 11.3 3.3
9 -2 4 8.5 3.8
-9 1 -4 249.58 15.7
9 -1 4 280.67 16.2
-9 0 -4 13.6 4.1
9 0 4 6.3 2.8
-9 -1 -4 240.08 16.5
9 1 4 276.57 15.7
9 2 4 11 4.1
9 3 4 163.28 13
9 4 4 5.4 4.3
9 5 4 32.3 7.4
9 -5 5 64.39 14.5
9 -3 5 225.68 17.4
9 -2 5 26 6.3
9 -1 5 408.46 21.2
9 0 5 20.9 5.3
9 1 5 416.26 21.3
9 2 5 26.4 6.6
9 3 5 237.48 16.5
9 4 5 11.6 5.2
9 5 5 75.19 11.8
9 -3 6 65.59 12
9 -2 6 2 4.4
9 -1 6 150.08 13.7
9 0 6 3.9 3.9
9 1 6 161.58 13.5
9 2 6 -5.9 2.7
9 3 6 101.49 11.2
9 4 6 8.1 4.8
9 -2 7 10.6 5.7
9 -1 7 -2.3 3.1
9 0 7 8.7 4.5
9 1 7 -3.6 3.7
9 2 7 8.2 4.2
9 3 7 -0.1 4.8
9 -1 8 -4.1 5.5
9 0 8 -0.3 2.7
9 1 8 -2 4.8
10 -2 -7 -0.3 2.5
10 -2 -7 9.5 3.4
10 -1 -7 -2 3.5
10 -1 -7 -2.3 3.7
10 0 -7 2 4.7
10 0 -7 4.5 4.9
10 1 -7 -2.4 4.9
10 2 -7 4.1 5.3
10 -3 -6 47.5 10.8
10 -2 -6 7.9 2
10 -2 -6 5.6 2
10 -2 -6 -1.7 4.4
10 -1 -6 79.99 6.9
10 -1 -6 84.29 10.4
10 -1 -6 72.29 8
10 0 -6 25 5.6
10 0 -6 20.3 5.8
10 1 -6 92.59 11.1
10 2 -6 6.2 5.7
10 3 -6 24.9 8.9
10 4 -6 16.9 14.1
10 -4 -5 2.6 5.3
10 -3 -5 387.46 26.7
10 -2 -5 11.9 2.2
10 -2 -5 9 1.9
10 -1 -5 764.62 24.8
10 -1 -5 669.83 30.7
10 0 -5 7 4.3
10 0 -5 11.7 4.5
10 1 -5 721.23 30.2
10 1 -5 703.03 24.4
10 2 -5 9.6 6.5
10 3 -5 443.86 27.7
10 4 -5 -0.5 5.2
10 -5 -4 72.99 16.4
10 -4 -4 15.6 6.4
10 -3 -4 143.19 16.1
10 -2 -4 33.4 2.8
10 -2 -4 31.8 2.7
10 -2 -4 28.5 8.2
10 -1 -4 239.78 17.5
10 -1 -4 218.68 11.2
10 0 -4 35.7 7.5
10 0 -4 27.9 5.6
10 1 -4 219.38 16.7
10 1 -4 224.08 15.6
10 2 -4 28.5 7.6
10 2 -4 37.5 5.1
10 3 -4 157.28 16.1
10 4 -4 11.2 6.4
10 5 -4 58.49 13.7
10 -5 -3 42.6 12.5
10 -4 -3 1.2 3.8
10 -3 -3 118.29 14.1
10 -2 -3 -1.6 3.7
10 -2 -3 1 1.2
10 -1 -3 180.38 9.6
10 -1 -3 194.58 16
10 0 -3 4.2 3.4
10 0 -3 3.8 2.3
10 1 -3 185.78 13.6
10 1 -3 205.58 13.8
10 2 -3 2.7 2.6
10 2 -3 -2 1.5
10 3 -3 125.09 20.6
10 3 -3 132.19 8.1
10 4 -3 1.8 4.2
10 5 -3 42.9 10.3
10 -6 -2 34.9 12
10 -5 -2 41.3 11.1
10 -4 -2 42.8 10.8
10 -3 -2 98.09 12.9
10 -2 -2 50.09 10.1
10 -2 -2 51.49 3.9
10 -1 -2 229.98 17.9
10 -1 -2 229.88 10.6
10 0 -2 50.19 5.7
10 0 -2 53.89 8.1
10 1 -2 229.38 14
10 2 -2 53.59 9
10 3 -2 131.69 12.9
10 4 -2 49.99 10.8
10 5 -2 52.89 11.3
10 5 -2 43.5 5.4
10 6 -2 23.8 8.2
10 6 -2 31.2 4.8
10 -6 -1 18.4 9.5
10 -5 -1 36.4 10.4
-10 4 1 68.19 4.3
10 -4 -1 78.59 15.1
-10 3 1 68.89 5.3
10 -3 -1 40.9 10.1
10 -3 -1 61.69 4.6
-10 2 1 150.78 8.9
10 -2 -1 151.68 7.5
10 -2 -1 128.29 14.5
-10 1 1 135.89 9.5
10 -1 -1 132.19 13.7
10 -1 -1 142.29 8.5
-10 0 1 181.58 12
10 0 -1 205.98 11.5
-10 -1 1 125.39 11.4
10 1 -1 139.99 10.6
10 2 -1 143.99 11.8
10 3 -1 42.4 8.6
10 4 -1 74.99 12.5
10 5 -1 13.7 6.5
10 5 -1 12.3 4.4
10 6 -1 20.4 6.6
10 6 -1 17.3 8.9
10 -6 0 18.7 9.2
10 -5 0 14 7.1
10 -4 0 74.79 14.5
-10 3 0 8.7 2.6
10 -3 0 25.9 8.1
10 -3 0 12.3 3
-10 2 0 208.58 11.4
10 -2 0 232.68 10.6
10 -2 0 216.28 18.9
-10 1 0 4.5 2.8
10 -1 0 10 3.1
-10 0 0 382.76 18.2
10 0 0 378.76 16.4
-10 -1 0 7.1 3.2
10 1 0 7.8 3.1
10 2 0 222.28 14.7
-10 -3 0 3.1 3
10 3 0 6.8 3.8
10 4 0 77.79 12.2
10 5 0 8.4 4.2
10 5 0 5.4 4.5
10 6 0 17.8 7.3
10 6 0 13.9 6.8
-10 6 -1 22.3 5.6
10 -6 1 5.3 8
-10 5 -1 21.4 5
10 -5 1 34.7 10.6
-10 4 -1 66.69 6.7
10 -4 1 67.39 14.4
-10 3 -1 58.89 6.1
10 -3 1 53.79 6
10 -3 1 61.39 12.6
-10 2 -1 172.48 10.5
10 -2 1 161.58 9.8
-10 1 -1 145.89 10.4
10 -1 1 129.79 8.8
-10 0 -1 208.68 13.3
10 0 1 205.28 11.9
-10 -1 -1 122.19 11.2
10 1 1 137.49 10.4
-10 -2 -1 159.38 13.9
10 2 1 155.18 12.1
10 3 1 56.59 9
10 4 1 83.49 10.1
10 5 1 20.7 6.6
10 6 1 33.3 8.6
-10 6 -2 35.6 8.2
10 -6 2 26.3 10.5
-10 5 -2 35 6.6
10 -5 2 52.29 12.8
-10 4 -2 63.89 6.8
10 -4 2 42.8 11.9
-10 3 -2 111.29 9.4
10 -3 2 119.39 9.4
-10 2 -2 67.99 7.2
10 -2 2 55.59 6.3
-10 1 -2 211.58 13.2
10 -1 2 243.38 13.2
-10 0 -2 45.7 7.4
10 0 2 45.6 5.8
10 1 2 229.68 14.1
-10 -2 -2 69.29 11
10 2 2 50.29 8.4
10 3 2 139.79 12.4
10 4 2 47.1 9
10 5 2 36.8 8.1
10 6 2 27.8 7.8
10 -5 3 41.6 11.5
-10 4 -3 1.2 4.4
10 -4 3 3.1 4.2
-10 3 -3 142.09 11
10 -3 3 157.58 12.1
-10 2 -3 2.8 2.5
10 -2 3 -1.8 2
-10 1 -3 191.48 13.3
10 -1 3 187.28 12.5
-10 0 -3 14.5 4
10 0 3 11.7 3.8
-10 -1 -3 206.28 15.1
10 1 3 193.08 13.3
10 2 3 -1 1.6
10 3 3 122.39 11.7
10 5 3 57.49 9.9
10 -5 4 59.29 14.9
10 -3 4 177.68 15.2
10 -2 4 33 6.5
-10 1 -4 229.88 25.8
10 -1 4 246.28 15.5
10 0 4 41.6 8
10 1 4 236.68 15.5
10 2 4 24.6 6.2
10 3 4 164.68 13.7
10 4 4 12.2 4.9
10 5 4 53.49 9.6
10 -3 5 433.46 24.3
10 -2 5 7 3.6
10 -1 5 702.33 29.1
10 0 5 10.7 4.6
10 1 5 715.13 29.2
10 2 5 5.9 3.6
10 3 5 435.36 23.1
10 4 5 1.9 4.8
10 -3 6 37 8.7
10 -2 6 6.9 5.3
10 -1 6 58.79 9.7
10 0 6 10.1 4.4
10 1 6 79.19 9.8
10 2 6 7 5.4
10 3 6 28.7 7.4
10 4 6 -1.5 4.9
10 -2 7 6.4 8
10 -1 7 7.1 5
10 0 7 7.2 4.4
10 1 7 -3.8 4.8
10 2 7 0.3 4.7
11 -2 -7 1.2 2.2
11 -1 -7 -2 4.3
11 -1 -7 -3.5 4.1
11 0 -7 -2.1 4.8
11 0 -7 -10.1 8.2
11 1 -7 -1.2 5.4
11 2 -7 4.5 6.7
11 -3 -6 2.3 5.7
11 -2 -6 9 5.5
11 -2 -6 12.6 2.5
11 -2 -6 12.6 2.2
11 -1 -6 -4.5 2.8
11 -1 -6 3.9 3.6
11 -1 -6 2.3 4.7
11 0 -6 21.4 5.9
11 0 -6 26.9 6.6
11 2 -6 10.7 6.3
11 3 -6 7.9 5.8
11 -3 -5 2.9 5.6
11 -2 -5 5.1 1.6
11 -2 -5 10.6 5.5
11 -2 -5 2.1 1.4
11 -1 -5 6.6 4.5
11 -1 -5 2.3 3
11 0 -5 4.9 4.2
11 0 -5 5.2 3.7
11 1 -5 0.1 3.8
11 1 -5 6 3.3
11 2 -5 0.1 4.2
11 3 -5 -7.9 4.1
11 4 -5 9.7 7.8
11 -5 -4 18.3 10
11 -4 -4 11.1 7.6
11 -3 -4 71.19 14.1
11 -2 -4 41.9 3.4
11 -1 -4 134.59 13.3
11 0 -4 74.19 9.3
11 0 -4 62.59 7.6
11 1 -4 111.69 10.7
11 1 -4 99.99 10.1
11 2 -4 46.2 5.9
11 2 -4 32.9 8.2
11 3 -4 59.39 11.5
11 4 -4 21.5 8.1
11 5 -4 21 9.3
11 -5 -3 9.5 7.8
11 -4 -3 9.9 6.8
11 -3 -3 25.1 9
11 -2 -3 19.4 6.3
11 -2 -3 30.8 3.1
11 -1 -3 53.69 10.9
11 -1 -3 43 5.3
11 0 -3 47.9 5.9
11 0 -3 41.9 8.8
11 1 -3 53.69 7.7
11 1 -3 45.2 8.1
11 2 -3 24.4 6.8
11 2 -3 24.7 5.6
11 3 -3 26.7 7.7
11 3 -3 35.6 5.9
11 4 -3 8.6 1.7
11 4 -3 7.9 5.2
11 4 -3 11.6 1.8
11 5 -3 1.3 5.5
11 -5 -2 48.4 11.7
11 -4 -2 26.6 9.4
11 -3 -2 82.69 12.5
11 -2 -2 62.29 4.8
11 -2 -2 56.39 12.1
11 -1 -2 144.89 15
11 0 -2 84.69 7.8
11 0 -2 98.19 11.3
11 1 -2 153.28 12.2
11 2 -2 67.79 10.8
11 3 -2 101.29 11.3
11 4 -2 39.5 9.4
11 5 -2 8.3 6.7
11 -6 -1 20 8.5
11 -5 -1 130.49 18.5
-11 4 1 94.49 5.4
11 -4 -1 90.29 17
-11 3 1 317.77 12.6
11 -3 -1 336.17 25.3
11 -3 -1 319.57 11.3
-11 2 1 202.48 11.5
11 -2 -1 207.08 19
11 -2 -1 195.78 9.4
-11 1 1 611.24 22.2
11 -1 -1 576.94 30.8
11 -1 -1 597.34 19.4
-11 0 1 278.07 15.9
11 0 -1 259.97 13.7
-11 -1 1 557.34 25
11 1 -1 541.35 22.6
11 2 -1 182.78 14.2
11 3 -1 265.97 23.6
11 4 -1 81.29 10.3
11 5 -1 117.99 10.4
11 5 -1 128.49 15
11 6 -1 11.2 7.9
11 6 -1 17.4 7.4
-11 6 0 6.6 4.5
11 -6 0 0.2 6.6
11 -5 0 3.2 6.5
-11 4 0 3.8 2.7
-11 3 0 -0.2 2.2
11 -3 0 1.9 3.9
-11 2 0 2.3 2.1
11 -2 0 2.8 3.9
11 -2 0 3.2 1.8
-11 1 0 0.6 2.4
11 -1 0 -1.4 1.6
-11 0 0 -1.9 2.1
-11 -1 0 -0.4 2.5
11 1 0 0.7 1.9
-11 -2 0 -3.1 2.4
11 5 0 1.3 3.9
11 6 0 5.1 6.4
11 6 0 2.4 5.9
-11 6 -1 22.9 6.1
-11 5 -1 122.89 9.8
11 -5 1 140.89 18.1
-11 4 -1 87.19 7.9
11 -4 1 82.19 16
-11 3 -1 303.77 15.1
11 -3 1 336.97 15
11 -3 1 328.07 26
-11 2 -1 196.18 12.2
11 -2 1 204.08 11.5
-11 1 -1 574.14 22.9
11 -1 1 598.24 20.8
-11 0 -1 263.97 16.2
11 0 1 284.77 14.7
-11 -1 -1 564.94 27.5
11 1 1 588.14 23.9
-11 -2 -1 200.98 16.3
11 2 1 189.58 13.7
11 3 1 325.17 19.5
11 4 1 76.39 11.8
11 5 1 118.49 13.6
11 6 1 6.4 6.7
-11 5 -2 30.1 7.5
11 -5 2 40.5 11.9
-11 4 -2 26.3 7.4
11 -4 2 22 8.6
-11 3 -2 105.99 9.6
11 -3 2 83.09 8.3
-11 2 -2 69.99 7.5
11 -2 2 67.19 7.4
-11 1 -2 157.58 11.9
11 -1 2 165.48 11.3
-11 0 -2 88.29 9.6
11 0 2 97.39 8.9
-11 -1 -2 137.89 12.9
11 1 2 150.48 11.9
11 2 2 67.29 8.5
11 3 2 85.09 10
11 4 2 27.8 6.4
11 5 2 34.2 8
11 -5 3 25.4 10.6
11 -4 3 3.1 5.2
-11 3 -3 22.8 6.1
11 -3 3 23.7 5.1
-11 2 -3 38.8 6.9
11 -2 3 30.6 6.5
-11 1 -3 71.39 8.4
11 -1 3 67.19 7.5
-11 0 -3 32.5 7.5
11 0 3 39.4 7.1
11 1 3 57.59 7.3
11 2 3 26.7 6.3
11 3 3 32.1 7
11 4 3 8.8 5
11 5 3 13.7 5.9
11 -5 4 9.8 7.3
11 -3 4 91.59 9.9
11 -2 4 48.5 8.5
11 -1 4 98.79 10
11 0 4 65.69 8.4
11 1 4 109.99 10.8
11 2 4 36.9 7.6
11 3 4 80.69 9.6
11 4 4 17.3 5.7
11 -3 5 6.7 5
11 -2 5 12 4.3
11 -1 5 4.8 4
11 0 5 8.6 3.9
11 1 5 5.9 4.8
11 2 5 -0.6 3.1
11 3 5 -3.4 3
11 4 5 -2.9 4.1
11 -3 6 13.1 5.9
11 -2 6 16.5 6.3
11 -1 6 0.7 3.4
11 0 6 11.7 5.5
11 1 6 2.9 3.6
11 2 6 20.3 6.5
11 3 6 -3 3.8
11 -2 7 4.1 6.6
11 -1 7 6.6 4.6
11 1 7 0.1 6.4
11 2 7 -9.6 4.1
12 -2 -6 14.5 2.4
12 -2 -6 15.2 2.4
12 -2 -6 14.4 7
12 -1 -6 23.7 5.3
12 -1 -6 24.6 4.9
12 -1 -6 36.6 9.1
12 0 -6 13.3 5.5
12 0 -6 22.8 6.6
12 1 -6 20.6 8.2
12 2 -6 7 5.4
12 -3 -5 13.5 8.3
12 -2 -5 74.49 4.4
12 -2 -5 71.79 13.8
12 -2 -5 68.39 4.4
12 -1 -5 39.3 9
12 -1 -5 24.7 5.4
12 0 -5 94.89 11.6
12 0 -5 106.39 10.3
12 1 -5 16.7 5.7
12 1 -5 20.5 5.9
12 2 -5 75.89 12.9
12 2 -5 67.39 6.7
12 3 -5 6.3 6.8
12 -4 -4 11.7 7
12 -3 -4 11.3 7.5
12 -2 -4 10.1 2.2
12 -2 -4 12 5.8
12 -1 -4 33.8 8.8
12 -1 -4 32.8 5.4
12 0 -4 13.8 5.5
12 0 -4 16.9 4.9
12 1 -4 36.7 7.7
12 1 -4 24.1 7.3
12 2 -4 9.8 5.4
12 2 -4 9.7 4.6
12 3 -4 29.7 3.7
12 3 -4 15.3 7
12 4 -4 12.9 7
12 -5 -3 85.69 17.2
12 -4 -3 4.9 6.1
12 -3 -3 209.08 20.5
12 -2 -3 3.4 4.4
12 -2 -3 1 1.5
12 -1 -3 294.47 21.7
12 -1 -3 319.07 13.9
12 0 -3 -1.7 2
12 0 -3 6 4.4
12 1 -3 300.37 19
12 1 -3 305.27 17.7
12 2 -3 -3.6 3.6
12 2 -3 -3.9 2.8
12 3 -3 243.88 13.6
12 3 -3 225.68 18.3
12 4 -3 4.2 2.3
12 4 -3 -1.9 3.8
12 5 -3 118.39 18.7
12 -5 -2 3.5 7.6
12 -4 -2 391.06 30.1
12 -3 -2 9.5 2
12 -3 -2 19.4 7
12 -2 -2 827.82 50.39
12 -2 -2 864.01 20.8
12 -1 -2 19.7 4
12 -1 -2 25.8 8.2
12 0 -2 1126.49 42.7
12 0 -2 1098.69 31.9
12 1 -2 32.2 6.2
12 1 -2 30.5 7.1
12 2 -2 860.21 33.3
12 3 -2 16.5 6.3
12 4 -2 444.16 27.2
12 5 -2 -13 4.8
12 -5 -1 -6.6 6.3
-12 4 1 2.9 2.2
12 -4 -1 -4.7 5.3
-12 3 1 7.3 3.5
12 -3 -1 15.4 6.5
12 -3 -1 8.9 2.7
-12 2 1 12.9 4.4
12 -2 -1 18.3 3.8
12 -2 -1 23.6 7.6
-12 1 1 38.1 6.2
12 -1 -1 34.2 5.5
12 -1 -1 38.8 10
-12 0 1 33.6 6.8
12 0 -1 22.6 4.8
-12 -1 1 32.9 7.9
12 1 -1 39.6 7.2
12 2 -1 13 5
12 3 -1 8.5 5.3
12 4 -1 3.8 4.8
12 5 -1 2.4 4.6
-12 5 0 49.6 7.5
12 -5 0 55.69 13.2
-12 4 0 6.4 3.3
12 -4 0 -0.7 5.1
-12 3 0 160.98 10.3
12 -3 0 147.19 17.5
12 -3 0 144.89 9.1
-12 2 0 20.7 4.7
12 -2 0 13.4 6.1
-12 1 0 265.57 15.2
12 -1 0 251.77 13
-12 0 0 19.5 6.4
12 0 0 24.3 5.5
-12 -1 0 225.78 16.6
12 1 0 273.57 15.7
12 2 0 17.1 5.6
12 3 0 138.19 13.3
12 4 0 10.5 4.4
12 5 0 54.69 10.9
-12 5 -1 0.1 4.2
12 -5 1 4.3 5.8
-12 4 -1 6.3 3.9
12 -4 1 13.9 7.5
-12 3 -1 20.5 5.1
12 -3 1 13 6.9
12 -3 1 20.2 4.5
-12 2 -1 18.2 4.9
12 -2 1 7.8 3
-12 1 -1 35.6 7.1
12 -1 1 44.2 5.7
-12 0 -1 21.5 5.7
12 0 1 24.2 5.2
-12 -1 -1 32.9 7.9
12 1 1 38 6.8
12 2 1 14.6 5
12 3 1 2.5 3.5
12 4 1 6.3 3.6
12 5 1 -3.9 3.2
-12 5 -2 3.3 5.9
12 -5 2 2.3 7.8
-12 4 -2 405.56 19.6
12 -4 2 396.86 31.4
-12 3 -2 6.5 4.3
12 -3 2 13.7 4.1
-12 2 -2 893.61 30.4
12 -2 2 848.82 27.9
-12 1 -2 27.7 6.3
12 -1 2 23.9 5.4
-12 0 -2 1156.08 38.8
12 0 2 1124.59 34.1
12 1 2 23.9 5.8
12 2 2 895.01 33
12 3 2 9.9 5.1
12 4 2 434.96 24.7
12 5 2 -2.7 3.9
12 -5 3 121.69 18.2
12 -4 3 -3.9 3.7
12 -3 3 215.58 14.3
12 -2 3 -0.1 2.4
12 -1 3 313.07 17.2
12 0 3 2.4 2.2
12 1 3 286.17 17.2
12 2 3 1.8 3
12 3 3 231.48 16.9
12 4 3 2.8 3.7
12 5 3 104.09 15.1
12 -3 4 4.4 4.1
12 -2 4 9 4.5
12 -1 4 30.3 7.1
12 0 4 7 4.4
12 1 4 25.6 6.1
12 2 4 3.8 3.5
12 3 4 20.8 6.2
12 4 4 10.3 5.4
12 -3 5 11.7 6.3
12 -2 5 70.09 11.4
12 -1 5 9 5.1
12 0 5 92.99 10.5
12 1 5 24.5 6.6
12 2 5 76.09 12
12 3 5 13 6.4
12 -2 6 12.9 6.3
12 -1 6 20.6 6.1
12 0 6 14.1 5.3
12 1 6 20.9 7.3
12 2 6 8.1 10.4
13 -1 -6 -3 4.6
13 -1 -6 2.9 4.6
13 -1 -6 -2.1 3.1
13 0 -6 33.4 8.3
13 0 -6 43.2 8
13 1 -6 6.5 4.8
13 1 -6 -7.5 3.1
13 -3 -5 32.5 11.3
13 -2 -5 -2.8 1.6
13 -2 -5 5.4 6
13 -2 -5 -0.5 1.6
13 -1 -5 62.09 6.9
13 -1 -5 62.59 12.1
13 0 -5 -1 3.1
13 1 -5 55.39 8.1
13 1 -5 51.89 10.2
13 2 -5 -2.7 5.2
13 3 -5 31.3 9.4
13 -4 -4 11.2 7.7
13 -3 -4 7.8 6.3
13 -2 -4 1.5 1.9
13 -2 -4 3.7 5.4
13 -1 -4 20.2 4.3
13 0 -4 3.8 5
13 0 -4 9.4 3.5
13 1 -4 16.4 6
13 1 -4 22.6 7
13 2 -4 -0.1 5.4
13 2 -4 11.9 4.7
13 3 -4 14.7 3.7
13 3 -4 9.6 5.8
13 -4 -3 61.69 14.4
13 -3 -3 2.6 5.1
13 -2 -3 128.99 7.1
13 -2 -3 131.59 15.7
13 -1 -3 8.3 4.9
13 -1 -3 5.7 2.8
13 0 -3 158.78 15.4
13 0 -3 178.68 12.7
13 1 -3 3.3 3.6
13 1 -3 6.3 4.1
13 2 -3 118.99 12.2
13 2 -3 102.39 11.5
13 3 -3 -5.6 4.7
13 4 -3 74.69 13.4
13 4 -3 54.19 5.9
13 -5 -2 34.5 12.1
13 -4 -2 47.3 13.1
13 -3 -2 99.29 5.5
13 -3 -2 104.69 15.6
13 -2 -2 116.99 15.4
13 -2 -2 93.49 8.1
13 -1 -2 173.28 10.8
13 -1 -2 159.58 17.1
13 0 -2 136.39 10.8
13 0 -2 118.09 14.1
13 1 -2 160.88 15.3
13 1 -2 174.68 13.4
13 2 -2 133.29 12.8
13 3 -2 106.39 12.6
13 4 -2 64.89 12.5
13 5 -2 44.4 10.7
13 -5 -1 21.3 10
-13 4 1 -0.1 1.8
13 -4 -1 -5.7 3.6
-13 3 1 70.99 7
13 -3 -1 63.99 13.6
13 -3 -1 72.89 6
-13 2 1 2.8 2.3
13 -2 -1 6.1 5.6
13 -2 -1 3.2 2.2
-13 1 1 88.39 9.3
13 -1 -1 86.99 12.9
13 -1 -1 102.19 7.9
-13 0 1 -7.5 3.1
13 0 -1 2.9 2.9
-13 -1 1 91.79 10.8
13 1 -1 94.29 9.7
13 2 -1 -6 2.5
13 3 -1 71.89 11.8
13 4 -1 1.6 4.5
13 5 -1 47.9 10.4
-13 5 0 2.2 3.8
13 -5 0 -0.5 6.1
-13 4 0 3.1 3.5
13 -4 0 5.3 5.8
-13 3 0 6.8 3.6
13 -3 0 -2.9 4.2
13 -3 0 -5.7 2
-13 2 0 3.9 3.6
13 -2 0 4.2 4.6
13 -2 0 0.2 2.2
-13 1 0 6.8 4.3
-13 0 0 5 3.4
13 0 0 0.3 2.3
-13 -1 0 -0.9 3.6
13 1 0 -5.3 2.1
13 2 0 6.6 3.7
13 3 0 8.3 4.1
13 4 0 3.9 4.3
13 5 0 -3 4.3
-13 5 -1 35.5 7.5
13 -5 1 29.1 11
-13 4 -1 -3.9 4
13 -4 1 -0.2 5.8
-13 3 -1 80.19 9
13 -3 1 75.99 7.9
13 -3 1 95.09 14.2
-13 2 -1 -5.3 3.3
13 -2 1 3.5 2.3
-13 1 -1 101.19 10.3
13 -1 1 98.09 8.7
-13 0 -1 7.1 4.2
13 1 1 88.19 9.8
13 2 1 3.9 3.7
13 3 1 73.99 11.5
13 4 1 -3.9 1.7
13 5 1 46.5 10.2
13 -5 2 49 13.7
-13 4 -2 46.1 8.2
13 -4 2 55.09 14.1
13 -4 2 57.09 9.1
-13 3 -2 112.99 10.5
13 -3 2 94.59 9.4
-13 2 -2 118.69 11.7
13 -2 2 124.29 10.5
-13 1 -2 175.58 14.4
13 -1 2 176.08 12.6
13 0 2 138.99 11.6
13 1 2 157.58 12.5
13 2 2 113.99 11.6
13 3 2 105.49 11.8
13 4 2 64.79 11.4
13 5 2 48.5 9.4
13 -4 3 59.19 13.3
13 -4 3 59.79 10.2
13 -3 3 6.6 3.6
13 -2 3 128.79 11.1
13 -1 3 6.2 3.5
13 0 3 198.18 14.2
13 1 3 9.5 3.5
13 2 3 117.29 12
13 4 3 63.49 11.3
13 -3 4 8.7 5.6
13 -2 4 5 4.7
13 -1 4 21.7 5.9
13 0 4 8.8 4.4
13 1 4 22.7 6
13 2 4 6.4 3.4
13 3 4 13.6 5.3
13 4 4 7.1 4.8
13 -3 5 20.4 7.4
13 -2 5 3.2 4.5
13 -1 5 65.39 10.5
13 0 5 8.4 4.5
13 1 5 65.69 10.9
13 2 5 -2.4 3.4
13 3 5 41.6 9.4
13 1 6 3.4 5.4
14 -2 -5 28.8 9.5
14 -2 -5 14.3 2.5
14 -2 -5 18 2.7
14 -1 -5 7.6 3.5
14 -1 -5 0.3 7.4
14 0 -5 35.6 7.1
14 0 -5 22.4 7.9
14 1 -5 8.9 5
14 1 -5 12.5 5.4
14 2 -5 23.3 5.7
14 2 -5 13.3 6.9
14 -3 -4 1.6 8.1
14 -2 -4 22.6 8.8
14 -2 -4 28.9 3.7
14 -1 -4 10.8 3.7
14 -1 -4 6.7 6
14 0 -4 30.7 9.3
14 0 -4 27.9 6.4
14 1 -4 14.7 5.8
14 1 -4 11.5 5.8
14 2 -4 33.7 7.2
14 2 -4 18.9 6.8
14 3 -4 12.1 4.1
14 3 -4 8.2 5.8
14 -4 -3 -3 6.4
14 -3 -3 20.5 9.4
14 -2 -3 1.2 5.1
14 -2 -3 7.2 2.5
14 -1 -3 91.19 13.2
14 -1 -3 76.79 7.5
14 0 -3 3.6 3.2
14 0 -3 -2.4 4.3
14 1 -3 102.99 19.5
14 1 -3 104.29 12.1
14 2 -3 -2.5 4.2
14 2 -3 -1.2 4.3
14 3 -3 50.29 8.7
14 3 -3 58.49 11.9
14 4 -3 -2.4 6.1
14 4 -3 3.6 3.9
14 -3 -2 3.2 2.1
14 -3 -2 -2.6 5.8
14 -2 -2 0.1 4.8
14 -2 -2 16.7 3.6
14 -1 -2 19.9 4.9
14 -1 -2 5.7 5.1
14 0 -2 14.8 4.9
14 0 -2 6.3 4.7
14 1 -2 13.7 5.2
14 1 -2 7.1 4
14 2 -2 6.3 4.7
14 3 -2 6.1 4.7
14 4 -2 16.2 6.9
14 -4 -1 71.19 16.1
-14 3 1 68.69 7.2
14 -3 -1 76.69 6.4
14 -3 -1 69.19 15.1
-14 2 1 102.19 9.9
14 -2 -1 115.39 15.7
14 -2 -1 96.59 7.7
14 -1 -1 114.39 9.2
14 -1 -1 117.29 16
-14 0 1 135.49 12.4
14 0 -1 133.29 11
14 1 -1 109.89 10.9
14 2 -1 83.49 12.4
14 3 -1 62.99 11
14 4 -1 62.29 11.9
-14 4 0 106.49 9.8
14 -4 0 121.09 17.2
-14 3 0 -2.3 4.1
14 -3 0 0.3 5.3
-14 2 0 215.28 14.9
14 -2 0 231.78 13
14 -2 0 254.07 23.3
-14 1 0 18.8 5.6
14 -1 0 6.2 3.3
-14 0 0 294.47 19.3
14 0 0 308.27 16.9
14 1 0 11.7 6.1
14 2 0 247.18 17.5
14 3 0 2.1 3.5
14 4 0 90.89 14
14 -4 1 29.9 8.3
-14 3 -1 54.59 8.5
14 -3 1 84.99 17.6
14 -3 1 61.09 6.8
-14 2 -1 92.39 10.2
14 -2 1 102.59 9.1
-14 1 -1 113.39 11.6
14 -1 1 121.59 10
14 0 1 120.79 10.9
14 1 1 118.59 11.3
14 2 1 100.29 11.6
14 3 1 75.39 12
14 4 1 46.2 9.6
14 -4 2 -4 7.9
14 -4 2 -0.8 4.4
14 -3 2 0.1 4.1
14 -2 2 11.1 4.4
14 -1 2 17.8 6.1
14 0 2 19.1 5.5
14 1 2 13.3 4.3
14 2 2 19.4 5.6
14 3 2 10.5 4.9
14 -4 3 2.6 8
14 -4 3 3.6 4.8
14 -3 3 42.7 8.6
14 -2 3 4.2 3.8
14 -1 3 76.19 9.5
14 0 3 2.7 3.7
14 1 3 73.09 9.1
14 2 3 4.7 5
14 3 3 39.6 8.6
14 4 3 -1.4 3.4
14 -3 4 7.7 5.5
14 -2 4 35.1 7.8
14 -1 4 11.1 5.4
14 0 4 30 7.2
14 1 4 13.5 5.1
14 2 4 35 7.6
14 3 4 9.5 5.8
14 -2 5 11 6.2
14 -1 5 8.1 4.6
14 0 5 32.1 8
14 1 5 12.5 5.5
14 2 5 12.9 5
15 0 -5 27.1 9.3
15 0 -5 11.9 5.7
15 -2 -4 2.6 2.1
15 -2 -4 0.6 4.6
15 -1 -4 4.1 6.8
15 -1 -4 11.5 3.8
15 0 -4 2.8 4.2
15 0 -4 -7.2 4.5
15 1 -4 0.7 4.6
15 1 -4 8.6 5.6
15 2 -4 2.4 5
15 2 -4 6.5 5.6
15 -3 -3 75.59 17.2
15 -2 -3 4.8 2.5
15 -2 -3 5.6 5.8
15 -1 -3 109.59 9.1
15 -1 -3 104.49 14.9
15 0 -3 1 3.5
15 0 -3 0.3 5.1
15 1 -3 135.79 12.8
15 1 -3 126.79 14
15 2 -3 -4.1 3.2
15 2 -3 -9.1 4.5
15 3 -3 66.59 10.2
15 3 -3 65.49 12.4
15 -3 -2 15.8 9.7
15 -2 -2 69.69 14.9
15 -2 -2 74.09 6.8
15 -1 -2 6.1 3.5
15 -1 -2 7 6
15 0 -2 73.69 10.2
15 0 -2 77.39 14.3
15 1 -2 5.8 5.1
15 1 -2 3.2 4
15 2 -2 45.4 9.6
15 3 -2 3.9 5
15 -4 -1 62.69 16
-15 3 1 25.7 5.7
15 -3 -1 23.4 4.4
15 -3 -1 14.7 7.4
-15 2 1 91.69 10.3
15 -2 -1 89.39 7.8
15 -2 -1 100.29 19
-15 1 1 34 8.1
15 -1 -1 28 10.1
15 0 -1 111.69 10.6
15 1 -1 59.89 9.8
15 2 -1 106.29 12.2
15 3 -1 19.1 6.8
15 4 -1 37.5 10.2
-15 4 0 5.5 5.8
15 -4 0 0.7 7.3
-15 3 0 -4.3 5.5
15 -3 0 3.8 3.2
15 -3 0 -0.1 5.2
-15 2 0 -2.1 5.6
15 -2 0 2.8 6.5
15 -2 0 -4.9 2.1
-15 1 0 -3 5.4
15 1 0 2.1 3.3
15 2 0 -4 3.3
15 3 0 5.7 4.2
15 4 0 1.2 4.4
-15 4 -1 44.3 8.9
15 -4 1 49.4 14.2
15 -4 1 53.39 8.2
-15 3 -1 5.2 6.1
15 -3 1 43.1 13.2
15 -3 1 26.2 5.4
-15 2 -1 66.99 13.7
15 -2 1 102.29 9.5
15 0 1 102.09 10.3
15 1 1 61.09 9.9
15 2 1 107.89 12.2
15 3 1 30.1 7.9
15 4 1 62.19 10.6
15 -3 2 4.3 4.7
15 -2 2 67.89 9.7
15 -1 2 4.9 3.6
15 0 2 83.09 9.5
15 1 2 0 3.2
15 2 2 46.3 9.3
15 3 2 7.6 5.5
15 -3 3 69.89 10.8
15 -2 3 -4.7 3.8
15 -1 3 111.29 11.5
15 0 3 -3.3 3.7
15 1 3 147.79 13.2
15 2 3 5.1 4.7
15 3 3 77.19 12.7
15 -2 4 -10 3.4
15 -1 4 -0.2 3.5
15 0 4 9.6 4.5
15 1 4 -2.6 3.1
15 2 4 5 4.6
15 0 5 6.9 5.1
16 0 -4 5 6.2
16 0 -4 6.4 5
16 -2 -3 1.7 2.8
16 -2 -3 -2.7 6.5
16 -1 -3 1.1 7.3
16 -1 -3 0.9 3.3
16 0 -3 -6.2 6.2
16 1 -3 0 4.6
16 1 -3 -4.1 4.7
16 2 -3 2.3 5.9
16 2 -3 4.7 4.8
16 -2 -2 1.7 6.6
16 -1 -2 99.59 18.3
16 -1 -2 95.89 8.6
16 0 -2 7.6 6.2
16 0 -2 4.3 4
16 1 -2 79.49 15.1
16 1 -2 96.79 10.3
16 2 -2 6.1 4.3
16 2 -2 5.4 6.5
16 -3 -1 -4.6 2.5
16 -3 -1 6.6 6.6
16 -2 -1 8.4 4
16 -2 -1 12.5 8.2
-16 1 1 -6.2 4.5
16 -1 -1 0.2 2.7
16 -1 -1 -4.7 6
16 0 -1 26.4 9.1
16 0 -1 18.8 6.2
16 1 -1 0.6 4.3
16 2 -1 16.8 6.3
16 3 -1 0 5.7
-16 3 0 4.6 7
16 -3 0 11 3.9
16 -3 0 1.5 7.4
-16 2 0 2 6.2
16 -2 0 -1.1 2.9
16 -2 0 6.7 6.7
16 0 0 2.6 3.1
16 1 0 15.2 6.6
16 2 0 6.3 5
16 3 0 -2.8 6.1
16 -3 1 -7.3 5.4
16 -3 1 -5.1 4.2
16 -2 1 11.6 4.9
16 -1 1 6.7 4
16 0 1 41.7 7.9
16 1 1 5.3 4
16 2 1 2.6 4.8
16 3 1 -8.6 4
16 -2 2 0.3 3.6
16 -1 2 94.29 10.5
16 0 2 2.2 3.8
16 1 2 95.19 11.6
16 2 2 0.7 3.9
16 -2 3 -4.9 5.3
16 -1 3 7.5 4.9
16 0 3 0.1 3.7
16 2 3 -8.8 3.6
17 -1 -2 21.9 6.1
17 -1 -2 36.1 12.7
17 0 -2 29.4 10.7
17 0 -2 18.9 6.4
17 1 -2 31.4 7.2
17 1 -2 38.1 10.1
17 -2 -1 16.5 4.3
17 -1 -1 28.4 11.2
17 -1 -1 18.6 5.5
17 0 -1 10.8 8.6
17 0 -1 10.5 4.5
17 1 -1 16.8 6.5
17 2 -1 13.3 5.9
17 -2 0 13.8 8.4
17 -2 0 11.2 8.6
17 -1 0 -2 5.5
17 -1 0 5.2 3.3
17 0 0 2.9 4
17 1 0 2.1 4.6
17 2 0 0.1 4.3
17 -2 1 20.5 9.9
17 -2 1 0.9 3.9
17 -1 1 14 6.1
17 0 1 11.5 5.5
17 1 1 28.6 7.1
17 -1 2 33.5 7.1
17 0 2 9.8 5.2
17 1 2 38.1 7.7
