#------------------------------------------------------------------------------
#$Date: 2022-09-02 10:46:28 +0300 (Fri, 02 Sep 2022) $
#$Revision: 277586 $
#$URL: file:///home/coder/svn-repositories/cod/cif/8/10/57/8105749.cif $
#------------------------------------------------------------------------------
#
# This file is available in the Crystallography Open Database (COD),
# http://www.crystallography.net/
#
# All data on this site have been placed in the public domain by the
# contributors.
#
data_8105749
loop_
_publ_author_name
'Zhou, Meng-Shu'
'Fu, Hong-Ru'
_publ_section_title
;
 Crystal structure of 1H-1,2,3-Triazolo[4,5-b]-pyridin-4-ium nitrate,
 C5H5N5O3
;
_journal_issue                   4
_journal_name_full
'Zeitschrift f\"ur Kristallographie - New Crystal Structures'
_journal_page_first              557
_journal_page_last               558
_journal_paper_doi               10.1515/ncrs-2022-0145
_journal_volume                  237
_journal_year                    2022
_chemical_formula_moiety         'N O3, C5 H5 N4'
_chemical_formula_sum            'C5 H5 N5 O3'
_chemical_formula_weight         183.14
_chemical_name_systematic        PC-5--Py-Trz+NO3
_space_group_crystal_system      orthorhombic
_space_group_IT_number           62
_space_group_name_Hall           '-P 2ac 2n'
_space_group_name_H-M_alt        'P n m a'
_atom_sites_solution_hydrogens   geom
_atom_sites_solution_primary     iterative
_cell_angle_alpha                90
_cell_angle_beta                 90
_cell_angle_gamma                90
_cell_formula_units_Z            4
_cell_length_a                   13.4643(13)
_cell_length_b                   6.2866(10)
_cell_length_c                   9.1138(9)
_cell_measurement_reflns_used    902
_cell_measurement_temperature    293(2)
_cell_measurement_theta_max      25.8580
_cell_measurement_theta_min      4.1940
_cell_volume                     771.43(16)
_computing_cell_refinement       'CrysAlisPro 1.171.41.121a (Rigaku OD, 2021)'
_computing_data_collection       'CrysAlisPro 1.171.41.121a (Rigaku OD, 2021)'
_computing_data_reduction        'CrysAlisPro 1.171.41.121a (Rigaku OD, 2021)'
_computing_molecular_graphics    'Olex2 (Dolomanov et al., 2009)'
_computing_publication_material  'Olex2 (Dolomanov et al., 2009)'
_computing_structure_refinement  'ShelXL (Sheldrick, 2015)'
_computing_structure_solution    'olex2.solve (Bourhis et al., 2015)'
_diffrn_ambient_temperature      293(2)
_diffrn_detector                 'CCD plate'
_diffrn_detector_area_resol_mean 8.0584
_diffrn_detector_type            EosS2
_diffrn_measured_fraction_theta_full 0.995
_diffrn_measured_fraction_theta_max 0.888
_diffrn_measurement_details
;
List of Runs (angles in degrees, time in seconds):

  # Type    Start    End  Width  t~exp~   \w     \q     \k     \f   Frames
--------------------------------------------------------------------------
  1  \w    -25.00  42.00   1.00   18.77    --  -15.84  77.00-180.00   67
  2  \w      0.00  42.00   1.00   18.77    --   17.09  77.00 -60.00   42
  3  \w     56.00  86.00   1.00   18.77    --   17.09 178.00  60.00   30
;
_diffrn_measurement_device       'four-circle diffractometer'
_diffrn_measurement_device_type  'SuperNova, Single source at offset/far, EosS2'
_diffrn_measurement_method       '\w scans'
_diffrn_orient_matrix_type
'CrysAlisPro convention (1999,Acta A55,543-557)'
_diffrn_orient_matrix_UB_11      -0.0082440000
_diffrn_orient_matrix_UB_12      0.0765141000
_diffrn_orient_matrix_UB_13      0.0560246000
_diffrn_orient_matrix_UB_21      -0.0507028000
_diffrn_orient_matrix_UB_22      -0.0301489000
_diffrn_orient_matrix_UB_23      0.0030385000
_diffrn_orient_matrix_UB_31      0.0114978000
_diffrn_orient_matrix_UB_32      -0.0774983000
_diffrn_orient_matrix_UB_33      0.0538488000
_diffrn_radiation_monochromator  mirror
_diffrn_radiation_probe          x-ray
_diffrn_radiation_type           MoK\a
_diffrn_radiation_wavelength     0.71073
_diffrn_reflns_av_R_equivalents  0.0121
_diffrn_reflns_av_unetI/netI     0.0148
_diffrn_reflns_Laue_measured_fraction_full 0.995
_diffrn_reflns_Laue_measured_fraction_max 0.888
_diffrn_reflns_limit_h_max       16
_diffrn_reflns_limit_h_min       -18
_diffrn_reflns_limit_k_max       6
_diffrn_reflns_limit_k_min       -8
_diffrn_reflns_limit_l_max       12
_diffrn_reflns_limit_l_min       -11
_diffrn_reflns_number            2217
_diffrn_reflns_point_group_measured_fraction_full 0.995
_diffrn_reflns_point_group_measured_fraction_max 0.888
_diffrn_reflns_theta_full        25.242
_diffrn_reflns_theta_max         28.920
_diffrn_reflns_theta_min         3.763
_diffrn_source                   'micro-focus sealed X-ray tube'
_diffrn_source_type              'SuperNova (Mo) X-ray Source'
_exptl_absorpt_coefficient_mu    0.133
_exptl_absorpt_correction_T_max  0.974
_exptl_absorpt_correction_T_min  0.953
_exptl_absorpt_correction_type   multi-scan
_exptl_absorpt_process_details
;
CrysAlisPro 1.171.41.121a (Rigaku Oxford Diffraction, 2021)
Empirical absorption correction using spherical harmonics,
implemented in SCALE3 ABSPACK scaling algorithm.
;
_exptl_crystal_colour            'clear light colourless'
_exptl_crystal_colour_lustre     clear
_exptl_crystal_colour_modifier   light
_exptl_crystal_colour_primary    colourless
_exptl_crystal_density_diffrn    1.577
_exptl_crystal_description       plate
_exptl_crystal_F_000             376
_exptl_crystal_size_max          0.4
_exptl_crystal_size_mid          0.3
_exptl_crystal_size_min          0.2
_refine_diff_density_max         0.281
_refine_diff_density_min         -0.121
_refine_diff_density_rms         0.047
_refine_ls_extinction_coef       .
_refine_ls_extinction_method     none
_refine_ls_goodness_of_fit_ref   1.190
_refine_ls_hydrogen_treatment    constr
_refine_ls_matrix_type           full
_refine_ls_number_parameters     79
_refine_ls_number_reflns         984
_refine_ls_number_restraints     0
_refine_ls_restrained_S_all      1.190
_refine_ls_R_factor_all          0.0680
_refine_ls_R_factor_gt           0.0517
_refine_ls_shift/su_max          0.000
_refine_ls_shift/su_mean         0.000
_refine_ls_structure_factor_coef Fsqd
_refine_ls_weighting_details
'w=1/[\s^2^(Fo^2^)+(0.0512P)^2^+0.1099P] where P=(Fo^2^+2Fc^2^)/3'
_refine_ls_weighting_scheme      calc
_refine_ls_wR_factor_gt          0.1225
_refine_ls_wR_factor_ref         0.1317
_reflns_Friedel_coverage         0.000
_reflns_Friedel_fraction_full    .
_reflns_Friedel_fraction_max     .
_reflns_number_gt                741
_reflns_number_total             1108
_reflns_threshold_expression     'I > 2\s(I)'
_cod_data_source_file            suppl_j_ncrs-2022-0145_suppl.cif
_cod_data_source_block           2
_cod_database_code               8105749
_shelx_space_group_comment
;
The symmetry employed for this shelxl refinement is uniquely defined
by the following loop, which should always be used as a source of
symmetry information in preference to the above space-group names.
They are only intended as comments.
;
_shelx_estimated_absorpt_t_max   0.974
_shelx_estimated_absorpt_t_min   0.949
_reflns_odcompleteness_completeness 99.16
_reflns_odcompleteness_iscentric 1
_reflns_odcompleteness_theta     26.32
_olex2_refinement_description
;
1. Fixed Uiso
 At 1.2 times of:
  All C(H) groups, All N(H) groups
2.a Aromatic/amide H refined with riding coordinates:
 N1(H1), N4(H4), C5(H5), C1(H1A), C2(H2)
;
_shelx_res_file
;
    pc-5_auto.res created by SHELXL-2014/7

TITL pc-5_auto_a.res in Pnma
REM Old TITL PC-5_auto in Pnma
REM SHELXT solution in Pnma
REM R1 0.183, Rweak 0.093, Alpha 0.047, Orientation as input
REM Formula found by SHELXT: C10 O3
CELL 0.71073 13.4643 6.2866 9.1138 90 90 90
ZERR 4 0.0013 0.001 0.0009 0 0 0
LATT 1
SYMM 0.5-X,-Y,0.5+Z
SYMM -X,0.5+Y,-Z
SYMM 0.5+X,0.5-Y,0.5-Z
SFAC C H N O
UNIT 20 20 20 12

L.S. 50 0 0
PLAN  5
SIZE 0.2 0.3 0.4
CONF
BOND $H
list 4
MORE -1
fmap 2 53
acta
REM <olex2.extras>
REM <HklSrc "%.\\PC-5_auto.hkl">
REM </olex2.extras>

WGHT    0.051200    0.109900
FVAR       0.38774
O3    4    0.582438    0.250000    0.499435    10.50000    0.05462    0.11015 =
         0.04975    0.00000   -0.00619    0.00000
O1    4    0.636415    0.250000    0.276740    10.50000    0.06980    0.07388 =
         0.06890    0.00000    0.02347    0.00000
O2    4    0.479446    0.250000    0.321197    10.50000    0.05654    0.11394 =
         0.05632    0.00000   -0.01219    0.00000
N5    3    0.567125    0.250000    0.362506    10.50000    0.05491    0.05356 =
         0.05110    0.00000   -0.00056    0.00000
N1    3    0.778293    0.250000    0.566984    10.50000    0.04456    0.06242 =
         0.05735    0.00000   -0.00567    0.00000
AFIX  43
H1    2    0.719370    0.250000    0.530563    10.50000   -1.20000
AFIX   0
N4    3    0.866649    0.250000    0.917421    10.50000    0.04745    0.06804 =
         0.05340    0.00000   -0.00282    0.00000
AFIX  43
H4    2    0.911611    0.250000    0.984443    10.50000   -1.20000
AFIX   0
N2    3    0.721871    0.250000    0.818472    10.50000    0.04223    0.08266 =
         0.06173    0.00000    0.00393    0.00000
N3    3    0.768992    0.250000    0.943195    10.50000    0.05068    0.08759 =
         0.06092    0.00000    0.00857    0.00000
C3    1    0.791308    0.250000    0.712276    10.50000    0.03959    0.04740 =
         0.05281    0.00000   -0.00165    0.00000
C4    1    0.885206    0.250000    0.771521    10.50000    0.04151    0.04095 =
         0.05206    0.00000   -0.00256    0.00000
C5    1    0.969040    0.250000    0.683924    10.50000    0.03998    0.05055 =
         0.06307    0.00000    0.00419    0.00000
AFIX  43
H5    2    1.032804    0.250000    0.723151    10.50000   -1.20000
AFIX   0
C1    1    0.952260    0.250000    0.536011    10.50000    0.05018    0.05304 =
         0.06215    0.00000    0.01447    0.00000
AFIX  43
H1A   2    1.006085    0.250000    0.472061    10.50000   -1.20000
AFIX   0
C2    1    0.856858    0.250000    0.479351    10.50000    0.06306    0.06019 =
         0.05059    0.00000    0.00245    0.00000
AFIX  43
H2    2    0.847750    0.250000    0.378199    10.50000   -1.20000
AFIX   0
HKLF 4

REM  pc-5_auto_a.res in Pnma
REM R1 =  0.0517 for     741 Fo > 4sig(Fo)  and  0.0680 for all     984 data
REM     79 parameters refined using      0 restraints

END

WGHT      0.0514      0.1107

REM Highest difference peak  0.281,  deepest hole -0.121,  1-sigma level  0.047
Q1    1   0.8407  0.2500  0.7403  10.50000  0.05    0.28
Q2    1   0.9176  0.2500  0.7271  10.50000  0.05    0.20
Q3    1   0.8994  0.2500  0.5519  10.50000  0.05    0.20
Q4    1   0.5180  0.2500  0.5281  10.50000  0.05    0.20
Q5    1   0.8933  0.2500  0.8264  10.50000  0.05    0.19
;
_shelx_res_checksum              67664
_shelx_hkl_file
;
   0   0  -2    2.02    0.12
   0   0   2    2.00    0.12
   0   0   3    0.03    0.04
   0   0   4  244.92    1.92
   0   0   4  253.92    2.24
   0   0   5   -0.04    0.09
   0   0   5   -0.05    0.06
   0   0   6   19.05    0.77
   0   0   6   18.56    0.66
   0   0   7   -0.03    0.06
   0   0   8    9.28    0.66
   0   0   9    0.02    0.15
   0   0  10    0.79    0.22
   0   0  11    0.20    0.17
   0   0  12    0.65    0.25
   0  -1  -1  258.72    1.80
   0   1   1  254.78    1.80
   0   1  -1  258.43    1.73
   0   1  -2    0.02    0.04
   0   1  -3  111.32    1.38
   0   1  -3  116.61    1.16
   0   1  -4    0.34    0.12
   0  -1   4    0.38    0.11
   0   1  -4    0.18    0.08
   0   1  -5  175.71    1.75
   0   1   5  176.69    2.10
   0  -1   5  180.57    2.23
   0   1  -6    0.05    0.07
   0  -1   6    0.02    0.09
   0  -1   7    3.70    0.39
   0   1  -7    3.84    0.33
   0  -1   8    0.16    0.13
   0  -1   9   14.29    0.90
   0   1   9   13.14    0.82
   0   1  10    0.07    0.09
   0  -1  10    0.16    0.16
   0   1  11    1.14    0.30
   0   1  12    0.47    0.25
   0   2   0 9968.77   15.55
   0  -2   0 9999.00   15.09
   0   2  -1    0.38    0.14
   0  -2  -1    0.54    0.19
   0  -2  -2    0.03    0.07
   0   2  -2    0.12    0.07
   0   2   2    0.11    0.07
   0  -2  -3   -0.04    0.06
   0  -2  -4  123.96    1.94
   0   2  -5    0.13    0.08
   0   2  -6    8.57    0.44
   0   2  -7    0.00    0.05
   0   2  -8    6.22    0.43
   0   2  11    0.12    0.14
   0   2  12    0.04    0.10
   0  -3   0    0.27    0.14
   0   3   0    0.12    0.10
   0  -3  -1   66.52    1.52
   0  -3   1   66.19    1.50
   0   3  -1   66.13    1.56
   0   3   1   68.05    1.64
   0  -3  -2    0.20    0.13
   0  -3  -3   30.12    1.09
   0  -3  -4    0.51    0.22
   0  -3  -5   68.15    1.80
   0   3  -6    0.04    0.07
   0  -3  -6    0.09    0.13
   0   3  -7    2.56    0.28
   0  -3  -7    3.08    0.43
   0   3  -8    0.10    0.11
   0  -3  -8    0.18    0.15
   0  -3  -9    7.90    0.74
   0  -3 -10    0.25    0.16
   0  -4   0 1403.00    7.84
   0  -4   1    0.04    0.14
   0  -4  -1    0.26    0.14
   0  -4  -2    0.62    0.21
   0  -4  -3    0.19    0.14
   0  -4  -4   27.19    1.22
   0  -4  -5    0.10    0.14
   0  -4  -6    0.75    0.21
   0  -4  -7    0.15    0.11
   0   4  -7   -0.15    0.12
   0  -4  -8    2.41    0.43
   0   4  -8    2.24    0.31
   0  -4  -9    0.06    0.13
   0  -4 -10    0.02    0.17
   0  -5   0    8.20    0.71
   0  -5  -1   16.07    1.00
   0  -5   1   16.04    0.96
   0  -5  -2    0.07    0.14
   0  -5  -3    1.36    0.33
   0  -5  -4    0.25    0.21
   0  -5  -5   13.31    0.98
   0  -5  -6    0.27    0.20
   0  -5  -7    0.84    0.28
   0  -5  -8   -0.34    0.17
   0  -5  -9    1.94    0.42
   0  -6   0  208.05    3.77
   0  -6   1    0.16    0.19
   0  -6  -1    0.37    0.26
   0  -6  -2    0.30    0.14
   0  -6  -3    0.02    0.16
   0  -6  -4    3.35    0.56
   0  -6  -5    0.40    0.23
   0  -6  -6    0.02    0.14
   0  -6  -7    0.16    0.14
   0  -6  -8    0.08    0.15
   0  -7   0   42.80    1.88
   0  -7  -1    3.76    0.60
   0  -7  -2    0.05    0.19
   0  -7  -3    0.07    0.15
   0  -7  -4    0.34    0.22
   0  -7  -5    1.55    0.43
   0  -7  -6   -0.32    0.22
  -1   0  -2  206.10    1.39
   1   0   2  208.61    1.41
  -1   0   2  203.46    1.07
  -1   0   3   79.77    0.83
   1   0   3   78.65    1.02
  -1   0  -3   80.10    1.02
  -1   0   4    2.69    0.19
   1   0   4    2.69    0.21
  -1   0   4    2.99    0.23
  -1   0  -4    2.49    0.22
  -1   0   5    3.04    0.26
   1   0   5    2.82    0.25
  -1   0   5    3.07    0.23
   1   0   5    3.13    0.30
  -1   0   6    3.68    0.28
  -1   0   6    4.16    0.34
   1   0   6    4.45    0.39
  -1   0   7    1.29    0.21
  -1   0   7    1.41    0.19
   1   0   7    1.32    0.24
   1   0   8    0.14    0.14
  -1   0   8    0.21    0.13
  -1   0   9    3.49    0.42
   1   0   9    3.84    0.47
   1   0  10    0.58    0.22
  -1   0  10    0.49    0.18
   1   0  11    0.05    0.12
  -1   0  11    0.09    0.10
   1   0  12   -0.14    0.14
   1   1   0    0.03    0.04
  -1   1   0    0.01    0.03
   1  -1   0   -0.02    0.03
  -1  -1  -1   85.95    0.98
   1   1   1   85.47    1.00
   1  -1   1   86.60    1.04
  -1   1  -1   87.44    1.04
   1  -1  -1   88.24    1.06
  -1  -1  -2  315.31    2.05
  -1   1  -2  318.09    2.19
   1  -1   3   43.07    0.91
   1   1  -3   41.72    0.60
   1   1  -3   40.72    0.80
  -1   1  -3   42.02    0.78
  -1   1  -3   40.07    0.86
   1   1  -4  209.87    2.04
   1   1  -4  215.03    1.56
  -1   1  -4  214.83    1.92
   1   1   4  214.13    2.15
   1  -1   4  215.00    2.27
  -1   1  -4  204.19    2.19
  -1   1  -5   36.32    0.87
   1   1   5   35.62    0.96
  -1   1   5   34.87    0.88
   1   1  -5   34.34    0.71
  -1  -1   5   35.73    0.97
   1  -1   5   35.13    1.03
   1   1  -6    6.47    0.36
  -1  -1   6    6.31    0.45
  -1   1  -6    6.14    0.39
   1  -1   6    6.62    0.50
  -1   1   6    6.74    0.42
   1  -1   7    3.24    0.37
  -1   1  -7    3.64    0.33
  -1  -1   7    3.65    0.38
  -1  -1   8    5.00    0.49
   1  -1   8    5.67    0.54
  -1   1   8    5.35    0.48
  -1  -1   9    8.06    0.67
   1  -1   9    6.65    0.62
  -1   1   9    6.01    0.55
   1   1   9    7.01    0.63
  -1   1  10    0.18    0.15
   1   1  10    0.16    0.10
   1  -1  10    0.08    0.11
   1   1  11    0.84    0.26
   1  -1  11    0.70    0.25
  -1   1  11    0.73    0.23
   1   1  12    0.02    0.13
  -1   2   0   -0.20    0.11
   1   2   0    0.21    0.16
   1  -2   1   47.96    1.08
  -1  -2  -1   48.47    1.04
  -1   2   1   51.44    1.14
   1  -2  -1   51.00    1.12
   1   2   1   48.68    1.09
  -1   2  -1   50.35    1.10
   1   2  -1   48.99    1.08
   1  -2  -2  100.33    1.66
  -1   2  -2  100.73    1.58
  -1  -2  -2   95.99    1.52
   1   2  -2   99.88    1.57
   1   2   2   96.48    1.55
  -1   2  -3   43.28    1.06
   1  -2  -3   42.97    1.13
  -1   2  -3   44.08    1.10
  -1  -2  -3   43.76    1.10
  -1  -2  -4    1.45    0.22
   1   2  -4    1.54    0.21
  -1  -2  -5    0.50    0.13
  -1   2  -5    0.63    0.13
   1   2  -5    0.44    0.10
  -1   2  -6    2.14    0.25
   1   2  -6    1.87    0.19
  -1  -2  -6    2.07    0.28
  -1   2  -7    0.62    0.15
   1   2  -7    0.70    0.13
  -1   2  -8    0.16    0.13
   1   2  -8    0.01    0.05
  -1   2  -9    2.91    0.34
   1   2  11    0.30    0.16
  -1   2  11   -0.09    0.12
   1   2  12   -0.10    0.16
   1   3   0   -0.08    0.10
  -1  -3   0    0.02    0.08
  -1   3   0   -0.05    0.09
   1  -3   0   -0.11    0.13
   1   3   1   23.46    0.96
   1  -3  -1   24.29    0.94
   1  -3   1   24.64    0.93
  -1  -3  -1   23.90    0.90
  -1   3  -1   23.62    0.95
  -1  -3   1   25.30    0.91
   1  -3  -2   83.13    1.78
   1   3   2   80.59    1.75
   1  -3   2   83.66    1.71
  -1  -3  -2   79.93    1.67
  -1  -3  -3    8.73    0.57
   1  -3  -3    8.85    0.61
   1  -3  -4   61.64    1.67
  -1  -3  -4   61.97    1.59
   1  -3  -5   12.99    0.80
  -1  -3  -5   14.06    0.80
   1   3  -6    1.87    0.22
  -1   3  -6    1.76    0.24
   1  -3  -6    2.01    0.35
  -1  -3  -6    2.17    0.34
  -1  -3  -7    0.95    0.24
   1  -3  -7    1.08    0.26
   1   3  -7    0.86    0.16
  -1   3  -7    1.36    0.22
   1   3  -8    2.43    0.27
   1  -3  -8    2.83    0.43
  -1  -3  -8    2.88    0.43
  -1   3  -8    2.55    0.32
  -1   3  -9    2.28    0.30
  -1  -3  -9    2.52    0.41
   1  -3  -9    2.45    0.43
  -1  -3 -10    0.13    0.13
   1  -3 -10   -0.17    0.15
   1  -3 -11    0.59    0.23
  -1  -4   0    2.85    0.53
   1  -4   0    3.88    0.54
   1  -4   1    3.61    0.42
  -1  -4  -1    3.81    0.43
   1  -4  -2   14.35    0.85
  -1  -4  -2   13.58    0.80
   1  -4   2   13.36    0.79
  -1  -4  -3    9.70    0.70
   1  -4  -3    9.99    0.73
  -1  -4  -4    0.29    0.19
   1  -4  -4    0.28    0.19
  -1  -4  -5    0.48    0.21
   1  -4  -5    0.07    0.11
   1  -4  -6    0.21    0.14
  -1  -4  -6    0.35    0.18
   1  -4  -7   -0.05    0.15
   1   4  -7    0.05    0.07
  -1  -4  -7    0.23    0.16
  -1   4  -7    0.03    0.08
   1  -4  -8    0.07    0.19
  -1   4  -8    0.28    0.15
  -1  -4  -8    0.00    0.16
  -1  -4  -9    0.68    0.25
   1  -4  -9    1.22    0.32
   1  -4 -10    0.32    0.21
   1  -5   0   -0.34    0.16
  -1  -5   0    0.01    0.10
   1  -5   1    4.44    0.51
  -1  -5  -1    4.32    0.52
   1  -5  -1    4.46    0.53
  -1  -5  -2    9.98    0.78
   1  -5  -2   10.80    0.81
  -1  -5  -3    0.62    0.23
   1  -5  -3    0.99    0.31
  -1  -5  -4    7.58    0.71
   1  -5  -4    7.72    0.75
   1  -5  -5    2.46    0.44
  -1  -5  -5    2.56    0.45
   1  -5  -6   -0.09    0.15
  -1  -5  -6    0.48    0.19
   1  -5  -7   -0.13    0.17
  -1  -5  -7    0.34    0.25
  -1  -5  -8    0.39    0.20
   1  -5  -8    1.21    0.34
  -1  -5  -9    0.86    0.29
   1  -5  -9    0.33    0.18
   1  -5 -10    0.13    0.20
   1  -6   0    1.47    0.40
  -1  -6   0    1.74    0.43
   1  -6  -1    0.12    0.24
   1  -6   1    0.48    0.27
  -1  -6  -1    0.65    0.28
  -1  -6  -2    1.19    0.32
   1  -6  -2    0.47    0.20
   1  -6  -3    1.12    0.31
  -1  -6  -3    1.74    0.37
  -1  -6  -4    0.42    0.24
   1  -6  -4    0.24    0.22
   1  -6  -5    0.72    0.30
  -1  -6  -5    0.69    0.29
  -1  -6  -6   -0.05    0.13
   1  -6  -6    0.17    0.15
   1  -6  -7   -0.07    0.14
  -1  -6  -7   -0.10    0.11
   1  -6  -8   -0.12    0.17
  -1  -6  -8    0.25    0.23
  -1  -7   0    0.73    0.28
   1  -7   0    0.49    0.26
  -1  -7  -1    0.96    0.33
   1  -7  -1    0.75    0.27
   1  -7   1    0.90    0.35
  -1  -7  -2    1.21    0.37
   1  -7  -2    1.05    0.32
   1  -7  -3   -0.06    0.22
  -1  -7  -3    0.19    0.20
  -1  -7  -4    0.87    0.34
   1  -7  -4    1.15    0.33
  -1  -7  -5    0.78    0.25
   1  -7  -5    0.16    0.22
   1  -7  -6    0.02    0.17
  -1  -7  -6   -0.05    0.18
  -2   0  -1  881.35    2.77
   2   0   1  883.80    2.73
  -2   0  -2   12.46    0.39
   2   0   2   12.37    0.38
  -2   0   2   12.82    0.27
   2   0   3    0.74    0.11
  -2   0  -3    0.85    0.12
  -2   0   3    1.04    0.09
  -2   0   3    0.71    0.08
  -2   0   4    0.54    0.08
  -2   0  -4    0.81    0.14
   2   0   4    0.50    0.11
  -2   0   4    0.49    0.09
  -2   0  -5   69.35    1.32
   2   0   5   71.96    1.47
   2   0   5   69.05    1.31
  -2   0   5   67.49    0.97
  -2   0   5   69.53    1.20
  -2   0   6   76.13    1.14
   2   0   6   81.22    1.72
  -2   0   6   78.05    1.45
   2   0   7   10.08    0.66
  -2   0   7   10.07    0.46
  -2   0   7   10.66    0.60
  -2   0   8   10.13    0.64
   2   0   8   10.31    0.72
  -2   0   9    0.23    0.11
   2   0   9    0.41    0.17
   2   0  10    0.39    0.21
  -2   0  10    0.29    0.16
  -2   0  11    0.25    0.13
   2   0  11   -0.01    0.13
   2   0  12    0.41    0.24
  -2   1   0  193.78    1.61
   2  -1   0  190.01    1.65
   2  -1   1  474.67    2.51
   2   1   1  475.18    2.28
  -2   1  -1  473.59    2.46
  -2   1  -1  474.04    2.46
  -2  -1  -1  475.20    2.12
  -2   1  -2   62.48    1.01
   2  -1   2   63.81    1.03
  -2  -1  -2   60.49    0.84
  -2   1  -2   60.20    0.89
  -2   1  -3   57.80    1.00
   2   1   3   54.40    1.02
   2   1  -3   53.52    0.87
   2   1  -3   55.67    0.56
   2  -1   3   55.68    1.08
  -2   1  -3   54.44    1.05
  -2  -1  -3   53.48    0.88
   2   1  -4    0.06    0.04
   2   1   4    0.09    0.06
   2  -1   4    0.05    0.06
  -2   1  -4    0.07    0.06
   2   1  -4    0.03    0.02
   2   1  -5    0.36    0.08
   2  -1   5    0.36    0.12
  -2   1  -5    0.50    0.15
  -2   1   6   23.19    0.75
  -2   1  -6   23.10    0.80
   2  -1   6   23.03    0.94
  -2  -1   7    5.60    0.45
   2  -1   7    6.10    0.53
  -2   1  -7    5.84    0.44
   2  -1   8   12.69    0.82
  -2   1   8   11.47    0.68
  -2   1  -8   12.36    0.69
   2   1   9    2.79    0.40
   2  -1   9    3.27    0.45
  -2   1   9    3.16    0.39
   2   1  10    0.33    0.17
  -2   1  10    0.15    0.13
   2  -1  10    0.42    0.21
   2   1  11    1.29    0.31
   2  -1  11    1.61    0.35
  -2   1  11    1.66    0.34
   2   1  12    0.17    0.17
   2   2   0    0.08    0.08
  -2  -2   0   -0.14    0.12
  -2   2   0   -0.04    0.09
   2   2   1  440.49    3.27
   2  -2   1  447.51    3.37
  -2   2   1  457.21    3.35
  -2  -2  -1  442.95    3.03
   2   2  -1  447.05    3.25
   2  -2  -1  446.93    3.44
  -2   2  -1  453.56    3.34
  -2  -2  -2    6.02    0.36
   2  -2   2    6.08    0.39
  -2   2  -2    5.46    0.37
   2  -2  -2    6.52    0.44
   2   2   2    6.16    0.39
  -2   2  -3    0.88    0.16
   2  -2  -3    0.74    0.16
  -2  -2  -3    0.75    0.14
  -2   2  -3    0.77    0.15
   2   2  -4    0.56    0.12
  -2   2  -4    0.65    0.16
  -2  -2  -4    0.56    0.14
  -2  -2  -5   38.57    1.12
   2   2  -5   36.56    0.73
  -2   2  -5   38.09    1.01
  -2  -2  -6   45.78    1.28
   2   2  -6   43.93    0.85
  -2   2  -6   45.94    1.17
  -2   2  -7    7.34    0.50
   2   2  -7    6.90    0.36
  -2  -2  -7    6.58    0.51
  -2  -2  -8    6.13    0.51
  -2   2  -8    6.52    0.49
  -2  -2  -9    0.31    0.14
  -2   2  -9    0.30    0.15
  -2   2  10    0.08    0.10
  -2   2  11    0.31    0.17
   2   2  11    0.28    0.21
   2  -3   0   51.27    1.38
  -2  -3   0   50.81    1.26
   2   3   0   52.07    1.40
   2  -3  -1  110.76    2.04
  -2  -3  -1  111.47    1.87
   2   3   1  111.14    2.06
  -2   3  -1  112.79    2.06
   2  -3   1  112.08    2.05
   2  -3   2   19.60    0.85
  -2  -3  -2   19.05    0.79
   2  -3  -2   19.24    0.89
   2   3   2   18.54    0.84
   2   3   3   15.30    0.74
  -2  -3  -3   15.08    0.72
   2  -3  -3   15.95    0.84
  -2  -3  -4    0.86    0.20
   2  -3  -4    1.70    0.31
  -2  -3  -5    0.21    0.13
   2  -3  -5    0.39    0.19
  -2   3  -6    7.57    0.51
  -2  -3  -6    9.17    0.66
   2  -3  -6    8.13    0.66
   2   3  -6    8.02    0.42
  -2  -3  -7    1.23    0.26
   2  -3  -7    1.07    0.26
   2   3  -7    1.12    0.16
  -2   3  -7    1.22    0.22
  -2   3  -8    5.25    0.47
   2  -3  -8    4.87    0.55
  -2  -3  -8    5.13    0.54
   2  -3  -9    1.03    0.27
  -2  -3  -9    1.45    0.33
  -2   3  -9    1.07    0.22
   2  -3 -10    0.12    0.12
   2  -3 -11    0.89    0.29
   2  -4   0   -0.02    0.17
  -2  -4   0   -0.08    0.16
  -2  -4  -1   89.63    1.96
   2  -4   1   94.89    2.12
   2  -4  -1   92.75    2.12
   2  -4   2    1.30    0.27
   2  -4  -2    0.69    0.20
  -2  -4  -2    1.05    0.24
  -2  -4  -3    0.47    0.16
   2  -4  -3    0.33    0.13
   2  -4  -4    0.60    0.22
  -2  -4  -4    0.61    0.20
  -2  -4  -5    8.81    0.70
   2  -4  -5    8.50    0.72
  -2  -4  -6   10.89    0.80
   2  -4  -6   11.00    0.89
   2  -4  -7    1.92    0.38
   2   4  -7    2.04    0.25
  -2   4  -7    1.96    0.30
  -2  -4  -7    2.50    0.41
  -2  -4  -8    1.94    0.39
  -2   4  -8    2.54    0.36
   2  -4  -8    2.71    0.49
   2  -4  -9    0.26    0.20
  -2  -4  -9    0.04    0.15
   2  -4 -10   -0.03    0.11
   2  -5   0   13.65    0.91
  -2  -5   0   12.91    0.82
   2  -5  -1   10.38    0.81
  -2  -5  -1   10.66    0.78
   2  -5   1   10.89    0.83
  -2  -5  -2    2.75    0.40
   2  -5   2    2.56    0.38
   2  -5  -2    3.16    0.46
  -2  -5  -3    1.45    0.30
   2  -5  -3    1.43    0.34
  -2  -5  -4    1.75    0.35
   2  -5  -4    2.72    0.48
  -2  -5  -5    0.28    0.24
   2  -5  -5    0.21    0.16
   2  -5  -6    2.32    0.44
  -2  -5  -6    1.63    0.36
   2  -5  -7    0.24    0.20
  -2  -5  -7    0.16    0.19
   2  -5  -8    1.29    0.34
  -2   5  -8    1.17    0.28
  -2  -5  -8    0.96    0.33
   2  -5  -9    0.26    0.20
   2  -6   0    0.39    0.19
   2  -6   1   15.44    1.06
  -2  -6  -1   15.43    1.03
   2  -6  -1   13.03    1.01
  -2  -6  -2    0.14    0.18
   2  -6   2    0.19    0.14
  -2  -6  -3    0.60    0.24
   2  -6  -3    0.64    0.25
  -2  -6  -4    0.39    0.23
   2  -6  -4    0.42    0.25
  -2  -6  -5    1.66    0.39
   2  -6  -5    1.29    0.36
   2  -6  -6    1.54    0.41
  -2  -6  -6    1.48    0.37
   2  -6  -7    0.55    0.27
  -2  -6  -7    0.42    0.25
   2  -6  -8    1.24    0.40
  -2  -6  -8    0.59    0.29
   2  -7   0    3.17    0.55
   2  -7   1    0.63    0.31
  -2  -7  -1    0.74    0.27
   2  -7  -1    1.18    0.39
  -2  -7  -2    0.05    0.15
   2  -7  -2    0.16    0.18
  -2  -7  -3    0.00    0.14
   2  -7  -3    0.20    0.14
   2  -7  -4    0.40    0.24
  -2  -7  -4    1.34    0.36
  -2  -7  -5   -0.02    0.18
   2  -7  -5   -0.19    0.20
  -2  -7  -6   -0.06    0.20
  -2  -7  -7    0.51    0.33
  -3   0   0    0.03    0.03
   3   0   1    0.14    0.04
  -3   0  -1    0.08    0.04
  -3   0  -2   21.24    0.56
   3   0   2   21.45    0.56
  -3   0  -3   25.62    0.68
   3   0   3   24.88    0.68
  -3   0   3   26.02    0.46
  -3   0  -4    5.98    0.38
   3   0   4    6.37    0.38
   3   0   4    6.98    0.43
  -3   0   4    6.61    0.30
  -3   0   4    6.69    0.24
   3   0   5    9.66    0.56
  -3   0   5    9.66    0.43
  -3   0  -5    9.46    0.52
  -3   0   5    9.17    0.32
  -3   0   6    3.20    0.30
  -3   0  -6    3.32    0.36
  -3   0   6    2.48    0.19
   3   0   6    3.48    0.39
  -3   0   7   16.24    0.72
   3   0   7   16.26    0.86
  -3   0   7   15.26    0.52
  -3   0   8   16.29    0.80
   3   0   8   14.53    0.88
   3   0   9    1.23    0.31
  -3   0   9    1.33    0.28
   3   0  10    5.91    0.65
  -3   0  10    4.71    0.51
   3   0  11    0.48    0.23
   3  -1   0    0.00    0.04
  -3   1  -1  317.29    2.15
   3  -1   1  317.26    2.12
   3   1   1  314.93    1.86
   3   1   1  312.83    2.11
  -3   1  -1  314.88    2.05
   3   1   2  142.12    1.19
   3   1   2  148.44    1.61
  -3  -1  -2  143.21    1.13
   3  -1   2  145.62    1.65
   3  -1   2  144.00    1.37
  -3   1  -2  147.54    1.61
  -3   1  -2  146.53    1.37
   3   1   3   23.47    0.71
  -3   1  -3   22.29    0.58
  -3   1  -3   24.81    0.71
   3  -1   3   23.02    0.73
  -3   1  -3   23.61    0.73
   3   1  -3   22.96    0.54
  -3  -1  -3   23.07    0.53
  -3   1  -4   11.24    0.51
   3  -1   4   10.93    0.56
  -3  -1  -4   10.21    0.40
   3   1  -4   10.20    0.41
  -3   1  -5   52.26    1.20
   3  -1   5   52.18    1.34
  -3   1   6    0.11    0.07
   3  -1   6    0.19    0.11
  -3   1  -6    0.16    0.09
  -3   1   7   37.53    0.98
  -3   1  -7   40.02    1.19
   3  -1   7   38.98    1.37
   3  -1   8    7.33    0.66
  -3   1  -8    8.22    0.58
  -3   1   8    6.99    0.51
   3  -1   9   -0.01    0.10
   3   1   9    0.15    0.14
  -3   1   9    0.16    0.09
  -3   1  10    0.35    0.15
   3  -1  10    0.37    0.20
   3   1  10    0.20    0.10
   3  -1  11    0.17    0.17
   3   1  11    0.14    0.15
   3   2   0    0.20    0.09
  -3   2   0   -0.04    0.07
   3  -2   0   -0.01    0.08
  -3   2  -1    0.03    0.06
   3  -2   1    0.17    0.12
   3   2   1    0.02    0.05
   3  -2  -1    0.03    0.08
  -3  -2  -1   -0.08    0.07
   3   2   2   15.00    0.60
  -3   2  -2   15.18    0.62
   3  -2   2   15.65    0.64
   3  -2  -2   13.60    0.64
  -3   2  -2   15.96    0.63
  -3  -2  -2   14.69    0.55
  -3  -2  -3    8.33    0.43
  -3   2  -3    8.26    0.47
  -3  -2  -4    2.84    0.27
  -3   2  -4    2.74    0.29
   3   2  -4    2.59    0.25
   3   2  -5    4.44    0.21
  -3   2  -5    4.94    0.39
  -3   2  -5    3.91    0.37
   3   2  -5    4.05    0.33
  -3  -2  -5    4.61    0.38
   3   2  -6    1.09    0.12
  -3   2  -6    1.33    0.22
  -3  -2  -6    1.19    0.21
  -3   2  -7   11.12    0.65
  -3  -2  -7    9.98    0.62
  -3   2  -8   10.30    0.65
  -3  -2  -8   10.55    0.67
  -3   2  -9    0.55    0.19
  -3  -2  -9    0.60    0.19
  -3   2 -10    3.52    0.44
  -3   2  10    3.46    0.44
   3   2  11    0.38    0.20
   3  -3   0    0.12    0.18
   3   3   0    0.02    0.07
   3  -3  -1   75.39    1.73
   3   3   1   76.49    1.70
  -3  -3  -1   74.31    1.48
   3  -3   1   70.73    1.63
   3  -3   2   37.94    1.20
   3  -3  -2   38.62    1.26
  -3  -3  -2   37.60    1.09
   3   3   2   37.77    1.18
   3  -3  -3    4.78    0.49
   3   3   3    4.77    0.42
  -3  -3  -3    4.88    0.40
  -3  -3  -4    5.06    0.43
   3  -3  -4    4.82    0.49
   3  -3  -5   14.05    0.85
  -3  -3  -5   15.63    0.78
   3   3  -6    1.54    0.18
  -3  -3  -6    1.96    0.31
  -3   3  -6    1.34    0.24
  -3  -3  -7   19.22    0.97
   3   3  -7   19.10    0.58
  -3   3  -7   20.31    0.91
   3  -3  -7   18.95    1.04
   3  -3  -8    3.44    0.47
  -3   3  -8    3.85    0.43
  -3  -3  -8    3.80    0.45
   3  -3  -9    0.07    0.10
  -3   3  -9    0.03    0.08
   3  -3 -10    0.10    0.15
   3  -3 -11    0.03    0.13
   3  -4   0   -0.47    0.20
   3  -4  -1    0.46    0.21
   3  -4   1    0.10    0.10
  -3  -4  -1    0.19    0.14
   3  -4  -2    5.43    0.55
   3  -4   2    5.85    0.54
  -3  -4  -2    5.81    0.50
   3  -4  -3    0.50    0.18
  -3  -4  -3    0.42    0.17
   3  -4  -4    0.08    0.12
  -3  -4  -4    0.12    0.11
  -3  -4  -5    0.59    0.23
   3  -4  -5    0.44    0.19
   3  -4  -6    0.07    0.13
  -3  -4  -6    0.24    0.18
  -3  -4  -7    3.51    0.46
   3  -4  -7    2.90    0.47
  -3   4  -7    2.21    0.34
  -3  -4  -8    4.60    0.54
  -3   4  -8    3.74    0.45
   3  -4  -8    3.10    0.50
  -3   4  -9   -0.07    0.11
   3  -4  -9   -0.11    0.15
   3  -4 -10    0.92    0.31
   3  -5   0   -0.15    0.20
  -3  -5  -1    8.85    0.69
   3  -5   1    7.75    0.69
   3  -5  -1    7.94    0.73
  -3  -5  -2    5.10    0.54
   3  -5  -2    4.75    0.56
   3  -5   2    5.49    0.59
   3  -5  -3    0.20    0.13
  -3  -5  -3    0.53    0.19
  -3  -5  -4    1.59    0.32
   3  -5  -4    1.07    0.30
   3  -5  -5    1.29    0.32
  -3  -5  -5    1.66    0.35
   3  -5  -6    0.84    0.30
  -3  -5  -6    0.28    0.25
  -3  -5  -7    5.20    0.62
   3  -5  -7    6.83    0.78
  -3  -5  -8    1.25    0.32
  -3   5  -8    0.69    0.24
   3  -5  -8    1.62    0.44
   3  -5  -9    0.20    0.14
   3  -6   0   -0.08    0.17
  -3  -6  -1    0.54    0.23
   3  -6   1    0.70    0.32
   3  -6  -1    0.02    0.15
   3  -6   2    1.63    0.37
  -3  -6  -2    1.95    0.39
   3  -6  -2    0.63    0.23
  -3  -6  -3    0.46    0.22
   3  -6  -3    0.28    0.22
   3  -6  -4   -0.17    0.19
  -3  -6  -4    0.20    0.21
   3  -6  -5   -0.11    0.17
  -3  -6  -5   -0.06    0.17
  -3  -6  -6    0.46    0.24
   3  -6  -6    0.39    0.18
  -3  -6  -7    0.76    0.26
   3  -6  -7    0.86    0.38
   3  -7   0    0.00    0.16
   3  -7   1    0.76    0.31
   3  -7  -1    0.50    0.27
   3  -7  -2    0.72    0.31
  -3  -7  -2    0.66    0.25
   3  -7  -3   -0.28    0.21
  -3  -7  -3    0.24    0.19
   3  -7  -4   -0.05    0.16
  -3  -7  -4    0.14    0.15
   3  -7  -5    0.11    0.19
  -3  -7  -5    0.35    0.23
  -3  -7  -6    0.05    0.16
  -4   0   0   20.17    0.47
   4   0   0   19.56    0.39
  -4   0   1    2.24    0.13
   4   0   1    2.39    0.19
  -4   0  -1    2.40    0.18
  -4   0  -2    5.76    0.33
   4   0   2    6.10    0.33
  -4   0  -3    3.95    0.29
   4   0   3    3.92    0.29
  -4   0   3    4.13    0.16
   4   0   4   70.80    1.43
  -4   0   4   72.63    0.68
  -4   0   4   69.67    0.89
  -4   0  -4   70.64    1.34
  -4   0  -5   25.22    0.86
   4   0   5   26.13    0.96
  -4   0   5   24.20    0.45
  -4   0   5   25.08    0.65
  -4   0  -6   17.72    0.79
  -4   0   6   15.62    0.41
  -4   0   6   18.03    0.65
   4   0   6   18.07    0.87
   4   0   7    0.88    0.22
  -4   0   7    1.25    0.14
  -4   0   7    1.47    0.22
   4   0   8   46.42    1.62
  -4   0   8   47.21    1.31
   4   0   9    8.69    0.76
  -4   0   9    7.70    0.58
   4   0  10    0.57    0.23
   4   0  11    0.76    0.28
   4   1   0   75.74    0.94
  -4   1   0   69.16    0.94
   4  -1   0   72.43    1.08
   4  -1   1  103.64    1.27
   4   1  -1   97.33    0.90
  -4   1  -1  103.25    1.26
   4   1   1  102.76    1.27
   4   1   1  102.15    1.05
   4  -1   2  186.70    1.61
   4   1   2  186.37    1.89
  -4   1  -2  183.79    1.90
   4  -1   2  183.03    1.95
   4   1   2  181.91    1.29
  -4   1  -2  187.21    1.58
   4   1  -2  183.90    0.88
  -4   1  -3    2.69    0.25
  -4   1  -3    2.44    0.19
  -4  -1  -3    2.76    0.15
   4   1   3    2.88    0.26
  -4   1  -3    2.83    0.26
   4  -1   3    2.74    0.27
   4   1  -3    2.86    0.18
   4  -1   4    1.08    0.19
  -4   1  -4    0.87    0.17
  -4   1  -4    0.81    0.13
   4   1  -4    0.90    0.12
  -4  -1  -4    0.75    0.10
   4  -1   5   28.24    1.02
  -4   1  -5   26.54    0.76
  -4   1  -5   27.99    0.94
  -4  -1  -5   27.96    0.72
  -4   1  -6    3.33    0.34
   4  -1   6    3.66    0.40
  -4  -1  -6    3.10    0.25
  -4   1   7   12.15    0.53
  -4   1  -7   12.56    0.70
   4  -1   7   12.97    0.81
  -4   1   7   13.44    0.62
  -4   1  -8    9.68    0.67
   4   1   8    9.28    0.75
   4  -1   8    9.47    0.74
  -4   1   8    8.60    0.55
   4   1   9    0.52    0.16
   4  -1   9    0.64    0.23
  -4   1   9    0.82    0.20
   4   1  10    0.10    0.11
   4  -1  10   -0.06    0.12
   4   1  11    0.50    0.24
   4  -1  11    0.61    0.26
   4  -2   0    6.96    0.45
   4   2   0    6.77    0.40
  -4   2   0    6.31    0.40
   4  -2   1    1.83    0.23
   4   2   1    1.94    0.22
   4  -2  -1    1.67    0.24
  -4   2  -1    1.83    0.22
   4   2   2    1.96    0.22
   4  -2   2    1.71    0.22
  -4   2  -2    1.76    0.22
  -4  -2  -2    1.86    0.19
   4  -2  -2    1.49    0.22
  -4   2  -2    1.87    0.23
  -4   2  -3    2.16    0.24
  -4  -2  -3    2.30    0.22
   4   2   3    2.02    0.21
  -4  -2  -4   37.96    0.91
  -4   2  -4   36.75    1.01
  -4   2  -4   37.20    1.05
   4   2  -4   36.62    0.90
  -4  -2  -5   15.42    0.63
   4   2  -5   14.22    0.30
  -4   2  -5   15.17    0.71
  -4   2  -5   16.15    0.73
   4   2  -5   14.96    0.61
  -4  -2  -6   11.52    0.59
  -4   2  -6   10.86    0.62
  -4  -2  -7    1.00    0.19
  -4   2  -7    1.33    0.24
  -4   2  -8   29.36    1.13
  -4  -2  -8   27.65    1.03
  -4   2  -9    4.97    0.51
  -4   2 -10    0.34    0.15
   4   2  11    0.47    0.22
   4  -3   0   23.61    0.97
   4   3   1   30.48    1.07
   4  -3  -1   31.95    1.14
   4  -3   1   33.76    1.15
   4   3   2   43.06    1.25
   4  -3   2   44.44    1.29
  -4  -3  -2   43.53    1.11
   4  -3  -2   44.63    1.39
  -4  -3  -3    0.93    0.17
   4   3   3    1.07    0.21
   4  -3  -3    0.92    0.24
   4  -3   3    0.98    0.19
   4  -3  -4    0.01    0.08
  -4  -3  -4    0.02    0.08
  -4  -3  -5    8.27    0.55
   4  -3  -5    8.74    0.68
  -4   3  -6    1.27    0.24
  -4  -3  -6    1.56    0.26
   4  -3  -6    1.30    0.29
   4   3  -6    1.65    0.15
  -4  -3  -7    7.66    0.58
  -4   3  -7    7.52    0.59
   4  -3  -7    7.70    0.69
  -4   3  -8    3.77    0.44
  -4  -3  -8    3.59    0.42
   4  -3  -9    0.17    0.13
  -4   3  -9    0.14    0.12
  -4   3 -10   -0.17    0.14
   4  -3 -10   -0.47    0.22
   4  -4   0    0.32    0.18
   4  -4   1    1.01    0.26
   4  -4  -1    1.31    0.30
   4  -4  -2    0.16    0.15
  -4  -4  -2    0.11    0.13
   4  -4   2    0.05    0.14
   4  -4  -3    1.08    0.26
   4  -4   3    0.80    0.23
  -4  -4  -3    0.71    0.20
  -4  -4  -4    8.98    0.65
   4  -4  -4    9.67    0.78
  -4  -4  -5    4.30    0.48
   4  -4  -5    4.61    0.58
  -4  -4  -6    2.95    0.40
   4  -4  -6    3.78    0.53
  -4  -4  -7    0.58    0.18
   4  -4  -7    0.32    0.19
  -4   4  -7    0.39    0.16
  -4   4  -8    9.83    0.75
   4  -4  -8    9.64    0.90
  -4   4  -9    2.15    0.36
   4  -4  -9    1.81    0.40
   4  -4 -10    0.05    0.16
   4  -5   0    2.59    0.41
   4  -5   1    5.20    0.59
   4  -5  -1    5.11    0.60
   4  -5   2    3.76    0.51
  -4  -5  -2    3.22    0.42
   4  -5  -2    3.48    0.50
   4  -5   3    0.12    0.11
  -4  -5  -3    0.30    0.15
   4  -5  -4    0.38    0.20
  -4  -5  -4    0.41    0.19
   4  -5  -5    0.75    0.25
  -4  -5  -5    1.33    0.32
   4  -5  -6    0.38    0.22
  -4  -5  -6    0.39    0.20
  -4  -5  -7    2.67    0.42
  -4   5  -7    3.10    0.49
   4  -5  -7    2.57    0.50
   4  -5  -8    1.60    0.44
  -4   5  -8    0.88    0.29
  -4   5  -9    0.19    0.18
   4  -6   0    0.27    0.17
   4  -6  -1    0.58    0.26
   4  -6   1    0.57    0.29
   4  -6   2   -0.04    0.14
   4  -6  -2    0.35    0.22
  -4  -6  -3    0.30    0.19
   4  -6  -3    0.21    0.13
   4  -6  -4    0.75    0.28
  -4  -6  -4    1.40    0.34
  -4  -6  -5    0.65    0.26
   4  -6  -5    1.25    0.40
   4  -6  -6    0.95    0.35
  -4  -6  -6    0.72    0.25
   4  -6  -7    0.35    0.24
  -4   6  -8    1.90    0.46
   4  -7   0    0.53    0.25
   4  -7  -1    0.34    0.22
   4  -7   1    1.60    0.46
   4  -7   2    0.10    0.18
   4  -7  -2    0.10    0.17
  -4  -7  -3   -0.08    0.16
   4  -7  -3   -0.13    0.25
  -4  -7  -4    0.49    0.26
   4  -7  -4    0.15    0.18
  -4  -7  -5    0.33    0.23
  -4  -7  -6    0.15    0.20
   5   0   0    0.01    0.02
  -5   0   0   -0.03    0.03
  -5   0  -1  234.45    1.98
  -5   0   1  231.69    1.58
   5   0   1  234.52    1.83
   5   0  -1  230.85    1.06
   5   0   2   99.66    1.42
  -5   0  -2   96.59    1.41
  -5   0  -3    8.59    0.45
   5   0   3    8.55    0.47
   5   0   4    0.30    0.09
  -5   0  -4    0.43    0.12
  -5   0  -5   24.58    0.89
  -5   0   5   23.72    0.36
  -5   0   5   23.95    0.58
   5   0   5   25.39    0.99
  -5   0  -6   56.59    1.48
   5   0   6   59.64    1.64
  -5   0   6   55.46    1.04
  -5   0   7    4.22    0.34
   5   0   7    4.43    0.49
   5   0   8    2.60    0.41
  -5   0   8    2.12    0.28
   5   0   9    6.39    0.69
   5   0  10    0.24    0.15
   5   0  11    0.18    0.18
  -5   1   0    0.01    0.04
   5   1   0    0.03    0.03
   5   1   1   54.14    0.97
   5   1  -1   51.99    0.74
  -5   1  -1   54.17    0.96
   5  -1   1   53.34    0.97
   5   1   2  138.07    1.12
   5  -1   2  140.93    1.45
   5   1   2  140.57    1.73
   5   1  -2  136.98    0.94
  -5   1  -2  139.65    1.80
  -5   1  -2  139.16    1.73
   5  -1   2  136.20    1.75
  -5   1  -3   10.96    0.54
   5   1  -3    9.84    0.30
   5  -1   3    9.90    0.52
  -5   1  -3   10.09    0.37
  -5   1  -4   59.23    0.94
  -5  -1  -4   59.51    0.64
  -5   1  -4   60.84    1.31
   5  -1   4   59.23    1.39
  -5  -1  -5   19.98    0.49
  -5   1  -5   20.41    0.63
  -5   1  -5   21.38    0.86
   5  -1   5   19.73    0.89
  -5   1  -6   32.87    1.11
  -5   1  -6   31.46    0.88
   5  -1   6   31.24    1.19
  -5  -1  -6   29.59    0.73
   5  -1   7    0.03    0.14
  -5   1   7    0.52    0.12
  -5   1  -7    0.60    0.18
  -5  -1  -7    0.29    0.09
  -5   1  -8    3.59    0.42
   5   1   8    4.47    0.53
  -5   1   8    3.75    0.36
   5  -1   8    4.15    0.52
   5   1   9    0.34    0.17
  -5   1  -9    0.19    0.11
   5  -1   9    0.47    0.23
   5   1  10    1.38    0.33
   5  -1  10    1.20    0.34
   5   1  11    0.19    0.12
   5  -1  11    0.17    0.17
   5   2   0    0.10    0.08
   5  -2   0    0.13    0.10
   5  -2   1  123.08    1.88
  -5   2  -1  118.82    1.71
   5   2   1  121.66    1.72
   5  -2  -1  122.21    1.94
  -5   2  -1  121.76    1.78
   5   2   2   48.66    1.05
   5  -2   2   49.11    1.15
  -5   2  -2   46.15    1.09
  -5  -2  -3    7.69    0.36
   5  -2   3    7.50    0.44
  -5   2  -3    8.34    0.47
   5   2   3    7.85    0.40
  -5   2  -4    0.50    0.12
  -5  -2  -4    0.42    0.10
  -5   2  -4    0.33    0.09
   5   2  -4    0.44    0.11
  -5  -2  -5   15.05    0.57
  -5   2  -5   15.97    0.70
  -5   2  -5   16.56    0.78
   5   2  -5   14.26    0.57
  -5   2  -6   39.49    1.20
  -5   2  -6   39.97    1.24
  -5  -2  -6   38.34    0.98
  -5  -2  -7    3.67    0.32
  -5   2  -7    3.96    0.42
  -5   2  -8    1.07    0.25
  -5   2  -9    4.42    0.49
   5   2  10    0.11    0.16
  -5   2 -10    0.20    0.16
   5  -3   0   -0.02    0.08
   5  -3   1   20.96    0.92
   5   3   1   20.77    0.88
   5  -3  -1   20.88    0.95
   5   3   2   42.75    1.24
   5  -3   2   42.77    1.30
   5  -3  -2   40.95    1.36
   5  -3   3    0.90    0.19
   5  -3  -3    0.40    0.18
  -5  -3  -3    1.17    0.20
   5   3   3    0.85    0.18
  -5  -3  -4   18.10    0.75
   5  -3  -4   19.91    1.01
  -5  -3  -5    7.05    0.48
   5  -3  -5    6.16    0.57
  -5  -3  -6   15.98    0.75
  -5   3  -6   16.70    0.86
   5  -3  -6   15.23    0.96
  -5  -3  -7   -0.09    0.10
  -5   3  -7    0.01    0.11
  -5   3  -8    2.69    0.39
  -5   3  -9    0.40    0.19
  -5   3 -10    0.65    0.23
   5  -4   0    0.25    0.19
   5  -4  -1   24.23    1.15
   5  -4   1   25.27    1.16
   5  -4  -2   10.42    0.78
   5  -4   2    9.88    0.72
  -5  -4  -3    6.28    0.50
   5  -4   3    5.71    0.53
   5  -4  -3    6.06    0.61
  -5  -4  -4    0.52    0.17
   5  -4  -4    0.33    0.18
   5  -4  -5    4.99    0.61
  -5  -4  -5    4.69    0.47
  -5  -4  -6   15.88    0.87
   5  -4  -6   15.54    1.10
  -5  -4  -7    2.37    0.34
   5  -4  -7    2.37    0.45
  -5   4  -7    1.99    0.36
   5  -4  -8    0.44    0.23
  -5   4  -8    0.66    0.24
  -5   4  -9    1.02    0.28
   5  -4  -9    1.17    0.35
  -5   4 -10    0.03    0.10
   5  -5   0   -0.02    0.11
   5  -5  -1    5.03    0.60
   5  -5   1    4.84    0.59
   5  -5   2    6.87    0.69
   5  -5  -2    7.18    0.72
  -5  -5  -3    0.12    0.09
   5  -5  -3    0.18    0.14
   5  -5   3    0.46    0.23
   5  -5  -4    2.65    0.48
  -5  -5  -4    2.74    0.41
   5  -5  -5    0.97    0.31
  -5  -5  -5    0.65    0.22
   5  -5  -6    6.24    0.76
  -5  -5  -6    5.08    0.56
  -5   5  -7   -0.08    0.15
   5  -5  -7    0.16    0.20
  -5   5  -8    1.39    0.34
   5  -5  -8    1.36    0.40
  -5   5  -9   -0.19    0.16
   5  -6   0    0.17    0.21
   5  -6   1    4.39    0.59
   5  -6  -1    3.27    0.52
   5  -6   2    1.72    0.42
   5  -6  -2    1.00    0.35
   5  -6   3    2.98    0.47
   5  -6  -3    3.10    0.54
  -5  -6  -3    2.22    0.39
   5  -6  -4    0.04    0.13
  -5  -6  -4    0.00    0.15
   5  -6  -5    0.82    0.31
  -5  -6  -5    1.31    0.32
   5  -6  -6    4.84    0.72
  -5   6  -8    0.08    0.20
   5  -7   0    0.12    0.20
   5  -7  -1    0.73    0.27
   5  -7   1    0.95    0.33
   5  -7   2    1.37    0.39
   5  -7  -2    0.59    0.26
   5  -7  -3   -0.20    0.23
  -5  -7  -4    0.41    0.25
  -5  -7  -5    0.12    0.17
  -6   0   0   74.81    1.09
   6   0   0   74.02    0.93
  -6   0  -1   42.35    0.92
  -6   0   1   41.69    0.74
   6   0  -1   41.80    0.53
   6   0   1   39.98    0.81
  -6   0  -2  109.88    1.63
  -6   0   2  108.68    1.07
   6   0   2  110.24    1.61
   6   0   2  107.09    1.53
   6   0   2  111.24    0.79
  -6   0  -3  113.77    1.75
  -6   0   3  107.34    0.89
   6   0   3  114.71    1.77
  -6   0  -4    3.05    0.32
   6   0   4    2.83    0.31
  -6   0  -5    5.06    0.43
   6   0   5    5.62    0.48
  -6   0  -6    0.17    0.06
   6   0   6    0.35    0.15
  -6   0  -6    0.16    0.14
  -6   0  -7   10.39    0.70
   6   0   7   10.78    0.79
   6   0   8    5.54    0.61
   6   0   9    2.56    0.45
   6   0  10    0.66    0.25
   6   1   0   66.03    1.05
  -6   1   0   66.37    0.97
   6   1   1   59.01    1.09
   6   1  -1   60.47    0.89
   6  -1   1   59.38    1.07
  -6   1  -1   57.35    1.03
  -6   1   1   58.87    0.81
   6  -1   2    7.65    0.35
   6   1   2    7.92    0.28
  -6   1  -2    7.99    0.46
   6  -1   2    7.61    0.43
   6   1  -3    0.13    0.04
  -6   1  -3    0.09    0.09
   6  -1   3    0.09    0.06
  -6   1  -4   14.29    0.67
   6  -1   4   13.07    0.68
  -6   1  -4   14.08    0.43
  -6   1  -5   18.23    0.53
  -6   1  -5   19.98    0.86
   6  -1   5   18.72    0.88
   6  -1   6    0.07    0.09
  -6   1   6    0.09    0.05
  -6  -1  -6    0.07    0.04
  -6   1  -6    0.04    0.11
  -6   1  -6    0.18    0.09
  -6   1  -7   10.86    0.71
   6  -1   7    9.12    0.72
  -6   1   7   10.04    0.48
  -6   1  -8   10.29    0.74
   6   1   8   11.84    0.93
   6  -1   8    9.96    0.82
   6  -1   9    0.28    0.18
   6   1   9    0.33    0.17
  -6   1  -9    0.56    0.21
   6   1  10    0.17    0.12
   6  -1  10    0.32    0.20
   6   2   0   43.28    0.95
  -6   2   0   42.70    1.02
   6  -2   0   43.31    1.18
   6  -2   1   17.70    0.73
   6   2  -1   17.82    0.56
   6   2   1   17.29    0.65
   6   2   1   17.50    0.65
  -6   2  -1   18.87    0.73
   6  -2  -1   17.64    0.77
   6   2   2   50.41    1.07
   6   2  -2   50.49    0.84
   6  -2   2   51.26    1.19
  -6   2  -2   51.87    1.15
   6   2  -3   59.91    0.71
   6  -2   3   58.94    1.25
   6   2   3   59.08    1.07
  -6   2  -3   64.17    1.29
  -6   2  -4    0.98    0.20
  -6   2  -4    0.86    0.15
   6   2  -4    0.83    0.13
  -6   2  -5    2.67    0.28
  -6  -2  -5    2.71    0.21
  -6   2  -5    2.39    0.32
   6   2  -5    2.20    0.21
  -6   2  -6    0.10    0.10
  -6  -2  -6    0.18    0.09
  -6   2  -7    8.25    0.64
  -6   2  -8    2.61    0.40
  -6   2  -9    1.49    0.31
   6   2  10    0.54    0.24
  -6   2 -10    0.10    0.13
   6  -3   0   23.44    1.02
   6  -3   1   14.98    0.80
   6  -3  -1   13.48    0.78
   6   3   2    2.36    0.30
   6  -3   2    2.47    0.33
   6  -3  -2    2.40    0.35
   6   3   3    2.71    0.33
   6  -3   3    3.51    0.39
   6  -3  -3    4.27    0.50
  -6  -3  -4    6.32    0.41
   6  -3  -4    6.12    0.57
  -6  -3  -5    9.18    0.52
  -6   3  -5    9.65    0.66
   6  -3  -5    9.82    0.75
  -6  -3  -6    0.32    0.11
  -6   3  -6    0.17    0.11
  -6   3  -7    3.56    0.44
  -6   3  -8    5.94    0.58
  -6   3  -9    0.35    0.13
  -6   3 -10    0.39    0.21
   6  -4   0    9.95    0.75
   6  -4  -1    1.09    0.27
   6  -4   1    0.93    0.26
   6  -4  -2    6.13    0.59
   6  -4   2    6.42    0.58
   6  -4   3   15.99    0.90
   6  -4  -3   15.05    0.97
  -6  -4  -4    0.07    0.09
   6  -4  -4   -0.11    0.12
  -6  -4  -5    0.48    0.15
   6  -4  -5    0.22    0.15
  -6   4  -6   -0.22    0.18
   6  -4  -6    0.00    0.12
  -6   4  -7    4.35    0.53
   6  -4  -7    4.48    0.62
   6  -4  -8    0.86    0.30
  -6   4  -8    1.19    0.30
  -6   4  -9    0.53    0.21
   6  -4  -9    0.27    0.23
  -6   4 -10    0.34    0.18
   6  -5   0    3.84    0.53
   6  -5   1    1.06    0.26
   6  -5  -1    1.32    0.34
   6  -5   2    0.01    0.12
   6  -5  -2    0.28    0.16
   6  -5  -3    0.11    0.14
   6  -5   3    0.00    0.12
   6  -5  -4    1.31    0.37
  -6  -5  -4    1.19    0.26
  -6  -5  -5    2.76    0.39
   6  -5  -5    3.16    0.53
   6  -5  -6    0.24    0.19
  -6   5  -7    1.65    0.42
   6  -5  -7    0.46    0.26
  -6   5  -8    1.69    0.40
   6  -5  -8    1.62    0.44
  -6   5  -9   -0.09    0.11
   6  -6   0    0.98    0.31
   6  -6   1    0.11    0.17
   6  -6  -1    0.05    0.19
   6  -6   2    0.24    0.22
   6  -6  -2    0.55    0.25
   6  -6   3    4.36    0.59
   6  -6  -3    4.36    0.64
   6  -6  -4    0.22    0.21
   6  -6  -5    0.03    0.16
  -6  -6  -5   -0.02    0.11
   6  -6  -6    0.25    0.23
   6  -7   0    0.29    0.21
   6  -7   1    0.24    0.22
   6  -7  -1    0.09    0.14
   6  -7  -2   -0.04    0.14
   6  -7   2    0.24    0.22
   6  -7  -3    0.39    0.24
   7   0   0    0.00    0.03
  -7   0   0    0.02    0.04
   7   0   1    1.09    0.14
  -7   0  -1    1.06    0.16
  -7   0   1    1.00    0.13
   7   0  -1    1.09    0.10
  -7   0  -2   96.33    1.58
  -7   0   2   97.00    1.11
   7   0   2   97.03    0.91
   7   0   2   92.91    1.48
  -7   0  -3  136.23    2.01
  -7   0   3  136.07    1.15
   7   0   3  137.50    2.01
  -7   0  -4   10.71    0.62
  -7   0   4   10.15    0.25
   7   0   4   11.69    0.65
  -7   0  -5    2.96    0.34
   7   0   5    2.54    0.33
  -7   0  -6   29.95    1.16
   7   0   6   29.75    1.24
  -7   0  -7   64.80    1.85
   7   0   7   65.38    1.97
   7   0   8    0.03    0.09
   7   0   9    0.47    0.20
   7   0  10    0.09    0.15
  -7   1   0   -0.05    0.04
   7   1   0    0.00    0.04
  -7  -1  -1   22.24    0.74
   7   1   1   22.90    0.73
   7   1  -1   23.91    0.62
  -7   1  -1   21.73    0.75
  -7   1   1   23.37    0.52
   7  -1   1   22.18    0.68
   7  -1   2   86.00    1.24
  -7  -1  -2   85.09    1.54
   7   1   2   86.22    0.98
  -7   1  -2   86.35    1.58
   7  -1   2   84.48    1.51
  -7   1   2   86.05    0.79
  -7   1  -3    3.32    0.34
   7  -1   3    3.10    0.22
   7   1  -3    2.93    0.12
   7  -1   3    3.22    0.33
  -7   1  -4   12.20    0.66
   7  -1   4   11.40    0.65
   7  -1   5    0.08    0.09
  -7   1   5    0.06    0.03
  -7   1  -5    0.08    0.13
   7  -1   6   -0.16    0.11
  -7   1   6    0.14    0.06
  -7   1  -6    0.01    0.11
  -7   1  -7    6.28    0.57
   7  -1   7    4.73    0.53
   7   1   8    0.03    0.12
  -7   1  -8    0.20    0.14
   7  -1   8    0.18    0.17
   7   1   9    0.02    0.11
  -7   1  -9    0.02    0.12
   7  -1   9    0.23    0.18
   7   1  10    0.23    0.19
   7  -1  10    0.60    0.32
   7   2   0    0.00    0.04
   7  -2   0    0.09    0.10
  -7   2   0    0.06    0.06
   7  -2   1    0.33    0.14
   7   2   1    0.48    0.12
   7   2  -1    0.36    0.09
   7  -2  -1    0.27    0.10
   7  -2   2   55.58    1.27
   7   2   2   55.04    1.14
   7   2  -2   54.89    0.91
   7   2  -3   71.12    0.82
   7  -2   3   71.97    1.39
  -7   2  -3   71.51    1.61
  -7   2  -3   71.93    1.32
   7   2   3   68.34    1.13
  -7   2  -4    6.93    0.52
   7   2  -4    6.46    0.34
  -7   2  -4    6.36    0.40
  -7   2  -5    1.92    0.28
  -7   2  -5    1.50    0.21
   7   2  -5    1.75    0.17
  -7   2  -6   19.88    0.95
  -7   2  -7   45.69    1.53
  -7   2  -8    0.02    0.12
  -7   2  -9    0.24    0.15
   7   2  10    0.32    0.20
  -7   2 -10    0.49    0.23
  -7   2 -11    0.39    0.22
   7  -3   0   -0.07    0.08
   7  -3   1   10.63    0.68
   7  -3  -1   10.42    0.71
   7   3   2   36.28    1.17
   7  -3   2   37.33    1.23
   7  -3  -2   37.66    1.37
   7   3  -3    2.49    0.25
   7  -3   3    2.75    0.34
   7  -3  -3    1.79    0.33
   7   3   3    2.00    0.27
   7   3  -4    4.28    0.24
   7   3   4    3.09    0.30
   7  -3  -4    4.02    0.46
   7  -3  -5    0.27    0.16
  -7   3  -5    0.18    0.11
  -7   3  -6    0.02    0.10
  -7   3  -7    2.95    0.43
  -7   3  -8   -0.15    0.15
  -7   3  -9    0.29    0.17
  -7   3 -10    0.02    0.12
   7  -4   0    0.08    0.14
   7  -4  -1    0.17    0.12
   7  -4   1    0.13    0.17
   7  -4  -2   13.34    0.91
   7  -4   2   12.99    0.84
   7  -4   3   12.58    0.81
   7  -4  -3   13.32    0.94
   7  -4  -4    2.41    0.42
   7  -4  -5    0.60    0.27
  -7   4  -6    7.68    0.70
   7  -4  -6    7.48    0.80
  -7   4  -7   14.83    0.99
   7  -4  -7   15.13    1.18
   7  -4  -8   -0.28    0.21
  -7   4  -8   -0.06    0.11
  -7   4  -9    0.02    0.13
   7  -5   0    0.00    0.10
   7  -5   1    3.12    0.48
   7  -5  -1    3.52    0.53
   7  -5  -2    8.74    0.80
   7  -5   2    9.14    0.79
   7  -5  -3    0.80    0.26
   7  -5   3    0.79    0.26
   7  -5  -4    0.80    0.29
   7  -5  -5    1.13    0.34
   7  -5  -6    0.40    0.25
  -7   5  -7    1.02    0.33
   7  -5  -7    1.09    0.36
  -7   5  -8    0.38    0.22
   7  -6   0    0.14    0.16
   7  -6   1   -0.07    0.14
   7  -6  -1    0.24    0.20
   7  -6   2    1.83    0.41
   7  -6  -2    2.06    0.46
   7  -6   3    0.72    0.29
   7  -6  -3    0.97    0.32
   7  -6  -4    0.50    0.27
   7  -6  -5    0.36    0.25
   7  -7   0   -0.14    0.17
   7  -7   1    0.57    0.32
   7  -7  -1    0.59    0.26
   7  -7  -2    1.04    0.35
   7  -7   2    2.21    0.50
  -8   0   0   50.36    1.06
   8   0   0   50.54    0.90
  -8   0  -1    3.37    0.29
  -8   0   1    3.42    0.25
   8   0  -1    3.59    0.20
   8   0   1    3.56    0.27
  -8   0  -2   17.20    0.71
  -8   0   2   17.14    0.51
   8   0   2   17.38    0.44
   8   0   2   17.30    0.66
  -8   0  -3    8.84    0.54
  -8   0   3    8.47    0.32
   8   0   3    8.65    0.52
  -8   0  -4    7.44    0.54
   8   0   4    6.87    0.53
  -8   0  -5   12.35    0.72
   8   0   5   12.28    0.74
  -8   0  -6   17.18    0.91
   8   0   6   19.05    1.02
   8   0   7    0.16    0.11
  -8   0  -7   -0.11    0.12
   8   0   8    5.17    0.63
   8   0   9    1.23    0.35
   8   0  10   -0.16    0.18
  -8  -1   0   41.59    0.99
   8   1   0   44.03    1.00
  -8   1   0   39.66    1.02
  -8  -1  -1    0.83    0.17
   8  -1   1    0.74    0.13
  -8   1  -1    0.59    0.14
   8  -1   2    4.48    0.30
   8  -1   2    4.07    0.36
  -8  -1  -2    4.34    0.37
  -8   1  -2    4.24    0.37
   8   1   2    4.68    0.24
  -8  -1  -3   33.62    1.09
  -8   1  -3   34.15    1.08
   8  -1   3   33.31    0.69
   8  -1   3   32.63    1.05
  -8   1  -4    1.25    0.22
   8  -1   4    0.99    0.20
  -8   1  -5    2.47    0.35
   8  -1   5    1.84    0.30
  -8   1  -6   54.80    1.62
   8  -1   6   50.88    1.66
  -8   1  -7    6.19    0.59
   8  -1   7    5.98    0.62
   8   1   7    6.36    0.66
   8   1   8    0.14    0.12
  -8   1  -8    0.12    0.15
   8  -1   8   -0.03    0.12
   8   1   9    0.33    0.14
  -8   1  -9    0.49    0.23
   8  -1   9    0.31    0.20
   8  -2   0   29.11    1.03
  -8   2   0   30.96    0.90
   8  -2   1    1.71    0.26
   8   2  -1    2.05    0.22
   8   2   1    1.75    0.22
   8  -2  -1    1.55    0.25
  -8   2   1    2.10    0.22
   8  -2   2    9.76    0.55
   8   2   2   10.17    0.50
   8   2  -2    9.77    0.41
  -8   2   2   10.19    0.45
   8  -2   3    5.23    0.38
  -8   2  -3    4.81    0.44
   8   2   3    4.73    0.29
  -8   2  -4    2.92    0.37
   8   2  -4    2.82    0.20
  -8   2  -5    8.41    0.63
  -8   2  -6   13.11    0.81
  -8   2  -7    0.13    0.10
  -8   2  -8    2.78    0.41
  -8   2  -9    0.73    0.24
  -8   2 -10    0.71    0.26
   8  -3   0   11.82    0.75
   8  -3   1    1.19    0.25
   8  -3  -1    0.83    0.23
   8   3  -2    2.67    0.27
   8  -3   2    2.97    0.36
   8   3   2    2.05    0.28
   8  -3  -2    2.59    0.38
   8   3   3   11.69    0.64
   8   3  -3   12.71    0.49
   8  -3   3   12.62    0.72
   8  -3  -3   12.55    0.85
   8  -3  -4    0.61    0.17
  -8   3  -4    0.26    0.13
   8  -3  -5    0.87    0.28
  -8   3  -5    0.85    0.21
  -8   3  -6   22.56    1.11
  -8   3  -7    2.58    0.39
  -8   3  -8   -0.09    0.12
  -8   3  -9    0.24    0.17
   8  -4   0    7.26    0.66
   8  -4  -1    0.07    0.16
   8  -4   1    0.29    0.12
   8  -4   2    2.25    0.36
   8  -4  -2    2.37    0.39
   8  -4   3    0.64    0.21
   8  -4  -3    1.47    0.33
   8  -4  -4    3.23    0.52
   8  -4  -5    3.11    0.54
  -8   4  -6    4.77    0.58
   8  -4  -6    5.36    0.69
   8  -4  -7    0.16    0.14
  -8   4  -7    0.34    0.20
   8  -4  -8    0.90    0.32
  -8   4  -8    0.87    0.26
  -8   4  -9    0.35    0.22
   8  -5   0    1.17    0.33
   8  -5   1    0.69    0.25
   8  -5  -1    0.84    0.25
   8  -5  -2    1.00    0.30
   8  -5   2    0.58    0.24
   8  -5  -3    1.87    0.41
   8  -5   3    2.70    0.44
   8  -5  -4    0.11    0.17
   8  -5  -5    0.13    0.21
  -8   5  -6    5.98    0.77
   8  -5  -6    5.33    0.76
  -8   5  -7    0.92    0.32
   8  -6   0    0.73    0.30
   8  -6   1    0.01    0.19
   8  -6  -1    0.11    0.15
   8  -6   2    0.33    0.20
   8  -6  -2    0.88    0.31
   8  -6  -3    0.23    0.24
   8  -6   3    0.42    0.24
   8  -6  -4    0.95    0.34
   8  -6  -5    0.77    0.30
   8  -7   0    0.22    0.14
   8  -7   1    0.18    0.19
   8  -7  -1    0.70    0.30
   8  -7   2    0.39    0.25
   8  -7   3    0.60    0.29
   9   0   0    0.01    0.04
  -9   0   0    0.02    0.06
   9   0   1    0.58    0.12
  -9   0  -1    0.54    0.14
  -9   0   1    0.73    0.14
   9   0   2    0.20    0.09
   9   0   2    0.18    0.05
  -9   0  -2    0.19    0.11
  -9   0   2    0.14    0.07
  -9   0  -3   19.53    0.83
  -9   0   3   19.52    0.54
   9   0   3   18.91    0.80
  -9   0  -4   15.77    0.82
  -9   0   4   15.05    0.39
   9   0   4   15.08    0.78
   9   0   5    0.83    0.21
  -9   0  -5    0.73    0.19
  -9   0  -6    5.27    0.54
   9   0   6    5.06    0.54
   9   0   7    0.76    0.23
  -9   0  -7    0.90    0.26
   9   0   8    6.87    0.74
   9   0   9    0.62    0.26
  -9  -1   0    0.03    0.07
  -9   1   0    0.01    0.08
  -9  -1  -1   26.28    0.89
  -9   1  -1   27.64    0.94
  -9   1   1   26.86    0.84
   9  -1   1   25.78    0.82
   9  -1   2    0.17    0.08
  -9  -1  -2    0.08    0.10
  -9   1  -2   -0.06    0.08
   9   1   2    0.11    0.07
   9  -1   2    0.13    0.10
  -9  -1  -3    0.27    0.14
   9  -1   3    0.20    0.07
  -9   1  -3    0.20    0.11
   9  -1   3    0.15    0.11
  -9   1  -4    8.54    0.61
   9  -1   4    8.01    0.58
  -9   1  -5    0.72    0.20
   9  -1   5    1.03    0.24
   9   1   6    1.33    0.31
  -9   1  -6    0.69    0.20
   9  -1   6    1.03    0.25
   9   1   7    0.08    0.10
  -9   1  -7    0.37    0.18
   9  -1   7    0.62    0.24
   9   1   8    0.24    0.16
  -9   1  -8    0.65    0.26
   9  -1   8    0.40    0.22
   9   1   9    0.01    0.14
  -9   1  -9   -0.04    0.14
   9  -1   9    0.39    0.23
  -9   2   0   -0.07    0.05
   9  -2   0   -0.09    0.07
  -9   2   1    0.33    0.10
   9  -2  -1    0.24    0.12
   9   2  -1    0.18    0.08
   9   2   1    0.51    0.15
   9  -2   1    0.14    0.10
  -9   2   2    0.07    0.05
   9   2   2    0.01    0.05
   9  -2   2    0.01    0.07
   9   2  -2    0.10    0.05
   9  -2   3   13.25    0.63
  -9   2  -3   14.39    0.79
  -9   2   3   14.06    0.46
   9   2   3   13.91    0.51
  -9   2  -4    8.90    0.66
  -9   2  -5    0.60    0.17
  -9   2  -6    3.79    0.46
  -9   2  -7    0.39    0.16
  -9   2  -8    4.17    0.54
   9   2   9   -0.04    0.13
  -9   2  -9    0.13    0.16
   9  -3   0    0.20    0.17
   9  -3   1    6.31    0.55
   9  -3  -1    6.76    0.61
   9   3  -2    0.06    0.07
   9   3   2    0.03    0.07
   9  -3  -2    0.03    0.13
   9  -3   2   -0.02    0.10
   9  -3  -3    3.00    0.45
   9  -3   3    2.17    0.32
   9  -3  -4    2.61    0.44
  -9   3  -4    2.76    0.39
   9  -3  -5    0.70    0.26
  -9   3  -5    1.07    0.26
  -9   3  -6    0.78    0.26
  -9   3  -7   -0.21    0.14
  -9   3  -8    0.57    0.21
  -9   3  -9   -0.09    0.11
   9  -4   0    0.10    0.14
   9  -4  -1    0.26    0.17
   9  -4   1   -0.04    0.11
   9  -4   2    0.12    0.10
   9  -4  -2    0.13    0.14
   9  -4   3    4.64    0.51
   9  -4  -3    5.50    0.65
   9  -4   4    2.96    0.42
   9  -4  -4    2.74    0.47
   9  -4  -5    0.43    0.26
  -9   4  -5    0.18    0.18
   9  -4  -6    1.80    0.42
  -9   4  -6    1.49    0.35
   9  -4  -7    0.10    0.14
  -9   4  -7    0.18    0.15
  -9   4  -8    1.52    0.37
   9  -5   0    0.19    0.16
   9  -5   1    0.09    0.15
   9  -5  -1    0.48    0.23
   9  -5  -2   -0.06    0.12
   9  -5   2   -0.03    0.11
   9  -5  -3   -0.03    0.15
   9  -5   3    0.40    0.20
   9  -5  -4    0.45    0.23
   9  -5  -5    0.92    0.32
  -9   5  -6    0.39    0.24
   9  -5  -6    0.65    0.32
   9  -6   0   -0.04    0.14
   9  -6   1   -0.08    0.17
   9  -6  -1   -0.09    0.16
   9  -6   2    0.11    0.16
   9  -6  -2    0.49    0.23
   9  -6   3    1.36    0.37
   9  -6  -3    1.34    0.38
   9  -6  -4    0.01    0.19
   9  -7   1   -0.29    0.18
   9  -7   2    0.35    0.25
   9  -7   3    0.28    0.19
 -10   0   0    6.55    0.44
  10   0   0    6.32    0.37
 -10   0  -1    7.43    0.49
 -10   0   1    7.62    0.44
  10   0   1    7.25    0.44
 -10   0  -2   12.90    0.68
 -10   0   2   13.08    0.54
  10   0   2   12.26    0.43
  10   0   2   12.89    0.63
  10   0   3    1.93    0.27
 -10   0   3    2.20    0.20
 -10   0  -3    1.84    0.27
 -10   0   4    2.89    0.19
 -10   0  -4    3.27    0.39
  10   0   4    3.08    0.37
 -10   0  -5   47.45    1.52
  10   0   5   48.35    1.57
  10   0   6    0.15    0.13
 -10   0  -6    0.00    0.10
  10   0   7    2.50    0.44
 -10   0  -7    2.25    0.40
  10   0   8   -0.01    0.15
  10   0   9    1.22    0.36
 -10  -1   0  192.25    2.37
 -10   1   0  187.67    2.49
 -10  -1  -1    9.03    0.55
 -10   1  -1    8.99    0.57
 -10   1   1    8.62    0.50
  10  -1   1    8.94    0.50
  10  -1   2   19.30    0.68
 -10  -1  -2   19.02    0.85
 -10   1  -2   18.03    0.83
 -10   1   2   18.68    0.71
  10  -1   2   19.23    0.82
  10   1  -2   18.13    0.38
 -10  -1  -3   13.84    0.76
  10  -1   3   13.92    0.50
 -10   1  -3   14.39    0.77
  10  -1   3   13.28    0.73
 -10   1  -4    0.13    0.11
  10  -1   4    0.00    0.09
  10   1   5   -0.26    0.20
 -10   1  -5    0.16    0.17
  10  -1   5   -0.04    0.11
  10   1   6    0.05    0.12
 -10   1  -6    0.08    0.13
  10  -1   6    0.06    0.10
  10   1   7    0.43    0.19
 -10   1  -7    0.36    0.18
  10  -1   7    0.43    0.21
  10   1   8    1.63    0.38
 -10   1  -8    1.66    0.35
  10  -1   8    1.62    0.38
  10   1   9    0.02    0.12
 -10   1  -9    0.09    0.14
  10  -1   9    0.30    0.22
  10  -2   0    4.70    0.45
  10  -2   1    6.96    0.52
 -10   2  -1    6.95    0.55
  10   2   1    5.97    0.43
  10  -2  -1    6.89    0.55
 -10   2   1    6.52    0.39
  10  -2   2   11.35    0.63
  10   2   2   10.43    0.54
 -10   2  -2   10.31    0.68
 -10   2   2   10.36    0.42
  10  -2   3    0.94    0.19
 -10   2  -3    1.21    0.25
 -10   2  -4    2.11    0.33
 -10   2  -5   34.70    1.36
 -10   2  -6    0.00    0.11
 -10   2  -7    1.06    0.29
 -10   2  -8    0.19    0.16
 -10   2  -9    0.97    0.27
  10  -3   0   85.59    2.10
  10  -3   1    5.38    0.52
  10  -3  -1    6.16    0.59
  10  -3   2    5.45    0.51
  10  -3  -2    7.14    0.66
  10  -3   3    7.59    0.58
 -10   3  -3    6.59    0.61
  10  -3  -3    7.81    0.72
  10  -3   4   -0.05    0.11
  10  -3  -4    0.03    0.12
 -10   3  -4    0.05    0.10
  10  -3  -5   -0.08    0.14
 -10   3  -5    0.00    0.16
 -10   3  -6    0.26    0.15
 -10   3  -7    0.52    0.22
 -10   3  -8    0.84    0.27
  10  -4   0    2.25    0.39
  10  -4  -1    3.59    0.50
  10  -4   1    4.56    0.53
  10  -4  -2    5.69    0.64
  10  -4   2    5.11    0.55
  10  -4   3   -0.06    0.14
  10  -4  -3   -0.11    0.20
  10  -4   4    0.74    0.23
  10  -4  -4    0.86    0.31
 -10   4  -5   12.76    0.96
  10  -4  -5   13.56    1.13
  10  -4  -6    0.39    0.25
 -10   4  -6   -0.10    0.15
  10  -4  -7    0.37    0.26
 -10   4  -7    0.06    0.13
  10  -5   0   20.07    1.24
  10  -5   1    1.95    0.40
  10  -5  -1    1.98    0.42
  10  -5  -2    0.28    0.21
  10  -5   2    0.18    0.14
  10  -5  -3    2.45    0.48
  10  -5   3    2.20    0.41
  10  -5  -4    0.11    0.13
 -10   5  -5    0.05    0.13
  10  -5  -5    0.16    0.18
  10  -6   0    0.36    0.26
  10  -6   1    1.60    0.42
  10  -6  -1    1.55    0.40
  10  -6   2    1.20    0.35
  10  -6  -2    1.86    0.46
  10  -6   3    0.13    0.18
  10  -6  -3   -0.10    0.16
 -11   0   0    0.05    0.08
  11   0   0    0.08    0.07
 -11   0  -1   12.71    0.67
 -11   0   1   13.68    0.63
  11   0   1   14.54    0.65
 -11   0  -2   22.52    0.94
 -11   0   2   22.66    0.74
  11   0   2   23.46    0.66
  11   0   2   23.25    0.89
  11   0   3    1.16    0.22
 -11   0  -3    0.84    0.21
 -11   0   3    0.78    0.13
 -11   0  -4    4.75    0.48
  11   0   4    4.29    0.43
 -11   0  -5   14.96    0.90
  11   0   5   14.91    0.90
  11   0   6    0.45    0.19
 -11   0  -6    0.60    0.24
  11   0   7    2.82    0.47
 -11   0  -7    3.19    0.47
  11   0   8    0.81    0.28
  11   1   0   -0.02    0.06
 -11   1   0   -0.04    0.07
 -11  -1  -1    8.75    0.57
 -11   1  -1    8.41    0.57
 -11   1   1    8.51    0.53
  11   1  -1    8.25    0.37
  11  -1   1    7.97    0.50
  11  -1   2    2.80    0.28
 -11  -1  -2    3.52    0.40
 -11   1  -2    3.17    0.36
 -11   1   2    2.79    0.29
  11   1  -2    2.74    0.15
  11  -1   3    0.68    0.13
  11   1   3    0.65    0.18
 -11   1  -3    0.84    0.22
 -11   1   3    0.66    0.14
  11  -1   3    0.77    0.19
 -11   1  -4   11.85    0.78
 -11   1   4   11.42    0.52
  11  -1   4   11.98    0.77
  11   1   4   11.49    0.75
  11   1   5    2.36    0.37
 -11   1  -5    2.33    0.37
  11  -1   5    2.19    0.35
  11   1   6    1.05    0.26
 -11   1  -6    0.99    0.25
  11  -1   6    1.15    0.29
  11   1   7    3.33    0.51
 -11   1  -7    3.88    0.51
  11  -1   7    3.73    0.54
  11   1   8   -0.16    0.18
 -11   1  -8   -0.04    0.11
  11  -1   8    0.16    0.22
  11  -2   0   -0.20    0.09
 -11   2   0   -0.07    0.11
  11  -2   1    9.89    0.63
 -11   2  -1    9.60    0.67
  11  -2  -1    8.93    0.67
  11  -2   2   15.65    0.77
 -11   2  -2   15.74    0.90
  11  -2   3    0.85    0.19
 -11   2  -3    0.77    0.22
 -11   2  -4    3.03    0.43
 -11   2  -5   10.79    0.80
 -11   2  -6    0.72    0.25
 -11   2  -7    1.77    0.36
  11   2   8    0.41    0.21
 -11   2  -8    0.43    0.20
  11  -3   0    0.17    0.14
  11  -3   1    3.29    0.42
  11  -3  -1    4.12    0.50
  11  -3  -2    1.92    0.37
  11  -3   2    2.09    0.34
  11  -3  -3    0.33    0.19
  11  -3   3    0.19    0.12
 -11   3  -3    0.19    0.14
 -11   3  -4    5.61    0.61
  11  -3  -4    5.74    0.66
  11  -3  -5    0.37    0.18
 -11   3  -5    0.99    0.28
 -11   3  -6    0.62    0.22
 -11   3  -7    2.03    0.40
  11  -4   0    0.29    0.18
  11  -4  -1    3.36    0.48
  11  -4   1    3.07    0.45
  11  -4  -2    5.31    0.65
  11  -4   2    4.81    0.56
  11  -4  -3    0.23    0.20
  11  -4   3    0.24    0.16
  11  -4  -4    0.82    0.28
 -11   4  -4    0.86    0.27
 -11   4  -5    4.21    0.59
  11  -4  -5    3.53    0.59
  11  -4  -6    0.03    0.19
 -11   4  -6    0.26    0.19
  11  -5   0    0.48    0.25
  11  -5  -1    0.19    0.18
  11  -5   1    0.47    0.21
  11  -5  -2    0.96    0.33
  11  -5   2    0.40    0.18
  11  -5  -3    0.28    0.24
  11  -5   3    0.11    0.18
  11  -5  -4    0.63    0.28
  11  -6   0    0.51    0.25
  11  -6   1    0.29    0.24
  11  -6  -1    0.71    0.32
  11  -6   2    1.15    0.33
  11  -6  -2    0.64    0.31
 -12   0   0   38.54    1.17
  12   0   0   38.19    0.98
 -12   0   1    2.75    0.30
 -12   0  -1    2.36    0.31
  12   0   1    2.86    0.30
 -12   0  -2   12.78    0.73
 -12   0   2   12.84    0.59
  12   0   2   12.14    0.68
  12   0   2   11.67    0.48
 -12   0   3   12.09    0.53
 -12   0  -3   12.39    0.77
  12   0   3   12.33    0.73
  12   0   4    0.97    0.22
 -12   0  -4    0.70    0.21
  12   0   5    0.66    0.21
 -12   0  -5    0.87    0.26
  12   0   6    2.79    0.44
 -12   0  -6    2.61    0.42
  12   0   7    0.24    0.20
 -12   0  -7    0.16    0.16
  12   0   8    3.62    0.58
 -12   1   0    5.13    0.45
  12   1   0    4.90    0.35
 -12   1  -1   22.76    0.96
 -12   1   1   22.11    0.89
  12   1  -1   23.10    0.65
  12  -1   1   22.27    0.86
  12   1   1   22.56    0.83
  12  -1   2   57.82    1.31
 -12   1  -2   59.02    1.64
 -12   1   2   56.32    1.36
  12   1   2   53.95    1.41
  12   1   3    0.51    0.15
 -12   1  -3    0.50    0.17
 -12   1   3    0.36    0.11
  12  -1   3    0.62    0.19
  12   1   4    1.07    0.24
 -12   1  -4    1.00    0.24
  12  -1   4    1.18    0.27
  12   1   5    1.14    0.26
 -12   1  -5    0.96    0.23
  12  -1   5    1.41    0.31
 -12   1  -6    6.50    0.66
  12  -1   6    7.38    0.70
  12   1   6    6.70    0.68
  12   1   7    1.91    0.38
 -12   1  -7    2.31    0.40
  12  -1   7    2.07    0.42
  12   1   8    0.07    0.11
  12  -1   8   -0.13    0.12
 -12   2   0   31.79    1.22
  12  -2   0   30.06    1.19
  12  -2  -1    1.32    0.29
 -12   2  -1    1.43    0.28
 -12   2   1    1.50    0.28
  12  -2   1    1.25    0.23
  12  -2   2    9.38    0.62
 -12   2  -2    8.89    0.68
  12  -2  -2    9.27    0.75
 -12   2  -3    9.59    0.74
 -12   2  -4    1.05    0.28
 -12   2  -5    0.52    0.23
 -12   2  -6    2.28    0.40
  12   2   7    0.01    0.09
 -12   2  -7    0.04    0.15
  12  -3   0    3.00    0.43
  12  -3   1   11.32    0.78
  12  -3  -1   12.32    0.88
  12  -3   2   29.65    1.23
 -12   3  -2   30.00    1.37
  12  -3  -2   29.50    1.44
  12  -3  -3    1.04    0.30
 -12   3  -3    0.83    0.27
  12  -3  -4    0.38    0.19
 -12   3  -4    0.92    0.27
  12  -3  -5    0.61    0.26
 -12   3  -5    0.52    0.23
  12  -3  -6    3.45    0.58
 -12   3  -6    3.10    0.49
  12  -4   0   13.04    0.94
  12  -4  -1    0.11    0.14
  12  -4   1    0.08    0.14
  12  -4   2    2.68    0.43
  12  -4  -2    2.42    0.45
 -12   4  -3    4.34    0.58
  12  -4  -3    4.42    0.64
 -12   4  -4    1.03    0.29
  12  -4  -4    1.69    0.44
  12  -4  -5    0.16    0.20
 -12   4  -5    0.28    0.20
  12  -5   0    0.90    0.30
  12  -5  -1    3.95    0.58
  12  -5   1    3.84    0.55
  12  -5  -2    7.09    0.83
  12  -5   2    7.58    0.77
  12  -5  -3   -0.04    0.18
  12  -5  -4    0.00    0.20
  12  -6   0    3.86    0.60
  12  -6   1    0.49    0.28
  12  -6  -1    0.30    0.23
 -13   0   0    0.14    0.12
 -13   0  -1    3.42    0.39
 -13   0   1    3.51    0.36
  13   0   1    3.70    0.36
 -13   0   2    7.42    0.49
 -13   0  -2    7.57    0.60
  13   0   2    7.20    0.55
  13   0   3    1.43    0.27
 -13   0  -3    1.81    0.31
 -13   0  -4    4.41    0.50
  13   0   4    4.82    0.51
  13   0   5    0.58    0.20
 -13   0  -5    1.29    0.32
  13   0   6    0.10    0.13
 -13   0  -6    0.09    0.13
  13   0   7    0.66    0.23
 -13   0  -7    0.79    0.28
  13   1   0    0.11    0.07
  13  -1   0    0.07    0.12
 -13   1   0    0.07    0.12
 -13   1  -1    1.68    0.29
 -13   1   1    2.06    0.28
  13  -1   1    1.79    0.25
  13   1   1    2.19    0.27
  13   1   2    0.30    0.13
 -13   1  -2    0.47    0.18
 -13   1   2    0.17    0.11
  13   1   3    0.36    0.14
 -13   1  -3    0.33    0.15
 -13   1   3    0.35    0.12
  13   1   4    2.20    0.34
 -13   1  -4    2.68    0.41
  13  -1   4    2.49    0.37
  13   1   5    1.48    0.30
 -13   1  -5    1.97    0.36
  13  -1   5    1.85    0.35
  13   1   6    0.52    0.18
 -13   1  -6    0.69    0.24
  13  -1   6    0.58    0.22
  13   1   7   -0.24    0.15
 -13   1  -7    0.18    0.16
  13  -1   7    0.11    0.18
 -13   2   0    0.15    0.12
  13  -2   0    0.04    0.08
  13  -2  -1    2.39    0.38
 -13   2  -1    2.71    0.38
 -13   2   1    2.46    0.34
  13  -2   1    1.90    0.29
 -13   2  -2    5.41    0.56
 -13   2   2    4.96    0.46
  13  -2  -2    5.86    0.61
 -13   2  -3    0.42    0.18
 -13   2   3    0.67    0.18
 -13   2  -4    2.68    0.42
 -13   2  -5    0.24    0.17
  13   2   6   -0.22    0.15
 -13   2  -6    0.08    0.11
  13   2   7    0.41    0.18
  13  -3   0    0.03    0.11
  13  -3   1    1.01    0.25
 -13   3  -1    1.71    0.35
  13  -3  -1    1.19    0.29
  13  -3  -2    0.07    0.11
 -13   3  -2    0.26    0.20
  13  -3  -3   -0.15    0.17
 -13   3  -3    0.23    0.19
  13  -3  -4    0.91    0.29
 -13   3  -4    1.47    0.32
  13  -3  -5    0.84    0.30
 -13   3  -5    1.03    0.33
  13  -3  -6    0.71    0.28
  13  -4   0    0.01    0.14
  13  -4  -1    0.71    0.26
  13  -4   1    0.63    0.24
 -13   4  -2    1.91    0.38
  13  -4  -2    1.49    0.38
 -13   4  -3    0.22    0.20
  13  -4  -3   -0.07    0.15
 -13   4  -4    0.71    0.27
  13  -4  -4    0.75    0.28
  13  -4  -5    0.21    0.29
  13  -5   0   -0.02    0.12
  13  -5  -1    0.27    0.22
  13  -5   1    0.04    0.13
  13  -5  -2    0.39    0.30
  13  -5  -3   -0.10    0.19
  13  -6   0   -0.19    0.19
 -14   0   0   15.93    0.83
 -14   0   1    8.27    0.57
 -14   0  -1    7.68    0.61
  14   0   1    8.01    0.54
 -14   0   2    1.61    0.24
 -14   0  -2    1.84    0.31
  14   0   2    1.85    0.29
 -14   0  -3    2.03    0.35
  14   0   3    2.54    0.37
 -14   0  -4    0.42    0.17
  14   0   4    0.26    0.14
 -14   0  -5    0.20    0.11
  14   0   5    0.46    0.21
 -14   0  -6    0.51    0.25
  14   0   6    0.23    0.17
  14   0   7    0.18    0.14
  14  -1   0    0.22    0.11
 -14   1   0    0.19    0.15
  14   1   1    0.46    0.14
 -14   1  -1    0.66    0.21
 -14   1   1    0.78    0.20
  14   1   2    0.71    0.19
 -14   1  -2    0.49    0.17
 -14   1   2    0.59    0.17
  14   1   3    0.60    0.18
 -14   1  -3    0.36    0.17
  14   1   4    1.72    0.32
 -14   1  -4    1.74    0.33
  14   1   5    0.17    0.16
 -14   1  -5    0.19    0.17
  14  -1   5    0.09    0.12
  14   1   6    0.46    0.21
 -14   1  -6    0.78    0.28
  14  -1   6    0.25    0.18
  14   1   7    0.13    0.16
  14  -1   7    0.17    0.19
 -14   2   0   10.67    0.75
  14  -2   0   10.66    0.74
 -14   2  -1    5.70    0.57
 -14   2   1    5.54    0.53
  14  -2  -1    5.49    0.59
  14  -2  -2    1.79    0.35
 -14   2  -2    1.22    0.29
 -14   2   2    1.08    0.24
 -14   2  -3    1.71    0.35
  14   2   4    0.05    0.09
 -14   2  -4    0.06    0.12
  14   2   5    0.05    0.10
 -14   2  -5    0.11    0.13
  14   2   6    0.13    0.14
  14  -3   0    0.22    0.16
 -14   3   0    0.32    0.20
 -14   3  -1    0.32    0.12
 -14   3   1    0.34    0.16
  14  -3  -1    0.47    0.22
 -14   3  -2    0.36    0.17
  14  -3  -2    0.11    0.20
  14  -3  -3    0.54    0.26
 -14   3  -3    0.38    0.18
  14  -3  -4    1.07    0.38
 -14   3  -4    1.14    0.31
  14  -3  -5    0.11    0.17
  14  -4   0    3.74    0.52
  14  -4  -1    1.97    0.41
 -14   4  -1    1.90    0.39
 -14   4  -2    0.42    0.22
  14  -4  -2    0.10    0.16
 -14   4  -3    0.82    0.29
  14  -4  -3    0.15    0.20
  14  -4  -4    0.03    0.20
  14  -5   0    0.86    0.31
  14  -5  -1    0.35    0.23
  14  -5  -2   -0.09    0.15
 -15   0   0    0.02    0.09
 -15   0   1    1.68    0.28
 -15   0  -1    1.20    0.26
 -15   0  -2    0.42    0.18
 -15   0  -3    3.23    0.46
  15   0   3    3.61    0.45
 -15   0  -4    1.05    0.28
  15   0   4    1.13    0.28
 -15   0  -5    0.85    0.27
  15   0   5    0.55    0.22
  15   0   6    0.14    0.13
 -15   1   0   -0.04    0.10
 -15   1  -1    1.24    0.27
 -15   1   1    1.53    0.28
 -15   1  -2    0.64    0.21
  15   1   3    0.73    0.20
 -15   1  -3    0.55    0.21
  15   1   4    0.18    0.14
 -15   1  -4    0.18    0.17
  15   1   5    0.43    0.19
 -15   1  -5    0.76    0.25
  15   1   6    0.13    0.17
 -15   2   0   -0.04    0.09
 -15   2  -1    1.20    0.28
 -15   2   1    1.01    0.24
  15  -2  -1    1.44    0.30
  15  -2  -2    0.17    0.11
 -15   2  -2    0.38    0.18
 -15   2   2    0.40    0.15
  15   2   3    1.97    0.34
  15  -2  -3    2.45    0.45
 -15   2  -3    1.65    0.37
  15   2   4    0.71    0.22
 -15   2  -4    0.89    0.26
  15   2   5    0.47    0.19
  15   2   6    0.02    0.13
 -15   3   0    0.01    0.10
 -15   3  -1    0.91    0.28
 -15   3   1    1.01    0.26
  15  -3  -1    0.29    0.15
 -15   3  -2    0.48    0.22
 -15   3   2    0.24    0.14
  15  -3  -2    0.53    0.25
 -15   3  -3    0.11    0.11
  15  -3  -3    0.39    0.24
  15  -3  -4    0.43    0.28
 -15   4   0    0.13    0.18
  15  -4  -1    0.46    0.25
 -15   4  -1    0.48    0.21
  15  -4  -2    0.01    0.15
  15  -4  -3    0.58    0.26
 -16   0   0    5.45    0.55
 -16   0  -1    0.29    0.17
 -16   0  -2    0.17    0.13
 -16   0  -3    1.00    0.28
 -16   0  -4    0.30    0.18
  16   0   5    1.73    0.36
 -16   1   0    0.86    0.25
 -16   1  -1    3.56    0.46
 -16   1   1    3.98    0.45
 -16   1  -2    0.92    0.26
 -16   1  -3    0.02    0.10
 -16   1  -4    0.96    0.29
  16   1   5    0.07    0.13
 -16   2   0    4.25    0.51
 -16   2  -1    0.29    0.16
 -16   2   1    0.05    0.10
 -16   2  -2    0.35    0.22
  16  -2  -2   -0.01    0.14
  16  -2  -3    0.51    0.23
 -16   2  -3    0.37    0.21
  16  -2  -4    0.07    0.15
  16   2   5    0.87    0.27
 -16   3   0    1.09    0.30
 -16   3  -1    2.16    0.41
 -16   3   1    1.90    0.37
 -16   3  -2    0.71    0.27
  16  -3  -3   -0.03    0.17
 -16   4   1    0.19    0.17
 -17   0  -1    0.58    0.22
 -17   0  -2    0.93    0.27
 -17   0  -3    1.32    0.32
 -17   1   0    0.05    0.14
 -17   1  -1    0.19    0.14
 -17   1  -2    1.13    0.31
 -17   2   0    0.18    0.14
 -17   2  -1    0.62    0.25
 -17   2  -2    0.95    0.28
 -17   3   0    0.26    0.15
 -18   0  -2    0.40    0.20
 -18   1  -1    1.09    0.29
   0   0   0    0.00    0.00


TITL PC-5_auto in Pnma
REM Pnma (#62, found as Pmcn in cab setting)
CELL 0.71073  13.464277   6.286609   9.113820  90.0000  90.0000  90.0000
ZERR    3.00   0.001320   0.001035   0.000930   0.0000   0.0000   0.0000
LATT  1
SYMM -x+1/2,-y, z+1/2
SYMM -x, y+1/2,-z
SYMM  x+1/2,-y+1/2,-z+1/2
SFAC C H N O
UNIT 33.00 30.00 3.00 3.00
TREF
HKLF 4
END
_computing_structure_solution     'SHELXT 2014/5 (Sheldrick, 2014)'
;
_shelx_hkl_checksum              26573
_olex2_submission_special_instructions 'No special instructions were received'
_oxdiff_exptl_absorpt_empirical_details
;
Empirical correction (ABSPACK) includes:
- Absorption correction using spherical harmonics
- Frame scaling
;
_oxdiff_exptl_absorpt_empirical_full_max 1.429
_oxdiff_exptl_absorpt_empirical_full_min 0.758
loop_
_space_group_symop_operation_xyz
'x, y, z'
'-x+1/2, -y, z+1/2'
'-x, y+1/2, -z'
'x+1/2, -y+1/2, -z+1/2'
'-x, -y, -z'
'x-1/2, y, -z-1/2'
'x, -y-1/2, z'
'-x-1/2, y-1/2, z-1/2'
loop_
_atom_site_label
_atom_site_type_symbol
_atom_site_fract_x
_atom_site_fract_y
_atom_site_fract_z
_atom_site_U_iso_or_equiv
_atom_site_adp_type
_atom_site_occupancy
_atom_site_site_symmetry_order
_atom_site_calc_flag
_atom_site_refinement_flags_posn
_atom_site_refinement_flags_adp
_atom_site_refinement_flags_occupancy
_atom_site_disorder_assembly
_atom_site_disorder_group
C1 C 0.95226(19) 0.2500 0.5360(3) 0.0551(7) Uani 1 2 d S T P . .
H1A H 1.0061 0.2500 0.4721 0.066 Uiso 1 2 calc RS T P . .
C2 C 0.8569(2) 0.2500 0.4794(3) 0.0579(7) Uani 1 2 d S T P . .
H2 H 0.8478 0.2500 0.3782 0.070 Uiso 1 2 calc RS T P . .
C3 C 0.79131(16) 0.2500 0.7123(3) 0.0466(6) Uani 1 2 d S T P . .
C4 C 0.88521(16) 0.2500 0.7715(3) 0.0448(6) Uani 1 2 d S T P . .
C5 C 0.96904(18) 0.2500 0.6839(3) 0.0512(6) Uani 1 2 d S T P . .
H5 H 1.0328 0.2500 0.7232 0.061 Uiso 1 2 calc RS T P . .
N1 N 0.77829(15) 0.2500 0.5670(2) 0.0548(6) Uani 1 2 d S T P . .
H1 H 0.7194 0.2500 0.5306 0.066 Uiso 1 2 calc RS T P . .
N2 N 0.72187(15) 0.2500 0.8185(2) 0.0622(7) Uani 1 2 d S T P . .
N3 N 0.76899(17) 0.2500 0.9432(3) 0.0664(7) Uani 1 2 d S T P . .
N4 N 0.86665(16) 0.2500 0.9174(2) 0.0563(6) Uani 1 2 d S T P . .
H4 H 0.9116 0.2500 0.9844 0.068 Uiso 1 2 calc RS T P . .
N5 N 0.56712(16) 0.2500 0.3625(2) 0.0532(6) Uani 1 2 d S T P . .
O1 O 0.63642(15) 0.2500 0.2767(2) 0.0709(6) Uani 1 2 d S T P . .
O2 O 0.47945(14) 0.2500 0.3212(2) 0.0756(7) Uani 1 2 d S T P . .
O3 O 0.58244(13) 0.2500 0.49944(19) 0.0715(7) Uani 1 2 d S T P . .
loop_
_atom_site_aniso_label
_atom_site_aniso_U_11
_atom_site_aniso_U_22
_atom_site_aniso_U_33
_atom_site_aniso_U_23
_atom_site_aniso_U_13
_atom_site_aniso_U_12
O3 0.0546(11) 0.1101(19) 0.0497(11) 0.000 -0.0062(9) 0.000
O1 0.0698(12) 0.0739(15) 0.0689(13) 0.000 0.0235(10) 0.000
O2 0.0565(11) 0.114(2) 0.0563(11) 0.000 -0.0122(9) 0.000
N5 0.0549(12) 0.0536(15) 0.0511(12) 0.000 -0.0006(10) 0.000
N1 0.0446(11) 0.0624(16) 0.0574(13) 0.000 -0.0057(9) 0.000
N4 0.0475(11) 0.0680(16) 0.0534(12) 0.000 -0.0028(10) 0.000
N2 0.0422(11) 0.0827(19) 0.0617(14) 0.000 0.0039(10) 0.000
N3 0.0507(12) 0.088(2) 0.0609(14) 0.000 0.0086(11) 0.000
C3 0.0396(11) 0.0474(15) 0.0528(14) 0.000 -0.0017(11) 0.000
C4 0.0415(12) 0.0410(14) 0.0521(14) 0.000 -0.0026(10) 0.000
C5 0.0400(11) 0.0506(16) 0.0631(15) 0.000 0.0042(11) 0.000
C1 0.0502(13) 0.0530(17) 0.0622(16) 0.000 0.0145(12) 0.000
C2 0.0631(15) 0.0602(19) 0.0506(14) 0.000 0.0024(13) 0.000
loop_
_atom_type_symbol
_atom_type_description
_atom_type_scat_dispersion_real
_atom_type_scat_dispersion_imag
_atom_type_scat_source
C C 0.0033 0.0016 'International Tables Vol C Tables 4.2.6.8 and 6.1.1.4'
H H 0.0000 0.0000 'International Tables Vol C Tables 4.2.6.8 and 6.1.1.4'
N N 0.0061 0.0033 'International Tables Vol C Tables 4.2.6.8 and 6.1.1.4'
O O 0.0106 0.0060 'International Tables Vol C Tables 4.2.6.8 and 6.1.1.4'
loop_
_geom_angle_atom_site_label_1
_geom_angle_atom_site_label_2
_geom_angle_atom_site_label_3
_geom_angle
_geom_angle_site_symmetry_1
_geom_angle_site_symmetry_3
O1 N5 O3 120.6(2) . .
O1 N5 O2 122.4(2) . .
O2 N5 O3 117.1(2) . .
C3 N1 H1 120.2 . .
C2 N1 H1 120.2 . .
C2 N1 C3 119.5(2) . .
N3 N4 H4 124.6 . .
N3 N4 C4 110.8(2) . .
C4 N4 H4 124.6 . .
N3 N2 C3 106.8(2) . .
N2 N3 N4 109.0(2) . .
N1 C3 N2 128.5(2) . .
N1 C3 C4 120.7(2) . .
N2 C3 C4 110.9(2) . .
N4 C4 C3 102.5(2) . .
N4 C4 C5 135.9(2) . .
C3 C4 C5 121.6(2) . .
C4 C5 H5 122.1 . .
C1 C5 C4 115.8(2) . .
C1 C5 H5 122.1 . .
C5 C1 H1A 119.3 . .
C5 C1 C2 121.4(2) . .
C2 C1 H1A 119.3 . .
N1 C2 C1 121.0(2) . .
N1 C2 H2 119.5 . .
C1 C2 H2 119.5 . .
loop_
_geom_bond_atom_site_label_1
_geom_bond_atom_site_label_2
_geom_bond_distance
_geom_bond_site_symmetry_2
O3 N5 1.265(3) .
O1 N5 1.217(3) .
O2 N5 1.239(3) .
N1 H1 0.8600 .
N1 C3 1.336(3) .
N1 C2 1.325(3) .
N4 H4 0.8600 .
N4 N3 1.336(3) .
N4 C4 1.353(3) .
N2 N3 1.302(3) .
N2 C3 1.346(3) .
C3 C4 1.375(3) .
C4 C5 1.383(3) .
C5 H5 0.9300 .
C5 C1 1.367(4) .
C1 H1A 0.9300 .
C1 C2 1.384(4) .
C2 H2 0.9300 .
loop_
_geom_torsion_atom_site_label_1
_geom_torsion_atom_site_label_2
_geom_torsion_atom_site_label_3
_geom_torsion_atom_site_label_4
_geom_torsion
_geom_torsion_site_symmetry_1
_geom_torsion_site_symmetry_2
_geom_torsion_site_symmetry_3
_geom_torsion_site_symmetry_4
N1 C3 C4 N4 180.000(0) . . . .
N1 C3 C4 C5 0.000(1) . . . .
N4 C4 C5 C1 180.000(1) . . . .
N2 C3 C4 N4 0.000(1) . . . .
N2 C3 C4 C5 180.000(0) . . . .
N3 N4 C4 C3 0.000(1) . . . .
N3 N4 C4 C5 180.000(1) . . . .
N3 N2 C3 N1 180.000(1) . . . .
N3 N2 C3 C4 0.000(1) . . . .
C3 N1 C2 C1 0.000(0) . . . .
C3 N2 N3 N4 0.000(1) . . . .
C3 C4 C5 C1 0.000(1) . . . .
C4 N4 N3 N2 0.000(1) . . . .
C4 C5 C1 C2 0.000(1) . . . .
C5 C1 C2 N1 0.000(0) . . . .
C2 N1 C3 N2 180.000(0) . . . .
C2 N1 C3 C4 0.000(1) . . . .
