#------------------------------------------------------------------------------
#$Date: 2022-05-19 12:02:30 +0300 (Thu, 19 May 2022) $
#$Revision: 275544 $
#$URL: file:///home/coder/svn-repositories/cod/cif/8/10/53/8105303.cif $
#------------------------------------------------------------------------------
#
# This file is available in the Crystallography Open Database (COD),
# http://www.crystallography.net/
#
# All data on this site have been placed in the public domain by the
# contributors.
#
data_8105303
loop_
_publ_author_name
'Yang, Shuang-Hua'
_publ_section_title
;
 The crystal structure of poly[bis(N,N-dimethylformamide-\k1
 O)-tetrakis(\m2-cyanido-\k2 C:N)dinickel(II)], C10H14N6O2Ni2
;
_journal_issue                   4
_journal_name_full
'Zeitschrift f\"ur Kristallographie - New Crystal Structures'
_journal_page_first              841
_journal_page_last               843
_journal_paper_doi               10.1515/ncrs-2020-0043
_journal_volume                  235
_journal_year                    2020
_chemical_formula_moiety         'C2.5 H3.5 N1.5 Ni0.5 O0.5'
_chemical_formula_sum            'C2.5 H3.5 N1.5 Ni0.5 O0.5'
_chemical_formula_weight         91.92
_space_group_crystal_system      monoclinic
_space_group_IT_number           12
_space_group_name_Hall           '-I 2y'
_space_group_name_H-M_alt        'I 1 2/m 1'
_atom_sites_solution_hydrogens   mixed
_atom_sites_solution_primary     dual
_cell_angle_alpha                90
_cell_angle_beta                 96.0510(10)
_cell_angle_gamma                90
_cell_formula_units_Z            8
_cell_length_a                   6.73770(10)
_cell_length_b                   7.35000(10)
_cell_length_c                   14.8647(2)
_cell_measurement_reflns_used    1986
_cell_measurement_temperature    150.01(10)
_cell_measurement_theta_max      72.4250
_cell_measurement_theta_min      6.7280
_cell_volume                     732.030(18)
_computing_cell_refinement       'CrysAlisPro 1.171.39.28b (Rigaku OD, 2015)'
_computing_data_collection       'CrysAlisPro 1.171.39.28b (Rigaku OD, 2015)'
_computing_data_reduction        'CrysAlisPro 1.171.39.28b (Rigaku OD, 2015)'
_computing_molecular_graphics    'Olex2 (Dolomanov et al., 2009)'
_computing_publication_material  'Olex2 (Dolomanov et al., 2009)'
_computing_structure_refinement  'ShelXL (Sheldrick, 2015)'
_computing_structure_solution    'ShelXT (Sheldrick, 2015)'
_diffrn_ambient_environment      N~2~
_diffrn_ambient_temperature      150.01(10)
_diffrn_detector                 'CCD plate'
_diffrn_measured_fraction_theta_full 0.997
_diffrn_measured_fraction_theta_max 0.981
_diffrn_measurement_details
;
List of Runs (angles in degrees, time in seconds):

  # Type    Start    End  Width  t~exp~   \w     \q     \k     \f   Frames
--------------------------------------------------------------------------
  1  \w    -19.00  33.00   0.50    0.50    --    0.00 -82.00-120.00  104
  2  \w    -87.00 -31.00   0.50    0.50    --    0.00 -82.00-120.00  112
  3  \w    -32.00  35.00   0.50    0.50    --    0.00 -82.00  60.00  134
  4  \w    -89.00 -49.00   0.50    0.50    --    0.00 -82.00  60.00   80
  5  \w    102.00 151.00   0.50    1.54    --   98.20  15.00 -90.00   98
  6  \w    155.00 188.00   0.50    1.54    --   98.20  15.00 -90.00   66
  7  \w     13.00  45.00   0.50    1.54    --   98.20 -82.00 -30.00   64
  8  \w     93.00 119.00   0.50    1.54    --   98.20 -77.00 120.00   52
  9  \w     11.00 126.00   0.50    1.54    --   98.20 -45.00 120.00  230
 10  \w      9.00 125.00   0.50    1.54    --   98.20 -61.00 -30.00  232
 11  \w     64.00 133.00   0.50    1.54    --   98.20 -77.00-180.00  138
 12  \w     50.00  77.00   0.50    1.54    --   98.20 -77.00 120.00   54
 13  \w     77.00 129.00   0.50    1.54    --   98.20 -82.00-150.00  104
 14  \w     38.00  65.00   0.50    1.54    --   98.20  15.00-120.00   54
 15  \w     68.00 187.00   0.50    1.54    --   98.20  15.00-120.00  238
 16  \w     15.00  41.00   0.50    1.54    --   98.20 -77.00 120.00   52
 17  \w     42.00  67.00   0.50    1.54    --   98.20 -45.00   0.00   50
 18  \w     90.00 127.00   0.50    1.54    --   98.20 -45.00   0.00   74
 19  \w    131.00 164.00   0.50    1.54    --   98.20  45.00-180.00   66
 20  \w     74.00 108.00   0.50    1.54    --   98.20 -82.00  90.00   68
 21  \w     55.00 129.00   0.50    1.54    --   98.20 -82.00 -30.00  148
;
_diffrn_measurement_device       'four-circle diffractometer'
_diffrn_measurement_device_type  'XtaLAB AFC12 (RINC): Kappa single'
_diffrn_measurement_method       '\w scans'
_diffrn_orient_matrix_type
'CrysAlisPro convention (1999,Acta A55,543-557)'
_diffrn_orient_matrix_UB_11      -0.0229819000
_diffrn_orient_matrix_UB_12      0.0064343000
_diffrn_orient_matrix_UB_13      -0.1041643000
_diffrn_orient_matrix_UB_21      0.2172612000
_diffrn_orient_matrix_UB_22      -0.0650644000
_diffrn_orient_matrix_UB_23      -0.0004082000
_diffrn_orient_matrix_UB_31      -0.0717513000
_diffrn_orient_matrix_UB_32      -0.1991365000
_diffrn_orient_matrix_UB_33      -0.0032194000
_diffrn_radiation_monochromator  graphite
_diffrn_radiation_probe          x-ray
_diffrn_radiation_type           CuK\a
_diffrn_radiation_wavelength     1.54184
_diffrn_reflns_av_R_equivalents  0.0270
_diffrn_reflns_av_unetI/netI     0.0257
_diffrn_reflns_Laue_measured_fraction_full 0.997
_diffrn_reflns_Laue_measured_fraction_max 0.981
_diffrn_reflns_limit_h_max       8
_diffrn_reflns_limit_h_min       -7
_diffrn_reflns_limit_k_max       5
_diffrn_reflns_limit_k_min       -8
_diffrn_reflns_limit_l_max       16
_diffrn_reflns_limit_l_min       -18
_diffrn_reflns_number            2748
_diffrn_reflns_point_group_measured_fraction_full 0.997
_diffrn_reflns_point_group_measured_fraction_max 0.981
_diffrn_reflns_theta_full        67.684
_diffrn_reflns_theta_max         73.246
_diffrn_reflns_theta_min         5.987
_diffrn_source                   'fine-focus sealed X-ray tube'
_diffrn_source_type              'Enhance (Cu) X-ray Source'
_exptl_absorpt_coefficient_mu    3.299
_exptl_absorpt_correction_T_max  1.00000
_exptl_absorpt_correction_T_min  0.82428
_exptl_absorpt_correction_type   multi-scan
_exptl_absorpt_process_details
;
CrysAlisPro 1.171.39.28b (Rigaku Oxford Diffraction, 2015)
Empirical absorption correction using spherical harmonics,
 implemented in SCALE3 ABSPACK scaling algorithm.
;
_exptl_crystal_colour            brown
_exptl_crystal_colour_primary    brown
_exptl_crystal_density_diffrn    1.668
_exptl_crystal_description       block
_exptl_crystal_F_000             376
_exptl_crystal_size_max          0.2
_exptl_crystal_size_mid          0.08
_exptl_crystal_size_min          0.05
_refine_diff_density_max         0.359
_refine_diff_density_min         -0.371
_refine_diff_density_rms         0.071
_refine_ls_extinction_coef       .
_refine_ls_extinction_method     none
_refine_ls_goodness_of_fit_ref   1.210
_refine_ls_hydrogen_treatment    mixed
_refine_ls_matrix_type           full
_refine_ls_number_parameters     71
_refine_ls_number_reflns         783
_refine_ls_number_restraints     1
_refine_ls_restrained_S_all      1.209
_refine_ls_R_factor_all          0.0351
_refine_ls_R_factor_gt           0.0314
_refine_ls_shift/su_max          0.000
_refine_ls_shift/su_mean         0.000
_refine_ls_structure_factor_coef Fsqd
_refine_ls_weighting_details
;
 w=1/[\s^2^(Fo^2^)+(0.0555P)^2^+0.6822P]
 where P=(Fo^2^+2Fc^2^)/3
;
_refine_ls_weighting_scheme      calc
_refine_ls_wR_factor_gt          0.0975
_refine_ls_wR_factor_ref         0.0996
_reflns_Friedel_coverage         0.000
_reflns_Friedel_fraction_full    .
_reflns_Friedel_fraction_max     .
_reflns_number_gt                713
_reflns_number_total             783
_reflns_threshold_expression     'I > 2\s(I)'
_cod_data_source_file            suppl_ncrs-2020-0043_suppl.cif
_cod_data_source_block           ni
_cod_original_formula_sum        'C2.50 H3.50 N1.50 Ni0.50 O0.50'
_cod_database_code               8105303
_chemical_oxdiff_formula         'C H O N S Ni'
_shelx_space_group_comment
;
The symmetry employed for this shelxl refinement is uniquely defined
by the following loop, which should always be used as a source of
symmetry information in preference to the above space-group names.
They are only intended as comments.
;
_shelx_estimated_absorpt_t_max   0.852
_shelx_estimated_absorpt_t_min   0.558
_reflns_odcompleteness_completeness 99.86
_reflns_odcompleteness_iscentric 1
_reflns_odcompleteness_theta     66.97
_olex2_refinement_description
;
1. Fixed Uiso
 At 1.2 times of:
  All C(H) groups
2. Restrained distances
 C3-N2 \\sim N2-C4
 with sigma of 0.02
3.a Aromatic/amide H refined with riding coordinates:
 C2(H2)
;
_shelx_res_file
;
TITL 20170914de1_a.res in I2/m
REM Old TITL 20170914DE1 in I2/m
REM SHELXT solution in I2/m
REM R1 0.089, Rweak 0.006, Alpha 0.035, Orientation as input
REM Formula found by SHELXT: C5 N O3 Ni
CELL 1.54184 6.7377 7.35 14.8647 90 96.051 90
ZERR 8 0.0001 0.0001 0.0002 0 0.001 0
LATT 2
SYMM -X,+Y,-Z
SFAC C H N Ni O
UNIT 20 28 12 4 4
SADI C3 N2 N2 C4

L.S. 5
PLAN  20
SIZE 0.2 0.08 0.05
BOND $H
LIST 6
fmap 2
acta
REM <olex2.extras>
REM <HklSrc "%.\\Ni.hkl">
REM </olex2.extras>

WGHT    0.055500    0.682200
FVAR       0.63365
NI1   4    1.000000    0.500000    0.500000    10.25000    0.01484    0.01019 =
         0.02576    0.00000   -0.00045    0.00000
NI2   4    0.500000    0.000000    0.500000    10.25000    0.01480    0.01018 =
         0.02821    0.00000    0.00058    0.00000
O1    5    0.865498    0.500000    0.366934    10.50000    0.02259    0.02452 =
         0.02789    0.00000   -0.00195    0.00000
N1    3    0.804009    0.298344    0.530231    11.00000    0.02003    0.01541 =
         0.02938    0.00104   -0.00017   -0.00086
N2    3    0.584834    0.500000    0.268097    10.50000    0.02921    0.02506 =
         0.02592    0.00000   -0.00372    0.00000
C1    1    0.691700    0.182135    0.522743    11.00000    0.01898    0.01527 =
         0.02745    0.00258    0.00160    0.00397
C2    1    0.680053    0.500000    0.350022    10.50000    0.02674    0.01611 =
         0.02635    0.00000   -0.00081    0.00000
AFIX  43
H2    2    0.603963    0.500000    0.398712    10.50000   -1.20000
AFIX   0
C3    1    0.366950    0.500000    0.254127    10.50000    0.03104    0.04806 =
         0.03977    0.00000   -0.00882    0.00000
H3A   2    0.314727    0.500000    0.320323    10.50000    0.03009
H3B   2    0.328714    0.395784    0.217011    11.00000    0.05859
C4    1    0.690609    0.500000    0.187673    10.50000    0.04586    0.04772 =
         0.02865    0.00000    0.00266    0.00000
H4A   2    0.654074    0.396845    0.152514    11.00000    0.05525
H4B   2    0.827931    0.500000    0.202209    10.50000    0.05496
HKLF 4

REM  20170914de1_a.res in I2/m
REM R1 =  0.0314 for     713 Fo > 4sig(Fo)  and  0.0351 for all     783 data
REM     71 parameters refined using      1 restraints

END

WGHT      0.0555      0.6822

REM Highest difference peak  0.359,  deepest hole -0.371,  1-sigma level  0.071
Q1    1   0.5209  0.0000  0.4220  10.50000  0.05    0.36
Q2    1   0.9058  0.5000  0.4142  10.50000  0.05    0.32
Q3    1   0.6451  0.0706  0.4554  11.00000  0.05    0.28
Q4    1   0.3175  0.0000  0.4771  10.50000  0.05    0.25
Q5    1   0.9895  0.5257  0.5778  11.00000  0.05    0.25
Q6    1   0.6189  0.1434  0.5191  11.00000  0.05    0.24
Q7    1   0.8649  0.4418  0.5465  11.00000  0.05    0.24
Q8    1   0.6769  0.5000  0.2594  10.50000  0.05    0.23
Q9    1   0.7429  0.2210  0.5619  11.00000  0.05    0.22
Q10   1   0.8668  0.3524  0.4902  11.00000  0.05    0.22
Q11   1   0.6566  0.0920  0.5003  11.00000  0.05    0.22
Q12   1   0.6637  0.2502  0.5248  11.00000  0.05    0.21
Q13   1   0.9221  0.3739  0.4351  11.00000  0.05    0.21
Q14   1   0.5629  0.1008  0.5738  11.00000  0.05    0.20
Q15   1   0.8011  0.5000  0.3646  10.50000  0.05    0.19
Q16   1   1.0008  0.5000  0.3362  10.50000  0.05    0.19
Q17   1   0.8847  0.5000  0.2896  10.50000  0.05    0.18
Q18   1   0.7432  0.3045  0.5338  11.00000  0.05    0.18
Q19   1   0.5331  0.5000  0.2455  10.50000  0.05    0.17
Q20   1   0.7816  0.4299  0.1958  11.00000  0.05    0.17
;
_shelx_hkl_file
;
   0   0  -2 3864.47  111.66
   0   0  -2 3995.44  111.06
   0   0   2 3995.98  111.68
   0   0   2 3908.79  111.09
   0   0  -4 8045.58  225.99
   0   0   4 7984.45  227.06
   0   0   6 4275.33  127.43
   0   0  -6 4264.05  126.11
   0   0   8 3105.94   99.53
   0   0 -10  220.10   10.42
   0   0 -10  244.70   12.39
   0   0 -12  269.74   14.63
   0   0 -14  110.67    9.18
   0   0 -16   76.55    6.97
   0   0 -18    1.20    1.23
   0   0 -18    2.58    1.44
   0  -1   1  275.41    9.24
   0  -1  -1  266.53    9.91
   0   1   1  273.66    9.97
   0   1  -1  274.03    9.24
   0   1  -3  361.49   13.80
   0  -1  -3  393.54   14.67
   0   1  -5  181.25   10.81
   0   1  -5  194.80   10.60
   0  -1  -5  199.95   10.92
   0   1   5  188.32   11.82
   0   1   5  196.97   10.50
   0  -1   5  195.95   10.72
   0   1   7   91.77    8.19
   0  -1   7   94.51    8.54
   0  -1  -7  107.04    9.08
   0   1  -7  101.82    8.86
   0   1   7  116.56   10.13
   0  -1   9   41.37    4.10
   0  -1  -9   44.29    4.53
   0  -1  -9   43.88    4.15
   0  -1  11  282.98   13.37
   0  -1 -11  283.85   13.37
   0   1 -11  313.20   15.46
   0  -1 -13   77.55    7.62
   0   1 -13   76.35    7.86
   0  -1 -13   71.42    6.27
   0  -1  13   79.62    6.40
   0   1 -15    0.75    3.55
   0  -1 -15    1.98    2.61
   0  -1 -17    0.56    1.50
   0   1 -17   -0.37    2.18
   0  -1 -17    0.41    1.76
   0   2   0 7297.37  209.68
   0  -2   0 7651.75  211.21
   0   2   0 7521.31  211.07
   0  -2   2  478.29   16.32
   0   2   2  464.33   18.15
   0  -2  -2  449.33   17.93
   0  -2   4  394.98   15.49
   0  -2  -4  409.20   17.38
   0   2  -4  392.94   15.53
   0  -2  -6  769.04   29.89
   0   2   6  727.27   28.74
   0   2  -6  690.47   27.45
   0  -2   6  726.83   27.34
   0   2  -8 1755.49   53.73
   0  -2  -8 1684.56   52.35
   0  -2   8 1688.94   51.51
   0  -2  -8 1753.69   52.95
   0  -2   8 1748.47   53.31
   0  -2  10  357.13   15.84
   0  -2 -10  352.48   15.72
   0   2 -10  361.91   16.83
   0  -2 -10  362.21   15.83
   0  -2  12  666.21   25.73
   0  -2 -12  661.25   25.69
   0   2 -12  712.43   27.99
   0  -2 -12  642.02   25.56
   0  -2 -14  476.35   20.07
   0  -2  14  512.69   20.19
   0  -2 -14  488.88   19.94
   0  -2  16  401.96   15.11
   0  -2 -16  400.55   16.13
   0   3  -1  185.74   11.37
   0   3   1  176.46   10.84
   0   3   1  177.88   10.19
   0  -3  -1  183.82   11.22
   0   3  -1  186.08    9.37
   0   3   3  260.75   14.59
   0   3  -3  255.85   11.66
   0  -3  -3  287.12   15.01
   0   3   5   12.39    3.64
   0  -3  -5   19.01    4.13
   0   3  -5   13.17    3.95
   0  -3  -7  136.80    8.38
   0  -3   7  147.80    8.59
   0  -3  -7  151.19    8.23
   0  -3  -7  160.35    9.20
   0  -3   7  158.42    8.09
   0  -3  -9  105.80    7.47
   0  -3   9   99.06    6.67
   0  -3   9  107.96    7.04
   0   3  -9  104.40    7.97
   0  -3  -9  108.54    7.85
   0  -3 -11  101.13    7.51
   0   3 -11  113.53    9.09
   0  -3  11  105.77    8.45
   0  -3  11  101.43    6.98
   0  -3 -11  102.77    8.01
   0  -3 -11  114.84    8.63
   0  -3  13  135.73    9.22
   0  -3 -13  126.43    8.84
   0  -3 -13  124.20    9.13
   0   3 -13  124.19    9.84
   0  -3 -15    1.64    2.06
   0  -3  15    0.48    2.21
   0   3 -15   -0.16    2.64
   0  -3 -15    0.11    1.89
   0   3 -17    0.66    1.41
   0   4   0 6131.02  180.16
   0   4   0 6017.12  175.88
   0   4   2  589.91   25.63
   0  -4  -2  570.62   20.60
   0   4   2  589.21   26.90
   0  -4   2  557.75   20.23
   0  -4  -4 1175.88   37.54
   0  -4   4 1139.07   37.00
   0  -4   4 1182.43   37.80
   0  -4   6 1005.67   33.99
   0  -4  -6  991.14   34.22
   0  -4  -6 1016.34   34.60
   0  -4  -8 1342.19   42.25
   0   4  -8 1256.12   41.31
   0  -4  -8 1135.35   40.92
   0  -4   8 1201.62   40.24
   0  -4   8 1197.83   39.95
   0  -4   8 1301.91   41.91
   0  -4  10  180.64   11.23
   0   4 -10  178.05   11.14
   0  -4  10  182.86   10.50
   0  -4  10  172.99    9.85
   0  -4 -10  175.45   11.29
   0  -4 -10  173.72   10.87
   0   4 -12  269.71   14.36
   0  -4 -12  284.32   14.55
   0  -4  12  260.66   12.44
   0  -4 -12  264.36   13.14
   0   4 -14  165.50    9.95
   0  -4  14  171.02    9.70
   0  -4 -14  176.86    9.82
   0  -4 -16   90.54    4.91
   0   4 -16   99.12    5.54
   0  -5  -1  164.47    9.36
   0  -5   1  156.58    8.90
   0  -5  -1  157.39    8.50
   0  -5  -3   53.86    5.68
   0  -5  -3   55.73    5.27
   0  -5   5    4.20    2.35
   0  -5  -5    4.94    2.63
   0  -5  -7   26.89    4.94
   0  -5  -7   22.02    4.39
   0  -5   7   26.50    4.38
   0  -5   7   25.11    4.45
   0  -5  -9    3.83    3.68
   0  -5   9    5.31    2.97
   0  -5  -9    3.46    3.03
   0  -5   9    4.44    2.86
   0  -5   9    5.46    3.34
   0  -5  11  169.88    9.52
   0  -5 -11  177.48   10.55
   0  -5  11  182.41   10.28
   0  -5  11  185.55   11.00
   0  -5 -13    9.10    2.49
   0  -5 -13   14.87    3.36
   0  -5  13   15.66    3.35
   0  -5 -15    5.39    1.52
   0  -6   0 2970.22   89.32
   0  -6   0 3039.09   90.65
   0  -6  -2  641.80   24.07
   0  -6   2  640.06   24.78
   0  -6   2  659.45   24.29
   0  -6  -2  628.14   25.35
   0  -6   4  898.10   32.98
   0  -6  -4  893.62   32.31
   0  -6  -4  922.48   33.41
   0  -6   6  727.99   27.23
   0  -6   6  812.61   29.63
   0  -6  -6  769.52   29.02
   0  -6  -8  866.91   30.89
   0  -6   8  807.55   30.15
   0  -6  -8  730.07   28.25
   0  -6   8  811.90   29.12
   0  -6  -8  820.72   30.29
   0  -6   8  808.17   29.29
   0  -6 -10  129.01    8.82
   0  -6  10  128.85    8.27
   0  -6  10  125.72    8.38
   0  -6 -10  133.15    8.83
   0  -6 -10  103.99    7.23
   0  -6  10  131.25    8.06
   0  -6 -12  129.82    7.42
   0  -6  12  163.06    8.25
   0  -7  -1   44.21    5.96
   0  -7   1    1.67    2.12
   0  -7  -3  114.07    8.66
   0  -7  -3  109.12    7.64
   0  -7   3  108.74    8.08
   0  -7   5   22.53    4.50
   0  -7  -5   19.97    4.40
   0  -7   5   22.52    4.21
   0  -7  -5   19.94    3.76
   0  -7  -7    8.25    2.92
   0  -7   7    6.77    3.22
   0  -7   7    9.58    3.29
   0  -7   9   12.01    3.02
   0  -7  -9    8.89    2.97
   0  -7   9   16.07    3.20
   0  -7  -9    9.90    2.77
   0  -7 -11   21.69    2.77
   0  -7 -11   36.21    3.20
   0  -8   0  333.81   17.28
   0  -8   0  348.46   14.32
   0  -8  -2  219.35    9.59
   0  -8   2    4.71    2.71
   0  -8   4   48.87    4.68
   0  -8   4   57.22    5.27
   0  -8   6  121.98    7.07
   0  -8   6  114.86    6.90
   0  -8   8  236.38    9.63
   1   0 -17    2.29    2.30
   1   0 -15    1.91    3.42
   1   0 -13  472.69   21.76
  -1   0  11  181.70    9.36
  -1   0   9  493.33   17.88
   1   0  -9  496.24   19.59
   1   0  -7  159.03   12.35
  -1   0   7  162.54   12.32
  -1   0   5 3737.94  114.86
   1   0  -5 3918.17  115.11
   1   0  -3  302.31   12.80
  -1   0   3  321.18   13.21
  -1   0   1  741.43   23.90
  -1   0   1  757.58   23.22
   1   0  -1  759.63   24.23
   1   0   1  193.27    7.77
  -1   0  -3   66.10    3.89
  -1   0  -5 2190.29   65.67
   1   0   5 2164.05   67.78
   1   0   7  900.84   34.99
  -1   0  -9  131.40    8.22
  -1   0 -11  225.00   12.52
  -1   0 -13   56.77    5.53
  -1   0 -13   62.53    6.99
  -1   0 -15   72.57    7.00
  -1   0 -17    2.69    1.65
   1   1 -18   55.40    4.21
   1  -1 -18   47.35    3.75
   1  -1 -16  244.79   12.92
   1   1 -16  270.31   13.87
   1  -1 -16  249.13   12.89
  -1  -1  14  487.25   19.53
   1  -1 -14  509.08   22.33
  -1  -1  12   35.86    4.50
   1  -1 -12   39.52    5.77
   1  -1 -10 1544.80   49.42
   1  -1 -10 1620.05   52.15
  -1  -1  10 1636.56   50.36
   1   1 -10 1627.98   52.13
   1   1  -8 1262.68   49.70
   1  -1  -8 1326.59   42.11
   1   1  -8 1362.43   42.48
  -1  -1   8 1313.86   41.19
   1   1  -6 1371.16   46.26
  -1   1   6 1388.76   45.86
   1   1  -4 1201.90   39.02
  -1   1   4 1129.24   39.17
   1   1  -4 1109.81   38.31
   1  -1  -2 9922.17  276.02
  -1  -1   2 9846.21  276.30
  -1   1   2 9999.00  275.55
   1  -1  -2 9574.27  275.58
  -1   1   0 1653.30   48.30
   1  -1   0 1608.47   46.67
   1  -1   0 1637.75   48.39
  -1   1  -2 4758.58  143.86
  -1  -1  -2 4935.79  142.12
   1  -1   2 5228.56  141.14
   1  -1   2 5124.92  140.98
  -1  -1  -4  967.71   30.11
   1   1   4  876.12   29.57
   1  -1   4  967.35   29.97
   1   1   6 4659.39  138.71
  -1   1  -6 4757.58  135.82
  -1  -1  -6 4643.59  134.20
   1  -1   6 4381.50  134.47
  -1  -1  -8  828.03   28.23
   1  -1   8  891.05   29.15
  -1   1  -8  809.32   33.74
   1  -1   8  863.09   30.08
  -1  -1  -8  844.42   28.22
   1  -1  10  376.47   16.01
  -1   1 -10  391.67   17.56
  -1  -1 -10  382.00   15.88
  -1  -1 -10  386.37   16.62
   1  -1  12  520.41   21.11
  -1   1 -12  573.61   23.84
  -1  -1 -12  564.21   22.59
  -1  -1 -12  530.79   22.04
  -1   1 -14  230.68   13.47
  -1  -1 -14  210.44   11.39
  -1  -1 -14  223.15   12.32
   1  -1  14  200.16   10.37
  -1   1 -16   79.49    6.65
  -1  -1 -16   66.16    5.23
   1   2 -17    4.59    2.39
   1  -2 -17    3.88    2.01
   1  -2 -15  142.34    9.49
  -1  -2  15  130.82    8.07
   1  -2 -15  113.17    8.19
   1   2 -15  134.01    9.75
  -1  -2  13    3.94    2.95
   1  -2 -13    2.52    2.14
   1   2 -13    2.91    3.86
   1  -2 -13    6.39    3.10
  -1  -2  11  235.08   12.28
   1  -2 -11  219.43   12.46
   1   2 -11  238.37   13.40
   1  -2  -9  260.12   12.01
  -1  -2   9  248.86   11.29
   1  -2  -9  240.29   12.28
  -1  -2   9  266.52   12.56
   1   2  -9  270.10   13.21
  -1  -2   9  268.53   11.50
  -1   2   7  884.46   35.67
  -1  -2   7  890.35   35.13
   1   2  -7  831.09   34.63
   1  -2  -7  902.91   37.24
   1   2  -5   34.92    5.14
   1   2  -5   35.70    4.77
  -1   2   5   34.92    4.99
  -1   2   5   43.09    5.85
   1  -2  -5   38.83    5.39
  -1  -2   5   34.79    4.76
  -1  -2   3  391.54   16.60
  -1   2   3  361.97   16.52
  -1   2   1 1041.89   35.00
   1   2  -1 1044.98   34.67
  -1  -2   1 1054.93   34.76
   1   2  -1 1054.70   34.19
   1  -2  -1  992.52   34.76
  -1   2   1 1039.03   32.87
   1   2   1  889.94   30.93
   1   2   1  862.80   28.52
  -1   2  -1  880.19   30.19
  -1   2  -3  656.34   25.70
  -1  -2  -3  727.48   24.36
   1   2   5   52.01    4.80
   1  -2   5   44.27    3.09
  -1   2  -5   46.49    5.52
  -1  -2  -5   54.22    5.08
  -1  -2  -7  141.95    8.59
  -1  -2  -7  125.38    7.37
  -1   2  -7  129.64   10.87
   1  -2   7  133.89    7.53
   1  -2   7  129.40    8.15
   1  -2   9  364.66   15.92
  -1  -2  -9  363.73   15.68
   1  -2   9  365.48   17.30
  -1  -2  -9  360.37   17.48
  -1  -2  -9  377.06   16.25
   1  -2   9  375.28   16.24
  -1  -2 -11   58.65    6.16
  -1  -2 -11   55.48    5.61
   1  -2  11   53.08    5.81
  -1  -2 -13   38.71    5.26
   1  -2  13   39.04    4.98
  -1  -2 -15    0.63    2.09
   1  -2  15    0.97    1.84
  -1   2 -17    9.44    2.30
  -1  -3  16  169.16    8.39
   1   3 -16  177.21    9.46
   1  -3 -16  153.33    8.41
   1   3 -14  398.09   18.41
  -1  -3  14  406.51   17.32
   1  -3 -14  396.52   17.77
   1  -3 -14  366.97   16.18
   1  -3 -12   34.07    4.75
  -1  -3  12   33.76    5.27
   1  -3 -12   38.58    5.60
   1  -3 -10 1152.12   39.00
   1  -3 -10 1052.10   36.64
   1  -3 -10 1190.22   38.34
   1   3 -10 1104.26   38.84
  -1  -3  10 1061.97   36.66
   1   3  -8 1114.81   37.16
   1  -3  -8 1111.50   37.37
  -1  -3   8 1115.49   37.07
  -1  -3   8 1113.62   36.35
  -1  -3   8 1101.25   36.15
   1  -3  -8 1073.37   36.86
   1  -3  -8 1109.13   36.43
  -1  -3   6  771.68   25.47
   1  -3  -6  706.56   25.31
   1   3  -6  697.37   29.86
   1  -3  -6  756.56   25.82
  -1  -3   6  722.63   24.94
   1  -3  -6  772.70   25.61
  -1  -3   6  746.10   25.58
   1  -3  -4  452.83   21.67
   1   3  -4  407.11   19.35
  -1   3   4  415.42   20.61
  -1  -3   4  427.73   19.56
   1   3  -2 3621.55  107.92
  -1   3   2 3597.49  106.87
   1  -3  -2 3366.31  109.00
   1   3  -2 3781.11  109.61
   1   3   0  481.90   20.81
   1  -3   0  527.18   21.87
  -1   3   0  487.51   17.01
  -1   3   0  466.09   17.19
  -1   3   0  477.73   21.41
   1   3   0  482.73   20.31
   1   3   2 1122.02   40.86
   1   3   2 1115.70   38.29
  -1   3  -2 1117.52   40.30
  -1   3  -4  247.91   14.95
  -1  -3  -4  228.53   12.84
   1   3   4  221.11   14.96
   1  -3   6 2185.41   66.37
  -1  -3  -6 2250.04   66.66
  -1  -3  -6 2140.50   66.80
   1  -3   6 2230.49   67.55
  -1  -3  -6 2261.95   66.98
   1  -3   6 2216.02   66.45
   1  -3   8  423.40   17.68
   1  -3   8  424.54   18.92
   1  -3   8  420.31   16.97
  -1  -3  -8  452.87   19.52
  -1  -3  -8  398.23   17.83
  -1  -3 -10  386.85   18.04
  -1   3 -10  386.91   18.31
  -1  -3 -10  383.15   17.53
   1  -3  10  394.40   17.72
   1  -3  12  641.05   25.30
  -1   3 -12  667.72   26.76
  -1  -3 -12  625.12   25.85
  -1  -3 -14  393.89   17.13
   1  -3  14  370.66   16.26
  -1   3 -14  392.30   17.92
  -1  -3 -16  162.17    7.86
   1  -3  16  163.40    7.55
   1   4 -15   26.15    3.37
   1  -4 -15   28.91    3.20
   1  -4 -15   22.87    3.02
  -1  -4  15   27.69    3.63
   1  -4 -13   90.07    7.09
   1   4 -13   86.27    7.19
   1  -4 -13   75.33    6.71
   1  -4 -11    1.79    2.67
   1  -4 -11    1.60    2.10
  -1  -4  11    2.63    3.62
   1  -4 -11    2.95    2.98
  -1  -4  11    7.49    3.41
  -1  -4  11    2.08    2.37
   1  -4  -9    0.31    2.08
  -1  -4   9    2.74    2.61
   1  -4  -9    0.84    2.67
  -1  -4   9    1.29    2.84
  -1  -4   9    4.43    3.24
   1  -4  -9    0.17    2.42
   1   4  -9    1.99    2.40
   1  -4  -7   29.52    4.20
   1  -4  -7   31.27    4.27
  -1  -4   7   27.12    4.11
   1  -4  -7   29.76    4.51
  -1  -4   7   30.23    4.20
  -1  -4   7   30.14    4.18
   1  -4  -5  247.01   12.08
  -1  -4   5  243.43   11.43
   1  -4  -5  259.89   12.08
   1  -4  -5  234.50   11.77
  -1  -4   3    7.81    2.20
   1  -4  -3    6.56    2.30
   1  -4  -3    8.39    2.24
   1  -4  -1  343.73   13.64
   1  -4  -1  339.94   13.56
   1   4  -1  333.90   18.60
   1  -4  -1  336.86   14.01
   1   4  -1  334.68   17.87
  -1  -4  -1   92.21    5.87
   1  -4   1   86.52    5.90
   1   4   1   87.77    8.44
   1  -4   1   83.05    5.44
   1   4   1   88.77    8.69
   1  -4   1   81.52    5.54
   1  -4   1   93.74    5.92
  -1  -4  -3    0.29    1.36
  -1  -4  -3    0.99    1.56
   1   4   3    1.75    1.79
   1  -4   3   -0.12    1.70
   1  -4   3    0.19    1.41
  -1  -4  -5  103.90    6.80
   1  -4   5   96.30    6.96
   1  -4   5   93.38    6.51
  -1  -4  -5  103.02    6.98
   1  -4   5   93.63    8.57
   1  -4   7   51.42    5.42
   1  -4   7   54.61    5.75
  -1  -4  -7   61.73    8.25
   1  -4   7   44.07    4.83
  -1  -4  -7   51.90    5.67
   1  -4   7   50.99    5.56
  -1  -4  -9    3.94    7.69
   1  -4   9    5.54    2.70
   1  -4   9    7.59    3.59
   1  -4   9    6.62    2.50
  -1  -4  -9   10.01    3.69
  -1   4  -9    4.56    3.04
   1  -4  11    6.16    2.42
  -1   4 -11    5.03    3.38
  -1  -4 -11    5.69    3.09
  -1   4 -13    0.98    2.78
   1  -4  13   -0.72    2.73
  -1  -4 -13    0.46    2.79
  -1  -4 -13   -0.65    2.05
  -1   4 -15    3.16    2.07
  -1  -4 -15    7.05    2.13
   1  -4  15    4.86    2.06
  -1  -5  14  222.91   10.25
   1  -5 -14  209.43    9.82
   1  -5 -12   18.96    3.99
   1  -5 -12   11.95    2.94
  -1  -5  12   18.02    3.85
  -1  -5  10  621.42   24.21
   1  -5 -10  609.37   24.64
  -1  -5  10  613.50   24.21
  -1  -5  10  595.13   23.35
   1  -5 -10  588.45   23.73
  -1  -5   8  625.20   24.47
   1  -5  -8  599.17   24.80
  -1  -5   8  637.79   25.00
  -1  -5   8  607.81   24.08
  -1  -5   6  465.34   20.23
   1  -5  -6  509.25   20.62
   1  -5  -6  493.04   20.64
  -1  -5   6  463.75   19.32
   1  -5  -4  481.32   19.74
  -1  -5   4  485.50   19.73
  -1  -5   2 2549.94   77.94
   1  -5  -2 2599.50   78.10
   1  -5  -2 2623.80   79.04
   1  -5  -2 2609.97   78.18
   1  -5   0 1088.47   37.09
  -1  -5   0 1066.08   35.64
   1  -5   0 1102.45   36.49
   1  -5   0 1139.91   36.69
  -1  -5   0 1137.93   36.69
   1  -5   0 1116.77   36.50
  -1  -5  -2 1543.20   48.72
   1  -5   2 1546.87   48.68
   1  -5   2 1489.34   47.21
  -1  -5  -2 1497.95   46.92
   1  -5   2 1461.83   47.79
   1  -5   4  828.85   29.58
  -1  -5  -4  860.68   29.86
  -1  -5  -4  848.91   29.32
   1  -5   4  819.82   29.31
  -1  -5  -4  866.33   31.23
   1  -5   4  916.44   31.22
   1  -5   4  808.83   30.78
   1  -5   6 1861.18   58.84
  -1  -5  -6 1950.73   60.06
  -1  -5  -6 1847.73   59.31
   1  -5   6 1877.21   59.60
  -1  -5  -8  451.72   21.12
   1  -5   8  503.98   20.79
   1  -5   8  469.54   19.24
   1  -5   8  430.30   19.06
  -1  -5  -8  475.55   20.72
  -1  -5  -8  533.49   21.75
  -1   5  -8  468.23   19.78
  -1  -5 -10  288.14   14.54
  -1   5 -10  268.40   13.51
   1  -5  10  249.00   12.04
   1  -5  10  262.50   13.91
   1  -5  10  249.23   13.03
  -1  -5 -10  279.79   14.45
  -1   5 -12  245.54   12.13
   1  -5  12  245.01   11.29
  -1  -5 -12  264.98   12.62
   1  -5  12  258.20   12.67
  -1  -5 -14   79.78    5.32
  -1   5 -14   58.23    4.13
   1  -6 -13   93.27    5.51
  -1  -6  13   89.15    5.22
  -1  -6  11   15.76    3.16
   1  -6 -11   14.82    3.09
   1  -6 -11   13.96    2.98
   1  -6 -11   15.90    3.58
   1  -6  -9   27.09    4.31
  -1  -6   9   27.34    4.18
   1  -6  -9   31.49    4.81
  -1  -6   9   25.85    4.52
  -1  -6   9   39.64    5.21
  -1  -6   7    6.54    2.67
  -1  -6   7    4.59    3.35
   1  -6  -7    4.95    3.41
   1  -6  -7    6.67    3.57
   1  -6  -7    7.68    3.19
   1  -6  -5  238.07   13.31
  -1  -6   5  267.60   14.03
  -1  -6   5  268.06   13.56
   1  -6  -5  241.70   13.01
  -1  -6   3   11.07    3.21
   1  -6  -3   13.09    3.26
   1  -6  -3   11.35    4.05
   1  -6  -3   12.62    3.59
  -1  -6   1   41.45    4.83
  -1  -6   1   45.58    4.97
   1  -6  -1   36.79    4.74
   1  -6   1   49.67    5.20
   1  -6   1   57.04    5.86
  -1  -6  -1   56.80    5.90
   1  -6   3    1.41    1.90
  -1  -6  -3    0.71    2.84
  -1  -6  -3   -0.41    1.91
  -1  -6  -5   66.67    6.96
   1  -6   5   61.63    5.51
  -1  -6  -5   61.29    6.06
   1  -6   7   49.97    5.36
  -1  -6  -7   44.04    5.54
   1  -6   9    4.13    2.67
   1  -6   9    3.15    2.67
   1  -6   9    1.88    2.43
  -1  -6  -9    2.92    2.97
  -1  -6  -9    3.60    2.88
   1  -6  11   36.68    3.97
  -1  -6 -11   41.36    4.56
  -1  -6 -11   44.78    4.78
   1  -6  11   42.85    4.44
   1  -6  13    8.39    1.75
  -1  -6 -13    9.43    1.93
   1  -7 -10  519.44   18.28
  -1  -7  10  498.07   17.85
   1  -7 -10  489.53   18.56
   1  -7  -8  527.31   19.63
   1  -7  -8  477.60   19.14
  -1  -7   8  502.00   19.61
  -1  -7   6  407.10   17.06
  -1  -7   6  410.54   17.62
   1  -7  -6  361.90   15.86
   1  -7  -6  367.62   16.86
   1  -7  -4  253.33   13.56
  -1  -7   4  285.42   13.97
  -1  -7   4  280.52   14.02
   1  -7  -2  890.95   32.82
  -1  -7   2  874.33   32.59
   1  -7  -2 1025.08   34.64
  -1  -7   2 1010.90   33.42
   1  -7   0  257.39   12.52
  -1  -7   0  271.75   12.80
  -1  -7   0  278.04   13.17
   1  -7   0  258.78   12.70
   1  -7   0  250.96   18.26
   1  -7   2  283.88   18.34
  -1  -7  -2  271.76   14.00
   1  -7   2  295.65   14.10
   1  -7   4  145.71    9.40
  -1  -7  -4  125.46    9.27
   1  -7   6  442.26   18.35
  -1  -7  -6  375.38   16.52
  -1  -7  -6  425.51   18.60
   1  -7   6  424.81   17.47
   1  -7   8   89.97    6.29
  -1  -7  -8   83.32    6.06
  -1  -7 -10   78.63    5.48
   1  -7  10   77.39    5.15
  -1  -7 -10   71.98    4.98
   1  -7  10   70.32    4.43
   1  -8  -7   54.47    9.95
   1  -8  -7  100.04    6.00
  -1  -8   5    6.17    2.51
   1  -8  -5    1.87    1.82
   1  -8  -3   35.65    3.75
  -1  -8   3   38.15    4.27
   1  -8  -1   84.71   14.18
  -1  -8   1   51.75    4.55
   1  -8   1   64.46   13.03
  -1  -8  -1  196.00    9.25
   1  -8   3   32.98    3.80
  -1  -8  -3  100.20    6.29
   1  -8   5   12.50    2.70
  -1  -8  -5   41.81    4.38
   1  -8   7   32.25    3.23
   1  -8   7   24.84    3.00
   2   0 -18  337.17   12.86
   2   0 -16  507.18   21.19
   2   0 -14  304.81   16.53
  -2   0  12  966.01   33.43
   2   0 -12 1038.25   37.38
  -2   0  10  713.66   25.15
  -2   0   8 1309.23   40.74
  -2   0   6    0.96    2.63
   2   0  -4  685.82   27.36
  -2   0   4  670.18   26.11
  -2   0   2 1002.37   33.93
  -2   0   2  945.24   32.27
   2   0  -2 1054.07   34.72
  -2   0   0    4.13    1.19
   2   0   0    2.07    1.78
   2   0   0    3.33    1.01
  -2   0   0    2.00    1.57
   2   0   2  183.43    9.36
  -2   0  -4  955.79   28.80
   2   0   4 1106.93   34.95
   2   0   6  812.40   31.07
   2   0   6  755.50   30.03
  -2   0  -8  776.65   27.94
   2   0   8  741.88   27.49
   2   0  10  728.48   28.32
  -2   0 -12  400.79   18.08
  -2   0 -12  350.73   15.72
  -2   0 -14  608.57   23.69
  -2   0 -14  673.57   25.26
  -2   0 -16  114.00    6.75
   2  -1 -17   32.90    3.87
   2  -1 -17   37.21    4.21
   2   1 -17   34.66    4.06
  -2  -1  15   18.51    3.13
   2  -1 -15   24.42    4.70
   2  -1 -13   38.89    5.97
   2   1 -13   34.81    6.03
  -2  -1  13   38.97    4.75
   2  -1 -11    2.22    3.15
   2   1 -11    3.78    3.24
  -2  -1  11    2.11    2.17
   2  -1  -9   40.99    5.00
  -2  -1   9   48.19    4.67
   2   1  -9   42.53    5.03
   2  -1  -7  435.45   17.26
   2   1  -7  422.06   16.94
   2   1  -7  428.77   23.29
  -2  -1   7  455.43   16.52
  -2  -1   7  426.12   23.15
   2  -1  -5    6.12    2.74
  -2   1   5    5.20    2.70
  -2  -1   5    8.03    2.96
   2   1  -5    8.33    3.09
  -2   1   5    5.18    2.79
   2  -1  -5    3.19    2.81
   2   1  -5    5.74    2.63
   2   1  -3    3.46    1.68
   2  -1  -3    2.51    2.35
  -2   1   3    1.05    2.25
   2  -1  -3    4.03    2.06
  -2  -1   1   10.04    2.60
  -2   1   1    7.64    1.94
   2  -1  -1    8.18    2.46
   2   1  -1    5.23    2.34
   2   1  -1    5.13    1.33
   2  -1  -1    7.14    1.89
   2  -1   1    2.14    1.29
   2  -1   1    0.99    1.09
   2   1   1    4.42    2.24
  -2   1  -1    2.82    1.40
   2  -1   3    4.11    1.22
  -2   1  -3    4.95    1.51
   2   1   3    6.87    2.47
  -2   1  -5  254.63   11.96
   2  -1   5  214.11   10.53
  -2   1  -5  241.95   11.47
   2  -1   5  251.56   11.45
   2   1   5  256.18   14.69
   2   1   7   30.53    3.65
  -2  -1  -7   29.63    3.93
  -2  -1  -7   36.30    4.46
   2  -1   7   37.55    4.38
   2  -1   7   32.39    3.83
   2  -1   9    3.41    2.76
  -2  -1  -9    0.69    3.89
  -2  -1  -9    5.19    2.24
  -2  -1  -9    4.67    2.64
  -2   1 -11   35.63    5.55
  -2  -1 -11   37.33    4.91
   2  -1  11   31.56    4.27
  -2  -1 -11   35.94    4.74
  -2  -1 -13   11.56    3.60
   2  -1  13    7.50    2.46
  -2   1 -13   19.20    4.59
  -2  -1 -13    6.97    2.72
  -2  -1 -13   11.82    3.26
  -2   1 -15   10.72    3.37
  -2  -1 -15   13.07    3.01
  -2  -2  16   59.99    4.67
   2  -2 -16   58.06    5.06
   2  -2 -16   67.28    6.07
   2   2 -16   67.58    6.15
   2  -2 -14   11.00    3.72
  -2  -2  14   13.66    3.46
   2  -2 -14   16.01    4.48
   2   2 -14   11.17    4.13
  -2  -2  12  441.05   19.10
   2   2 -12  448.93   20.80
   2  -2 -12  450.63   20.53
   2  -2 -12  408.98   19.88
   2   2 -10  619.52   24.48
  -2  -2  10  634.79   23.64
   2  -2 -10  620.73   24.67
   2  -2 -10  568.78   22.14
   2  -2 -10  574.33   23.98
   2   2  -8 1674.47   53.26
  -2  -2   8 1582.19   52.21
  -2  -2   8 1717.82   51.83
   2  -2  -8 1746.36   53.52
   2  -2  -8 1705.48   53.45
   2  -2  -8 1679.09   51.67
   2   2  -6  870.26   36.19
  -2  -2   6  861.52   28.70
  -2  -2   6  890.01   28.52
   2   2  -6  847.44   35.38
  -2  -2   6  839.51   35.94
  -2  -2   6  878.67   28.38
  -2   2   6  856.15   36.53
   2   2  -4 4624.13  131.66
   2  -2  -4 4403.88  130.48
  -2  -2   4 4382.21  131.11
  -2   2   4 4058.08  129.65
   2   2  -4 4302.99  129.47
  -2   2   4 4264.15  129.93
   2   2  -2 6395.37  185.06
  -2  -2   2 6650.15  188.06
   2  -2  -2 6418.99  186.57
  -2   2   2 6400.56  184.38
   2  -2   0 3766.53  104.29
   2   2   0 3618.19  100.84
  -2   2   0 3776.90  104.53
   2   2   2 3340.38  105.40
  -2   2  -2 3519.42  102.44
  -2   2  -4 3737.01  107.46
   2   2   4 3365.63  110.89
   2  -2   6 1398.51   45.35
  -2  -2  -6 1422.65   44.52
  -2  -2  -6 1391.85   44.18
  -2  -2  -8  770.56   28.37
   2  -2   8  772.34   26.57
   2  -2   8  819.40   29.84
  -2  -2  -8  798.97   28.72
   2  -2  10  429.37   18.41
  -2  -2 -10  434.12   18.87
  -2  -2 -10  392.35   18.65
  -2   2 -12  139.38   10.58
   2  -2  12  141.29    9.23
  -2  -2 -12  136.59    9.32
  -2  -2 -12  135.63    9.82
  -2  -2 -14  307.65   14.61
  -2   2 -14  321.49   15.69
   2  -2  14  293.57   13.28
  -2   2 -16   20.02    3.20
  -2  -2 -16   15.31    2.33
   2  -3 -17   27.93    2.70
   2   3 -15    0.72    2.34
   2  -3 -15    2.17    2.77
  -2  -3  15    2.51    2.35
   2   3 -13    0.93    3.09
  -2  -3  13    0.49    2.86
   2  -3 -13    2.65    3.24
   2  -3 -13    0.79    2.02
   2  -3 -13   -0.46    2.12
   2  -3 -11   62.63    6.27
   2  -3 -11   71.94    7.56
   2   3 -11   79.06    7.34
   2  -3 -11   70.05    6.35
   2   3  -9  236.42   12.69
  -2  -3   9  248.64   12.40
   2  -3  -9  245.96   12.66
   2  -3  -9  233.94   13.37
  -2  -3   9  247.45   12.89
   2  -3  -9  239.91   12.30
  -2  -3   9  254.37   12.62
  -2  -3   7   12.30    2.77
   2  -3  -7    8.33    2.33
  -2  -3   7   12.00    3.01
  -2  -3   7   11.35    3.08
   2  -3  -7   12.47    3.23
   2  -3  -7   10.57    2.81
   2  -3  -7    8.60    2.40
  -2  -3   5  124.48    7.31
  -2  -3   5  134.44    7.47
   2  -3  -5  133.84    7.59
  -2   3   5  124.45   10.89
   2  -3  -5  132.88    7.61
   2  -3  -5  142.53    8.19
  -2   3   3  239.34   13.46
   2  -3  -3  253.93   15.60
  -2  -3   3  240.86   15.27
   2   3  -3  251.66   15.07
   2   3  -1    5.03    2.36
   2  -3  -1    5.38    2.62
   2   3  -1    3.61    2.05
  -2   3   1    7.44    3.06
   2   3   1    4.55    2.39
   2   3   1    4.82    1.91
  -2   3  -1    4.48    2.51
   2  -3   3  156.37    8.24
   2  -3   3  168.02    9.35
  -2   3  -3  175.35   11.88
  -2  -3  -3  163.06    8.38
  -2  -3  -3  157.37    8.32
   2  -3   5    5.23    2.18
  -2  -3  -5   11.46    2.84
   2  -3   5    8.07    2.62
  -2  -3  -5    8.48    2.32
   2  -3   5    8.80    2.59
  -2  -3  -5    7.66    2.52
  -2  -3  -5    8.82    2.40
   2  -3   5    5.75    2.25
   2  -3   7  167.02   10.59
  -2  -3  -7  168.37   11.09
  -2  -3  -7  162.75    9.95
  -2  -3  -7  158.55    9.33
  -2  -3  -7  166.16    9.77
   2  -3   7  158.18    9.82
   2  -3   7  166.66    9.30
  -2  -3  -9  224.23   12.43
  -2  -3  -9  204.19   12.21
  -2  -3  -9  200.57   14.56
   2  -3   9  210.08   13.01
   2  -3   9  196.97   11.92
   2  -3   9  196.64   10.64
  -2  -3 -11   59.26    6.51
   2  -3  11   60.10    6.44
  -2   3 -11   64.46    7.24
  -2   3 -13   53.03    6.25
   2  -3  13   42.66    5.07
  -2  -3 -13   45.22    5.63
   2  -3  15    5.70    1.86
  -2  -3 -15    6.28    2.34
  -2  -4  16  113.61    5.78
   2  -4 -14   55.65    5.50
  -2  -4  14   55.07    5.33
   2  -4 -14   50.49    4.37
   2   4 -14   44.64    4.48
  -2  -4  12  419.21   18.23
   2  -4 -12  396.55   17.26
   2  -4 -12  403.86   18.60
   2   4 -12  364.88   17.14
   2  -4 -10  416.86   18.59
  -2  -4  10  411.99   18.08
   2  -4 -10  403.10   19.44
  -2  -4  10  436.32   19.11
   2  -4  -8  671.32   27.10
  -2  -4   8  682.30   26.44
  -2  -4   8  722.09   26.05
  -2  -4   8  700.49   26.22
   2  -4  -8  690.02   26.37
   2  -4  -8  660.51   25.54
  -2  -4   6  228.43   11.46
   2  -4  -6  234.97   12.52
   2  -4  -6  220.88   11.81
  -2  -4   6  222.95   11.64
   2  -4  -6  224.38   11.86
  -2  -4   4 1056.70   34.89
  -2  -4   4 1114.60   36.10
   2  -4  -4 1045.44   36.07
  -2  -4   4 1106.71   35.56
   2  -4  -2 1192.60   39.73
  -2  -4   2 1218.29   39.10
   2  -4  -2 1237.98   39.60
  -2  -4   2 1201.33   38.49
   2  -4  -2 1267.69   39.93
  -2  -4   0  772.73   25.84
   2  -4   0  770.44   26.82
  -2  -4   0  749.80   25.41
   2  -4   0  754.72   26.49
   2  -4   0  761.28   26.73
   2  -4   2  843.14   29.25
  -2  -4  -2  821.84   27.46
   2  -4   2  816.00   28.12
   2  -4   2  815.31   28.30
   2  -4   4 1435.55   45.08
   2  -4   4 1410.83   45.66
   2  -4   4 1308.81   45.98
  -2  -4  -4 1457.29   45.64
   2  -4   4 1394.29   45.55
  -2  -4  -4 1441.69   44.71
  -2  -4  -4 1381.40   44.01
  -2  -4  -4 1428.29   45.92
   2  -4   6  788.00   29.32
   2  -4   6  748.42   28.35
  -2  -4  -6  800.32   29.07
   2  -4   6  780.47   28.78
  -2  -4  -6  779.90   28.46
  -2  -4  -6  781.39   29.43
  -2  -4  -8  781.18   30.57
   2  -4   8  755.85   28.55
   2  -4   8  746.27   29.53
  -2  -4  -8  761.62   29.26
   2  -4   8  745.88   28.29
  -2  -4  -8  737.76   28.73
   2  -4   8  737.32   27.92
  -2  -4 -10  469.22   23.78
   2  -4  10  509.70   21.79
  -2  -4 -10  548.08   22.56
  -2   4 -12  229.02   12.89
   2  -4  12  234.48   12.46
  -2  -4 -12  254.98   13.25
  -2   4 -14  351.34   14.31
   2  -4  14  374.36   13.80
  -2  -4 -14  333.77   13.91
  -2  -5  15   10.03    1.77
   2  -5 -15    8.85    1.72
  -2  -5  13   30.83    4.03
  -2  -5  13   22.99    3.37
   2  -5 -13   28.32    3.59
  -2  -5  11    2.00    2.81
   2  -5 -11    1.23    2.59
   2  -5  -9   -0.63    2.77
  -2  -5   9    0.16    2.77
   2  -5  -9   -1.75    3.14
  -2  -5   7  253.86   13.04
   2  -5  -7  256.99   13.91
   2  -5  -7  249.54   13.49
  -2  -5   7  266.87   13.49
  -2  -5   5   57.30    5.78
  -2  -5   5   53.56    5.10
  -2  -5   5   50.40    5.95
   2  -5  -5   60.49    6.21
   2  -5  -5   56.80    6.23
   2  -5  -3    5.79    2.77
  -2  -5   3    2.91    2.21
  -2  -5   3    2.94    2.30
   2  -5  -3    2.44    2.42
   2  -5  -3    9.73    3.99
  -2  -5   1   51.98    4.88
  -2  -5   1   46.40    4.74
  -2  -5   1   41.85    4.45
   2  -5  -1   47.50    5.23
   2  -5  -1   43.70    5.04
   2  -5  -1   46.96    4.87
  -2  -5  -1    0.14    1.82
  -2  -5  -1    0.23    1.53
   2  -5   1    1.49    2.31
   2  -5   1    1.14    2.25
   2  -5   3    1.70    2.41
   2  -5   3    0.49    2.63
   2  -5   3   -1.28   10.02
  -2  -5  -3   -0.48    2.21
  -2  -5  -3    0.15    2.12
  -2  -5  -5  154.54    9.49
  -2  -5  -5  155.24    9.87
   2  -5   5  156.70   10.10
  -2  -5  -7   77.60   10.47
   2  -5   7   72.25    6.94
  -2  -5  -7   67.68    6.82
   2  -5   7   69.43    6.64
   2  -5   7   67.75    6.81
   2  -5   7   73.13    6.80
  -2  -5  -9   63.00    6.93
  -2   5  -9   52.78    5.87
   2  -5   9   52.82    4.79
  -2  -5  -9   54.84   11.35
   2  -5   9   60.04    6.50
  -2  -5  -9   59.09    6.40
   2  -5   9   57.20    6.02
  -2   5 -11   84.84    6.72
  -2  -5 -11   89.56    7.22
   2  -5  11   89.66    7.08
   2  -5  11   75.75    5.76
  -2  -5 -11   83.89    7.16
  -2   5 -13   33.96    3.54
  -2  -5 -13   42.53    4.13
  -2  -5 -13   36.12    3.60
  -2  -6  12  318.39   12.87
   2  -6 -12  320.12   13.55
   2  -6 -12  334.80   13.35
   2  -6 -10  343.14   15.91
  -2  -6  10  323.98   14.92
   2  -6 -10  374.35   15.24
   2  -6 -10  347.98   16.04
   2  -6  -8  471.92   19.15
  -2  -6   8  410.36   17.67
   2  -6  -8  438.22   19.48
  -2  -6   6  168.70   11.03
   2  -6  -6  200.60   11.81
   2  -6  -6  173.28   10.99
  -2  -6   6  174.06   10.71
   2  -6  -6  164.66   10.90
   2  -6  -4  544.46   23.14
  -2  -6   4  543.02   23.01
   2  -6  -4  615.58   23.99
   2  -6  -4  590.82   23.65
  -2  -6   4  544.02   22.39
   2  -6  -2  509.63   21.84
  -2  -6   2  518.85   20.55
  -2  -6   2  490.46   20.63
   2  -6  -2  499.61   21.72
  -2  -6   0  257.87   12.84
   2  -6   0  279.19   18.48
   2  -6   0  255.10   13.35
  -2  -6   0  240.96   12.31
   2  -6   0  245.92   13.01
  -2  -6  -2  246.26   13.25
  -2  -6  -2  257.04   12.95
   2  -6   2  247.99   12.91
   2  -6   2  250.22   18.98
   2  -6   2  263.17   13.88
  -2  -6  -4  421.97   17.88
  -2  -6  -4  441.01   19.10
   2  -6   4  438.68   19.06
   2  -6   4  383.35   17.01
   2  -6   4  412.84   18.14
  -2  -6  -6  218.51   13.82
   2  -6   6  208.42   11.41
  -2  -6  -6  232.59   13.19
  -2  -6  -6  202.04   11.34
   2  -6   6  205.69   11.48
  -2  -6  -8  187.98   12.82
   2  -6   8  196.53   10.23
   2  -6   8  215.07   11.30
  -2  -6  -8  233.70   12.76
   2  -6   8  207.77   10.86
  -2  -6  -8  211.68   11.38
  -2  -6 -10  181.77   10.04
   2  -6  10  175.31    9.27
   2  -6  10  175.69    9.17
  -2  -6 -10  166.54    9.33
   2  -6  12   63.84    4.31
  -2  -6 -12   64.69    4.47
  -2  -6 -12   63.33    4.36
  -2  -7  11    6.59    2.03
   2  -7 -11   10.63    1.98
  -2  -7   9   35.25    3.51
   2  -7  -9   25.02    8.30
   2  -7  -9   32.00    3.62
   2  -7  -7    2.12    2.82
  -2  -7   7    2.01    1.88
   2  -7  -7    2.36    2.16
  -2  -7   5   32.06    3.90
   2  -7  -5   30.86    4.87
   2  -7  -5   39.41    4.84
  -2  -7   3   70.05    6.13
   2  -7  -3   69.01    6.53
  -2  -7   1    8.40    2.65
   2  -7  -1    7.86    2.98
  -2  -7  -1    9.44    2.88
   2  -7   1   10.43    2.97
  -2  -7  -3   -1.96    2.80
   2  -7   3    2.30    2.07
   2  -7   3    0.83    1.99
  -2  -7  -5    5.04    2.80
   2  -7   5    4.66    2.09
  -2  -7  -7   12.03    3.17
   2  -7   7    9.38    2.65
   2  -7   9   16.29    2.59
  -2  -7  -9   16.10    2.90
   2  -7   9   15.02    1.98
   2  -8  -8  169.92    7.35
   2  -8  -6  245.01   13.57
  -2  -8   6  268.77    9.66
  -2  -8   6  171.85    8.79
   2  -8  -6  183.69    9.08
  -2  -8   4  610.59   20.05
   2  -8  -4  632.78   24.54
   2  -8  -4  581.69   20.80
   2  -8  -2  615.23   22.31
   2  -8  -2  709.57   27.02
   2  -8   0  521.80   23.24
   2  -8   2  459.68   16.74
   2  -8   4  511.32   18.21
   2  -8   4  548.74   18.57
   2  -8   6  283.81   10.65
   2  -8   6  266.92   10.19
   3   0 -17    0.10    1.83
   3   0 -17    1.24    1.71
   3   0 -15    4.42    3.52
   3   0 -15    6.60    3.16
  -3   0  13   82.59    6.40
  -3   0  11  139.33    8.71
   3   0  -9  217.00   12.54
  -3   0   9  213.72   11.00
   3   0  -7   29.90    4.15
  -3   0   7   27.96    3.40
  -3   0   7   29.50    3.28
   3   0  -5  163.79   12.89
  -3   0   5  144.52   11.96
  -3   0   3  217.41   12.29
   3   0  -3  225.02   14.16
   3   0  -3  200.06   11.58
  -3   0   3  204.96   13.03
  -3   0   1    5.01    1.89
  -3   0   1    7.70    2.44
   3   0  -1    6.41    2.92
   3   0  -1    7.57    1.73
   3   0   1  379.69   17.38
   3   0   3   12.40    2.81
   3   0   5   72.40    5.51
   3   0   5   74.14    5.85
  -3   0  -5   75.87    5.85
  -3   0  -7    2.56    2.56
   3   0   7    7.10    2.68
  -3   0  -7    7.39    2.59
   3   0   9  114.25    8.87
  -3   0 -11   23.44    4.29
  -3   0 -11   23.42    4.45
  -3   0 -13   44.41    5.23
  -3   0 -13   41.64    4.54
  -3   0 -13   47.09    5.36
  -3   0 -15   23.39    3.09
   3  -1 -16  149.25    8.83
   3   1 -16  145.16    8.98
   3  -1 -16  132.62    8.37
   3   1 -16  126.28    7.85
   3   1 -14  200.62   12.66
  -3  -1  14  189.33   10.40
   3  -1 -14  195.46   12.05
   3  -1 -14  205.32   12.60
   3  -1 -12  611.57   26.20
   3   1 -12  606.08   26.18
  -3  -1  12  613.62   24.15
   3  -1 -12  643.15   25.93
   3  -1 -10  759.99   29.39
   3   1 -10  762.28   29.31
  -3  -1  10  776.97   27.81
  -3  -1  10  739.66   26.13
  -3   1  10  718.74   25.92
   3  -1 -10  753.73   28.86
   3  -1  -8  322.04   15.56
  -3  -1   8  336.78   13.88
  -3  -1   8  317.59   14.33
   3   1  -8  349.57   15.61
   3  -1  -8  326.06   14.80
  -3   1   8  304.27   13.30
   3  -1  -6 1051.45   35.69
   3   1  -6 1016.06   35.08
  -3   1   6 1081.25   34.00
  -3  -1   6 1072.24   34.75
   3  -1  -6 1079.11   34.87
  -3  -1   6 1107.25   34.49
   3  -1  -4 1012.75   40.49
  -3  -1   4 1053.65   41.59
   3  -1  -4 1086.55   39.90
  -3   1   4 1062.88   40.02
   3   1  -4 1118.14   42.66
  -3   1   4 1073.76   39.69
   3  -1  -2  829.18   31.63
  -3  -1   2  853.79   33.66
   3  -1  -2  822.10   30.16
  -3   1   2  815.99   30.96
  -3   1   2  886.94   31.04
  -3   1   0 1741.93   37.50
   3  -1   0 1872.99   36.91
   3   1   0 1939.99   44.83
  -3  -1   0 1925.56   44.39
  -3   1   0 1926.06   37.74
   3  -1   0 1955.91   40.09
   3   1   2   82.58    7.78
   3  -1   2   69.25    5.51
  -3  -1  -4 1842.98   55.07
   3  -1   4 1748.17   55.90
   3   1   4 1911.29   62.53
  -3   1  -4 1821.30   55.46
   3  -1   4 1803.18   55.66
   3   1   6  716.06   25.80
  -3  -1  -6  730.78   26.32
  -3  -1  -6  749.10   26.84
   3  -1   6  746.49   26.04
   3  -1   6  713.72   26.56
   3   1   8  638.86   24.64
   3  -1   8  636.43   25.89
  -3  -1  -8  642.98   25.62
  -3  -1  -8  668.90   25.77
   3  -1   8  638.75   25.02
   3  -1  10  240.06   14.33
  -3  -1 -10  254.65   13.55
  -3  -1 -12  681.26   26.23
  -3   1 -12  731.88   27.62
   3  -1  12  656.88   24.80
  -3  -1 -12  770.41   27.52
  -3   1 -12  656.43   25.06
  -3   1 -14  174.94    9.88
  -3  -1 -14  139.09    7.82
  -3  -1 -14  165.33    9.33
  -3   1 -14  148.24    8.38
  -3  -1 -16  112.92    5.47
   3   2 -17   10.83    2.02
   3   2 -15   25.98    4.24
  -3  -2  15   24.55    3.53
   3  -2 -15   24.66    3.98
   3  -2 -13   10.35    3.91
   3   2 -13    9.02    3.98
  -3  -2  13   11.85    3.66
   3  -2 -11   40.29    5.92
   3   2 -11   43.13    6.05
  -3  -2  11   42.04    4.67
  -3  -2  11   49.83    5.83
   3  -2 -11   41.93    6.10
   3  -2  -9   35.95    5.21
   3   2  -9   39.70    5.22
  -3  -2   9   38.60    5.06
   3  -2  -9   31.69    4.93
   3  -2  -7  214.56   11.72
   3   2  -7  210.76   11.10
  -3  -2   7  215.04   11.13
   3  -2  -7  222.15   10.31
   3  -2  -7  217.72   11.57
  -3  -2   5   19.90    3.08
   3  -2  -5   19.21    3.30
   3  -2  -5   19.66    2.80
   3  -2  -5   17.94    3.09
   3   2  -5   15.77    3.82
  -3   2   3    4.17    2.10
  -3   2   3    4.06    3.18
   3   2  -3    5.64    2.17
   3  -2  -3    5.50    2.09
   3  -2  -3    4.44    2.53
   3  -2  -3    2.51    2.41
   3  -2  -1   25.91    4.09
   3   2  -1   25.07    4.84
  -3   2   1   23.23    2.97
  -3  -2   1   28.44    5.07
  -3   2  -1   16.00    3.22
   3   2   1   17.16    4.02
  -3  -2  -3  145.87    7.92
   3  -2   3  129.73    8.09
  -3  -2  -3  139.42    7.75
   3  -2   3  133.51    8.04
  -3  -2  -5   72.75    6.08
   3  -2   5   77.31    6.70
  -3  -2  -5   81.25    6.31
   3  -2   5   81.57    6.19
  -3  -2  -7  124.56    9.12
  -3  -2  -7  109.79    8.44
   3  -2   7  120.93    8.42
  -3  -2  -9   -2.56    5.30
   3  -2   9    0.69    2.76
  -3  -2  -9    1.07    3.20
   3  -2  11    0.16    2.48
   3  -2  11   -0.44    3.52
  -3  -2 -11    0.88    3.04
  -3   2 -13   79.51    7.20
   3  -2  13   71.85    5.79
  -3  -2 -13   75.22    6.38
  -3  -2 -13   81.77    6.96
  -3   2 -15   21.38    3.19
  -3  -2 -15   17.78    2.80
   3   3 -16   21.15    2.55
  -3  -3  16   25.56    2.72
   3  -3 -16   25.25    3.22
   3   3 -14   53.09    5.39
  -3  -3  14   58.85    5.62
   3  -3 -14   54.01    5.18
   3  -3 -14   63.25    6.36
   3   3 -12  277.39   14.81
   3  -3 -12  298.46   16.05
  -3  -3  12  318.86   15.37
  -3  -3  12  300.30   13.67
   3  -3 -12  276.45   14.70
   3   3 -10  524.40   22.01
   3  -3 -10  507.12   22.20
  -3  -3  10  524.02   22.01
   3  -3 -10  549.83   21.04
  -3  -3   8  428.65   18.33
   3  -3  -8  427.98   17.58
   3  -3  -8  387.08   18.06
  -3  -3   6 1439.47   46.10
   3  -3  -6 1391.39   44.98
   3  -3  -6 1463.10   46.81
  -3  -3   6 1395.31   45.54
   3  -3  -6 1486.82   46.08
  -3  -3   4 2056.64   62.50
   3  -3  -4 2072.58   63.37
  -3  -3   4 2060.45   62.21
   3  -3  -4 2062.85   63.87
   3  -3  -4 2182.27   63.30
   3  -3  -4 1986.08   62.58
  -3  -3   2 2551.77   77.15
   3  -3  -2 2593.97   78.63
   3  -3  -2 2702.39   79.27
  -3  -3   2 2497.00   76.94
   3  -3  -2 2783.90   79.10
   3  -3  -2 2750.29   78.93
   3  -3  -2 2743.42   79.06
   3  -3   0 3550.08  106.86
   3  -3   0 3755.98  107.06
  -3  -3   0 3615.71  105.99
  -3  -3   0 3679.56  105.22
   3  -3   0 3727.39  106.60
   3  -3   0 3651.87  106.55
   3  -3   0 3563.98  106.61
   3  -3   2 1501.67   47.89
  -3  -3  -2 1488.81   46.60
   3  -3   2 1464.83   47.18
  -3  -3  -2 1501.18   46.59
   3  -3   2 1484.40   47.49
   3  -3   4 3049.51   90.91
   3  -3   4 2982.88   91.77
  -3  -3  -4 3007.45   90.19
  -3  -3  -4 3041.82   90.72
  -3  -3  -4 3080.12   89.46
   3  -3   4 3055.11   91.39
   3  -3   6 1375.30   46.42
  -3  -3  -6 1354.01   44.75
  -3  -3  -6 1362.85   45.77
  -3  -3  -6 1355.48   44.64
   3  -3   8  747.94   30.40
  -3  -3  -8  743.35   28.67
  -3  -3  -8  776.06   29.09
   3  -3   8  750.08   27.38
   3  -3  10  173.54   12.35
  -3  -3 -10  191.30   11.60
   3  -3  10  171.22   10.97
  -3  -3 -10  177.60   11.58
  -3  -3 -12  395.17   17.28
   3  -3  12  362.15   16.39
  -3  -3 -12  390.16   17.48
   3  -3  14   17.93    2.59
  -3  -3 -14   12.69    2.28
  -3  -4  15    0.24    1.52
   3  -4 -15    0.09    1.43
  -3  -4  13   12.30    2.86
   3  -4 -13   19.44    4.30
  -3  -4  11    1.00    3.16
   3  -4 -11    1.96    3.57
   3  -4 -11    2.71    2.43
   3  -4  -9    5.31    2.59
  -3  -4   9    7.34    3.53
   3  -4  -9    4.48    3.84
   3  -4  -9    5.62    2.94
   3  -4  -7   16.27    3.30
   3  -4  -7   24.53    4.20
  -3  -4   7   18.50    3.91
   3  -4  -7   17.69    4.65
   3  -4  -7   18.19    3.78
   3  -4  -5    1.14    2.05
  -3  -4   5   24.82    4.43
  -3  -4   5   -0.26    1.91
   3  -4  -5   19.57    4.24
   3  -4  -5   -0.17    2.53
   3  -4  -5    3.18    2.64
   3  -4  -3    0.68    1.95
  -3  -4   3    5.71    2.79
   3  -4  -3   -0.44    2.37
   3  -4  -1    4.66    2.27
   3  -4  -1    2.84    1.89
  -3  -4   1    2.22    1.92
   3  -4   1  103.64    7.59
  -3  -4  -1  115.17    7.53
   3  -4   1  116.01    8.09
  -3  -4  -1  118.49    7.40
   3  -4   1  111.03    7.77
   3  -4   3   13.05    3.30
  -3  -4  -3   10.80    3.20
  -3  -4  -3   10.95    3.24
  -3  -4  -3    7.05    2.86
   3  -4   3    8.90    2.94
   3  -4   3   16.25    3.54
   3  -4   5    7.88    3.27
   3  -4   5   10.89    3.41
  -3  -4  -5   11.48    3.67
  -3  -4  -5   15.99    3.77
   3  -4   5   12.16    3.66
  -3  -4  -5   14.19    4.17
  -3  -4  -5    9.75    2.78
   3  -4   7    2.69    3.22
  -3  -4  -7    3.45    7.97
  -3  -4  -7    3.91    4.04
   3  -4   7    1.77    2.97
   3  -4   7    1.63    2.50
  -3  -4  -7    2.50    4.02
  -3  -4  -7    1.13    2.55
   3  -4   9   23.17    4.89
   3  -4   9   27.80    4.82
  -3  -4  -9   30.13    4.89
   3  -4   9   23.18    3.79
  -3   4 -11    5.78    3.57
   3  -4  11    1.19    3.01
  -3  -4 -11    4.77    3.21
  -3   4 -13   54.55    5.06
   3  -4  13   57.81    4.69
  -3  -4 -13   51.50    4.51
  -3  -4 -13   56.95    4.95
  -3  -5  14  166.03    7.66
  -3  -5  12  402.43   16.13
  -3  -5  12  382.09   15.54
   3  -5 -12  369.31   15.20
  -3  -5  10  453.29   18.94
   3  -5 -10  439.54   18.73
  -3  -5   8  191.93   11.60
   3  -5  -8  207.29   11.69
   3  -5  -8  201.01   12.07
   3  -5  -6  379.70   18.70
  -3  -5   6  372.65   16.85
   3  -5  -6  397.35   18.36
   3  -5  -6  422.03   18.34
  -3  -5   6  443.34   18.39
  -3  -5   4  317.37   14.79
   3  -5  -4  291.90   15.48
   3  -5  -4  299.87   15.84
  -3  -5   2  216.25   12.01
  -3  -5   2  203.81   10.95
   3  -5  -2  203.95   12.29
   3  -5  -2  225.49   12.87
  -3  -5   0  258.53   13.07
   3  -5   0  262.90   13.88
   3  -5   2   19.16    3.69
  -3  -5  -2   22.58    4.28
  -3  -5  -2   14.57    3.55
   3  -5   2   17.64    4.07
   3  -5   2   20.42    4.05
   3  -5   4  355.59   16.84
  -3  -5  -4  375.67   17.46
  -3  -5  -4  347.37   15.89
   3  -5   4  357.75   16.87
   3  -5   4  378.26   17.56
   3  -5   6  207.53   12.13
  -3  -5  -6  177.42   13.95
  -3  -5  -6  189.69   11.03
   3  -5   6  218.68   12.36
  -3  -5  -6  188.64   10.87
   3  -5   6  224.67   12.49
  -3  -5  -8  263.25   16.67
   3  -5   8  246.44   13.10
   3  -5   8  243.59   13.23
  -3  -5  -8  227.45   12.55
   3  -5   8  236.85   12.68
   3  -5   8  245.35   13.38
  -3   5 -10  118.58    8.08
   3  -5  10  121.02    8.18
  -3  -5 -10  115.15    7.94
  -3   5 -12  404.53   15.21
  -3  -5 -12  403.26   15.48
  -3  -5 -12  386.08   15.15
  -3  -6  11    7.19    1.92
  -3  -6  11    3.55    2.86
   3  -6 -11    6.52    2.19
   3  -6 -11    7.92    2.45
  -3  -6   9   23.10    3.28
   3  -6  -9   27.62    4.39
   3  -6  -9   22.22    4.02
   3  -6  -7  142.40    9.03
  -3  -6   7  151.57    9.01
  -3  -6   5   44.82    5.53
   3  -6  -5   46.26    6.12
  -3  -6   3   26.44    4.44
   3  -6  -3   30.60    4.98
   3  -6  -3   26.05    5.14
  -3  -6   1   29.92    4.22
   3  -6  -1   27.93    4.28
   3  -6  -1   29.67    4.89
  -3  -6  -1    0.51    2.64
  -3  -6  -1   -2.27    2.76
   3  -6   1    0.51    2.49
   3  -6   1    1.03    2.81
  -3  -6  -3    7.40    2.92
  -3  -6  -3    8.43    3.18
   3  -6   3   10.65    3.53
   3  -6   3   12.57    3.89
   3  -6   3    8.98    3.25
   3  -6   5   -0.14    2.12
  -3  -6  -5    0.34    2.65
   3  -6   5    0.64    2.37
   3  -6   5   -0.17    2.93
  -3  -6  -7    7.04    3.22
   3  -6   7    8.43    2.86
   3  -6   7    5.62    2.68
   3  -6   9   16.99    2.91
   3  -6   9   17.34    3.08
  -3  -6  -9   20.50    3.64
  -3  -6  -9   16.53    2.57
   3  -6  11    5.48    1.49
  -3  -6 -11    5.55    1.82
  -3  -7  10   93.61    4.95
   3  -7 -10   97.09    5.32
  -3  -7   8  100.32    6.11
   3  -7  -8   92.43    6.43
  -3  -7   8   93.14    6.77
   3  -7  -6  352.08   18.02
  -3  -7   6  308.75   13.36
   3  -7  -6  313.60   14.34
  -3  -7   6  302.09   14.12
  -3  -7   4  403.63   16.70
  -3  -7   4  402.60   16.67
   3  -7  -4  491.11   23.66
  -3  -7   4  459.62   16.95
   3  -7  -4  435.90   18.20
  -3  -7   4  390.46   17.01
  -3  -7   2  498.99   19.56
  -3  -7   2  489.29   18.96
   3  -7  -2  526.37   20.85
  -3  -7   0  703.13   25.36
   3  -7   0  694.58   31.01
   3  -7   0  705.09   26.14
  -3  -7  -2  369.65   15.38
   3  -7   2  345.15   15.28
   3  -7   2  355.67   15.75
  -3  -7  -4  609.19   22.94
  -3  -7  -4  637.57   23.53
   3  -7   4  682.63   23.69
  -3  -7  -6  374.49   15.09
   3  -7   6  375.37   14.14
   3  -7   6  359.59   14.49
   3  -7   8  240.09    9.80
  -3  -7  -8  212.13    9.68
   3  -8  -5   11.60    2.24
   3  -8  -3   10.06    2.32
   3  -8  -1    0.32    1.16
   3  -8  -1   -0.17    1.53
   3  -8   1    4.32    1.41
   3  -8   3    3.14    1.33
   4   0 -16   50.94    4.13
  -4   0  14  105.84    6.48
   4   0 -14  120.31    8.20
   4   0 -14  119.01    9.13
   4   0 -12  206.31   12.94
  -4   0  12  185.91   10.45
   4   0 -12  194.44   11.61
   4   0 -10  629.93   27.00
  -4   0  10  668.20   24.78
   4   0 -10  618.18   24.96
   4   0  -8  499.18   21.51
  -4   0   8  504.86   19.85
   4   0  -8  461.24   19.43
   4   0  -6 1013.92   35.00
  -4   0   6  983.04   33.57
  -4   0   4 1872.56   57.87
   4   0  -4 1935.25   59.14
  -4   0   2 2190.33   65.86
   4   0  -2 2254.78   66.89
   4   0  -2 2143.81   74.97
  -4   0   0  365.19   14.21
  -4   0   0  362.59   14.09
   4   0   0  339.74   15.28
   4   0   0  375.36   19.88
   4   0   0  358.04   14.81
  -4   0  -2 2297.49   68.54
   4   0   2 2249.58   69.62
   4   0   2 2302.77   68.99
   4   0   4  805.73   29.50
  -4   0  -4  848.45   29.23
   4   0   4  799.52   28.75
   4   0   6 1289.51   42.88
  -4   0  -6 1185.19   40.85
  -4   0  -6 1278.38   42.67
   4   0   8   41.95    5.67
   4   0  10  693.98   27.72
  -4   0 -12  278.20   13.14
  -4   0 -12  296.00   13.74
  -4   0 -14  137.31    7.41
   4  -1 -15    3.75    2.73
   4   1 -15   -0.14    2.30
  -4  -1  15    1.10    1.55
   4  -1 -15    1.66    2.39
   4   1 -15    0.71    1.71
   4  -1 -13    5.96    3.70
   4   1 -13    4.94    3.44
  -4  -1  13    6.21    2.86
   4  -1 -13    5.01    3.27
   4   1 -13    5.05    2.56
   4  -1 -11   78.64    8.18
   4   1 -11   75.72    7.78
  -4   1  11   75.40    5.95
  -4  -1  11   82.14    7.18
   4  -1 -11   75.70    7.34
   4   1 -11   71.33    6.43
   4   1  -9    1.13    2.89
  -4  -1   9    1.24    2.45
  -4   1   9    0.13    1.89
  -4  -1   9    3.13    2.81
   4  -1  -9    1.52    2.75
   4   1  -7  116.14    8.54
  -4   1   7  114.65    7.50
  -4  -1   7  115.41    8.00
  -4  -1   7  117.68    7.98
   4  -1  -7  115.34    7.99
   4  -1  -5    2.53    2.41
   4   1  -5    2.94    1.98
  -4   1   5    2.02    2.00
  -4  -1   5    3.93    2.43
  -4  -1   5    3.67    2.51
   4  -1  -5    4.65    2.12
  -4   1   3  334.50   13.58
  -4  -1   3  339.07   13.87
  -4  -1   3  322.71   13.22
  -4  -1   3  306.27   13.68
   4  -1  -3  324.31   14.64
   4   1  -3  319.67   13.69
  -4   1   1   42.97    4.06
  -4  -1   1   40.82    3.86
  -4  -1   1   41.25    3.91
  -4  -1   1   38.25    4.24
   4  -1  -1   43.39    4.81
   4   1  -1   36.70    4.06
   4  -1  -1   37.19    3.82
   4  -1  -1   44.25    4.53
  -4  -1  -1   31.89    3.37
  -4  -1  -1   35.49    3.95
   4   1   1   31.84    3.71
   4  -1   1   30.00    4.17
   4  -1   1   31.72    4.02
   4  -1   3    0.28    2.03
  -4  -1  -3   -0.12    1.52
  -4   1  -3    1.84    1.77
  -4  -1  -3    2.28    2.33
   4   1   3    0.13    1.54
   4  -1   3    1.85    2.15
   4  -1   3    1.02    1.52
  -4  -1  -5   39.44    4.65
   4  -1   5   40.47    5.26
  -4  -1  -5   39.39    5.09
   4  -1   5   33.79    4.13
   4  -1   5   36.52    4.96
   4   1   7  248.86   13.16
   4  -1   7  253.67   14.49
  -4  -1  -7  271.71   13.95
   4  -1   7  266.80   13.41
   4   1   9   28.10    4.33
   4  -1   9   31.12    5.33
  -4  -1  -9   33.45    5.38
   4  -1  11    3.55    3.17
   4  -1  11    5.12    2.36
  -4  -1 -11    3.83    3.42
  -4   1 -13   19.06    3.26
  -4  -1 -13   19.50    3.39
  -4   1 -13   15.97    2.68
  -4  -1 -13   19.31    3.55
  -4  -1 -15    8.00    1.57
  -4  -2  16  120.73    5.63
   4  -2 -16  141.30    7.10
   4  -2 -16  128.52    6.57
   4   2 -16  126.30    6.44
   4   2 -14  230.36   12.01
  -4  -2  14  231.72   11.28
   4  -2 -14  223.68   12.16
   4  -2 -14  242.34   12.30
   4   2 -12  262.46   14.16
  -4  -2  12  276.76   13.75
  -4  -2  12  238.25   11.77
   4  -2 -12  260.78   14.39
   4  -2 -12  272.05   14.70
   4   2 -10  523.58   22.59
  -4  -2  10  554.90   22.48
  -4  -2  10  536.98   21.49
   4  -2 -10  515.77   22.75
   4  -2 -10  517.83   23.29
   4   2  -8  298.43   14.78
  -4   2   8  280.07   12.77
  -4  -2   8  305.47   14.52
   4  -2  -8  291.78   15.30
   4  -2  -8  309.43   15.86
  -4   2   6  421.42   16.53
  -4  -2   6  422.70   17.75
  -4  -2   6  427.14   17.75
   4  -2  -6  397.16   17.83
   4  -2  -6  393.61   18.53
   4   2  -6  411.77   17.38
  -4   2   4  901.92   30.05
  -4  -2   4  931.76   30.95
  -4  -2   4  881.13   30.94
   4  -2  -4  911.14   30.57
   4  -2  -4  900.41   30.79
   4  -2  -4  866.83   31.98
  -4   2   2 1161.03   36.49
  -4  -2   2 1096.67   36.26
   4  -2  -2 1185.95   37.31
  -4  -2   2 1095.12   36.81
   4  -2  -2 1135.03   37.76
  -4  -2   2 1118.56   36.85
   4  -2  -2 1134.59   38.75
   4  -2  -2 1126.96   36.85
   4  -2  -2 1110.96   37.98
  -4  -2   0  147.51    7.79
  -4  -2   0  151.92    8.65
   4  -2   0  151.89    9.62
  -4  -2   0  158.64    8.69
   4  -2   0  154.28    8.95
  -4  -2  -2 1682.77   51.46
   4  -2   2 1593.36   52.99
  -4  -2  -2 1583.99   51.38
   4  -2   2 1644.43   51.95
  -4  -2  -4  764.45   28.24
   4  -2   4  797.32   28.43
   4  -2   4  773.09   29.05
  -4  -2  -6 1383.94   45.82
  -4  -2  -6 1377.49   46.20
   4  -2   6 1363.88   45.22
  -4  -2  -6 1368.56   46.58
   4  -2   6 1284.47   46.34
   4  -2   8  105.81    9.36
  -4  -2  -8   95.10    8.75
  -4  -2  -8   80.63    8.50
   4  -2   8   90.19    7.77
   4  -2  10  725.67   30.80
  -4  -2 -10  808.00   30.37
  -4  -2 -10  817.80   29.90
  -4   2 -12  298.92   14.10
   4  -2  12  262.82   12.34
  -4  -2 -12  293.43   13.81
  -4  -2 -12  300.06   14.03
  -4   2 -14  104.75    5.81
  -4   2 -14   69.83    4.25
   4  -3 -15   11.32    1.94
  -4  -3  15   14.87    2.31
   4  -3 -15   12.62    1.95
  -4  -3  13   57.07    5.55
  -4  -3  13   49.59    4.33
   4  -3 -13   57.83    6.07
   4  -3 -13   49.49    5.17
   4   3 -13   42.76    4.53
   4  -3 -11   16.45    4.15
   4   3 -11   16.64    3.42
  -4  -3  11   21.61    4.31
   4  -3 -11   21.73    5.06
  -4  -3   9  279.63   14.46
  -4  -3   9  281.30   14.18
   4  -3  -9  250.73   14.65
   4  -3  -9  262.19   14.62
  -4  -3   7   77.61    6.97
  -4  -3   7   83.15    7.79
   4  -3  -7   72.56    6.30
   4  -3  -7   71.22    7.37
   4  -3  -7   76.12    7.30
  -4  -3   5  304.78   14.14
   4  -3  -5  283.24   13.86
  -4  -3   5  286.69   14.53
   4  -3  -5  316.61   14.35
   4  -3  -5  267.96   15.00
   4  -3  -5  293.82   14.42
   4  -3  -5  293.21   14.92
   4  -3  -3    4.85    2.65
  -4  -3   3    4.09    2.12
  -4  -3   3    6.09    2.65
   4  -3  -3    2.45    2.30
  -4  -3   3    3.19    3.57
   4  -3  -3    5.10    2.76
   4  -3  -3    5.02    2.52
   4  -3  -3    5.93    2.68
   4  -3  -1   89.49    7.63
   4  -3  -1   91.63    7.67
  -4  -3   1   98.89    7.38
   4  -3  -1  101.43    7.53
   4  -3  -1   92.87    7.10
   4  -3  -1   98.73    7.80
   4  -3   1   13.03    3.48
  -4  -3  -1   13.29    3.18
  -4  -3  -1   16.75    3.60
   4  -3   1   15.17    3.76
   4  -3   1   13.19    3.24
  -4  -3  -1   13.06    2.79
  -4  -3  -3  119.84    8.70
   4  -3   3  127.84    9.59
  -4  -3  -3  120.45    8.72
  -4  -3  -3  122.98    8.43
   4  -3   3  113.70    8.88
  -4  -3  -5  341.28   16.60
  -4  -3  -5  361.02   16.89
  -4  -3  -5  343.72   16.86
   4  -3   5  350.35   16.62
  -4  -3  -5  319.16   15.14
   4  -3   5  345.89   17.26
   4  -3   7   11.03    4.08
  -4  -3  -7   19.37    6.84
  -4  -3  -7    7.53    4.70
   4  -3   7    5.34    3.14
   4  -3   7    7.09    2.68
  -4  -3  -7    5.91    4.19
  -4  -3  -7    7.80    3.12
   4  -3   9  108.13    9.47
  -4  -3  -9   93.46   10.17
   4  -3   9  109.02    8.69
  -4  -3  -9  102.92    8.12
   4  -3   9   90.61    6.52
   4  -3  11  223.97   11.46
  -4  -3 -11  242.60   12.55
  -4  -3 -11  211.21   11.88
  -4   3 -13   27.70    3.51
   4  -3  13   23.75    2.67
  -4  -3 -13   27.14    3.27
  -4  -4  14  131.95    6.32
   4  -4 -14  123.85    6.60
  -4  -4  12  252.99   11.69
  -4  -4  12  218.02   10.61
   4  -4 -12  220.85   11.29
  -4  -4  10  518.45   20.70
  -4  -4  10  500.77   20.51
   4  -4 -10  493.99   19.22
   4  -4 -10  490.71   20.87
   4  -4 -10  428.84   19.50
  -4  -4   8  448.13   18.97
   4  -4  -8  391.95   18.50
  -4  -4   8  447.62   19.74
   4  -4  -8  438.66   18.55
   4  -4  -8  409.77   19.71
   4  -4  -8  410.15   18.77
  -4  -4   6  542.83   21.97
   4  -4  -6  543.76   22.08
   4  -4  -6  528.30   22.53
  -4  -4   6  550.67   23.19
   4  -4  -6  553.53   22.55
   4  -4  -6  581.85   23.57
   4  -4  -6  539.79   22.73
  -4  -4   4  973.12   34.14
   4  -4  -4  997.58   35.86
   4  -4  -4  981.83   35.84
   4  -4  -4 1061.66   36.26
  -4  -4   4  992.68   35.69
   4  -4  -4 1052.42   36.62
   4  -4  -4 1022.96   36.14
   4  -4  -2 1135.08   40.19
  -4  -4   2 1243.87   40.05
   4  -4  -2 1157.34   40.66
  -4  -4   2 1130.10   39.02
   4  -4  -2 1161.78   40.01
   4  -4  -2 1199.85   40.28
   4  -4  -2 1088.93   39.92
  -4  -4   0  290.67   13.81
   4  -4   0  297.44   15.30
  -4  -4   0  305.93   14.83
   4  -4   0  318.18   16.30
   4  -4   0  299.35   15.23
   4  -4   0  291.52   15.11
   4  -4   2 1050.69   38.12
  -4  -4  -2 1062.73   37.28
  -4  -4  -2 1046.04   36.43
   4  -4   2 1091.97   38.09
  -4  -4  -4  475.65   20.20
  -4  -4  -4  454.03   20.19
   4  -4   4  450.34   20.45
   4  -4   4  469.34   21.05
   4  -4   6  688.11   28.34
  -4  -4  -6  684.34   27.05
   4  -4   6  728.56   27.61
  -4  -4  -6  716.66   28.09
  -4  -4  -6  643.46   25.38
   4  -4   6  711.83   26.95
   4  -4   8   12.59    4.10
  -4  -4  -8    5.62    4.35
   4  -4   8   12.54    4.02
   4  -4   8   14.39    3.25
  -4  -4  -8   13.44    4.63
  -4  -4  -8   13.93    3.39
   4  -4  10  348.61   15.72
  -4  -4 -10  354.29   15.57
   4  -4  10  380.42   17.07
  -4   4 -12  123.81    7.16
  -4  -4 -12  118.36    6.88
   4  -4  12  129.79    6.79
  -4  -4 -12  119.65    6.69
  -4  -5  13   14.30    2.07
  -4  -5  13   15.55    2.15
   4  -5 -13   13.84    2.16
  -4  -5  11  126.32    7.50
  -4  -5  11  132.39    8.04
   4  -5 -11  123.42    6.88
   4  -5 -11  119.36    7.81
  -4  -5   9   34.36    4.42
   4  -5  -9   34.87    4.37
  -4  -5   9   35.23    5.86
   4  -5  -9   32.14    4.89
  -4  -5   7  144.52    9.13
   4  -5  -7  161.27    9.83
  -4  -5   7  164.50   11.42
   4  -5  -7  177.92   10.59
   4  -5  -7  165.73   10.89
   4  -5  -5   26.43    4.06
   4  -5  -5   36.28    5.38
  -4  -5   5   31.63    5.15
  -4  -5   5   14.58    5.43
   4  -5  -5   25.66    4.96
   4  -5  -5   31.05    5.11
  -4  -5   3  225.09   12.63
   4  -5  -3  220.54   13.02
   4  -5  -3  212.58   12.60
  -4  -5   3  208.18   12.50
   4  -5  -3  208.51   12.84
   4  -5  -3  199.99   11.66
   4  -5  -1    0.68    2.19
   4  -5  -1    3.30    4.21
  -4  -5   1    1.20    2.77
  -4  -5   1   11.72    4.33
  -4  -5  -1   35.21    5.43
  -4  -5  -1   29.22    4.91
   4  -5   1   40.68    5.45
   4  -5   1   31.74    4.84
   4  -5   3   10.66    3.51
   4  -5   3    9.85    3.24
  -4  -5  -3   12.73    3.95
  -4  -5  -3   13.08    4.05
   4  -5   3   14.24    4.13
   4  -5   5    5.29    2.85
  -4  -5  -5   11.30    5.59
  -4  -5  -5   15.35    4.54
   4  -5   5    7.53    3.51
   4  -5   7  282.18   14.29
  -4  -5  -7  251.96   13.04
   4  -5   7  261.55   13.83
   4  -5   7  290.97   13.74
  -4  -5  -9   94.77   10.01
   4  -5   9  105.22    7.07
  -4  -5  -9  110.72    7.52
   4  -5   9   95.46    6.86
  -4  -5  -9   87.48    5.82
  -4   5 -11   10.62    2.07
   4  -5  11   11.19    2.15
  -4  -6  10  147.58    7.72
  -4  -6  10  151.65    8.06
   4  -6 -10  137.38    7.14
  -4  -6   8  143.33    8.42
  -4  -6   8  140.30    9.00
   4  -6  -8  135.05    8.07
  -4  -6   6  194.60   10.60
  -4  -6   6  172.59   10.76
   4  -6  -6  178.90   10.41
  -4  -6   4  420.91   17.70
  -4  -6   4  398.94   17.26
   4  -6  -4  411.03   17.92
  -4  -6   2  520.45   19.90
   4  -6  -2  495.19   19.96
  -4  -6   0  176.99   10.95
  -4  -6   0  179.94   10.57
   4  -6   0  181.01   11.08
   4  -6   0  167.57   10.22
  -4  -6  -2  641.51   24.50
  -4  -6  -2  579.38   22.88
   4  -6   2  593.82   23.81
   4  -6   2  589.38   24.18
   4  -6   2  633.98   24.21
  -4  -6  -4  362.82   18.15
   4  -6   4  363.80   15.27
  -4  -6  -4  355.19   15.48
  -4  -6  -4  353.24   15.58
   4  -6   4  400.66   17.04
   4  -6   4  397.21   17.03
  -4  -6  -6  556.09   22.79
   4  -6   6  541.31   19.86
  -4  -6  -6  492.61   19.96
   4  -6   6  551.77   20.83
   4  -6   6  541.15   20.60
  -4  -6  -8   54.48    6.91
   4  -6   8   63.36    4.53
  -4  -6  -8   62.04    4.94
   4  -6   8   58.08    4.67
  -4  -7   7    7.41    1.74
  -4  -7   7   11.40    2.12
   4  -7  -7   10.93    2.43
  -4  -7   5   60.07    4.75
  -4  -7   5   67.92    4.94
  -4  -7   5   70.69    5.28
  -4  -7   3    2.36    1.95
  -4  -7   3   -0.83    2.26
   4  -7  -3    4.85    2.76
  -4  -7   1   16.56    3.16
  -4  -7   1   14.72    2.84
   4  -7  -1   17.60    3.49
  -4  -7  -1    9.31    2.74
   4  -7   1    4.56    2.29
   4  -7   1    5.51    2.17
  -4  -7  -3    3.56    5.19
   4  -7   3   10.06    2.60
  -4  -7  -5   69.49    5.74
   4  -7   5   53.49    3.52
   4  -7   5   63.70    4.51
   5   0 -15   14.81    2.75
   5   0 -13    3.98    3.18
  -5   0  13    3.97    1.89
   5   0 -11    0.58    3.15
  -5   0  11    0.14    2.20
   5   0  -9    2.83    3.48
  -5   0   9    0.15    2.54
  -5   0   7  103.70    7.85
   5   0  -7  101.59    8.65
  -5   0   5  366.64   16.24
   5   0  -5  349.36   16.84
   5   0  -3   27.14    4.40
   5   0  -3   21.52    4.40
   5   0  -1    2.17    2.29
  -5   0   1    1.29    2.08
  -5   0   1    0.93    1.58
   5   0  -1    2.64    2.36
   5   0   1    3.24    2.32
  -5   0  -1    2.25    2.00
   5   0   1    1.75    2.63
   5   0   3   93.10    8.05
  -5   0  -3   89.38    7.24
   5   0   3   82.47    7.04
  -5   0  -5   66.86    6.86
   5   0   5   65.13    6.38
   5   0   7   75.27    7.39
   5   0   9    1.77    2.59
  -5   0 -11    0.39    2.52
  -5   0 -13   48.69    3.54
  -5  -1  14   95.58    5.72
   5   1 -14  104.57    6.90
  -5   1  12  232.50   10.90
  -5  -1  12  306.27   13.17
   5  -1 -12  239.67   12.56
   5   1 -12  278.49   13.92
  -5   1  10  223.54   11.36
  -5  -1  10  247.34   12.69
   5  -1 -10  214.44   12.08
   5   1 -10  209.78   12.80
  -5   1   8  404.33   17.44
  -5  -1   8  427.58   18.49
   5  -1  -8  387.92   17.76
   5  -1  -8  418.09   19.91
   5   1  -8  411.34   19.13
  -5   1   6  656.12   23.96
  -5  -1   6  589.22   22.45
   5  -1  -6  643.68   25.87
   5   1  -6  609.15   24.66
  -5   1   4 1617.78   51.18
  -5  -1   4 1614.99   51.59
  -5  -1   4 1581.33   50.26
   5  -1  -4 1615.48   53.06
   5   1  -4 1575.56   51.53
  -5   1   2  695.43   25.14
  -5  -1   2  679.72   24.73
  -5  -1   2  672.21   24.64
   5  -1  -2  683.55   27.34
   5   1  -2  685.82   26.36
   5   1  -2  639.54   24.83
   5  -1  -2  675.42   26.47
  -5  -1   0 1023.42   33.89
  -5  -1   0  978.69   33.46
  -5  -1   0 1020.96   34.51
   5   1   0  984.96   35.26
   5  -1   0 1015.49   36.57
   5  -1   0 1015.31   35.93
  -5  -1  -2 1393.34   44.28
   5   1   2 1360.17   45.46
   5  -1   2 1333.50   46.99
  -5   1  -2 1316.42   44.12
  -5  -1  -2 1406.84   45.38
   5  -1   2 1396.67   46.28
  -5  -1  -4 1575.51   50.74
   5   1   4 1546.22   51.26
   5  -1   4 1572.65   53.07
  -5  -1  -4 1578.55   51.99
   5  -1   4 1601.14   52.61
   5   1   6   90.35    7.40
   5  -1   6   98.38    8.80
  -5  -1  -6   88.71    7.37
  -5  -1  -6   86.36    8.11
   5  -1   6   92.03    7.01
   5  -1   8  802.35   31.17
  -5  -1  -8  768.79   29.20
   5  -1  10  285.49   14.79
  -5  -1 -10  314.58   14.89
  -5   1 -12  146.15    7.50
  -5  -1 -12  157.77    8.26
  -5   1 -12  140.94    7.56
  -5  -1 -12  159.10    8.27
   5  -2 -15    5.98    1.69
  -5  -2  15    4.59    1.22
   5  -2 -13   14.03    3.34
   5   2 -13   13.14    2.71
  -5  -2  13   11.91    2.85
   5  -2 -11    2.20    3.22
   5   2 -11    2.15    2.31
  -5  -2  11    2.83    3.10
   5  -2 -11    2.46    2.91
   5  -2  -9    1.82    3.60
   5   2  -9    1.98    2.33
  -5   2   9   -0.23    1.69
  -5  -2   9    0.66    1.77
  -5  -2   9   -1.42    3.33
  -5   2   7  109.57    7.40
  -5  -2   7  115.25    8.61
  -5  -2   7  120.02    7.96
  -5  -2   7  111.03    8.86
   5  -2  -7  116.95    9.45
   5   2  -7  103.61    7.80
  -5   2   5  179.01    9.87
  -5  -2   5  168.27   10.34
  -5  -2   5  167.50    9.90
   5  -2  -5  170.38   12.10
   5  -2  -5  169.52    9.78
  -5  -2   3   79.48    6.57
  -5  -2   3   81.34    6.70
  -5  -2   3   84.30    7.76
   5  -2  -3   77.69    7.93
   5  -2  -3   83.59    6.57
  -5  -2   1   42.37    4.58
  -5  -2   1   41.39    5.06
   5  -2  -1   47.08    6.09
   5  -2  -1   50.32    5.38
   5  -2  -1   45.88    6.01
   5  -2   1    7.11    3.52
  -5  -2  -1    7.23    2.82
  -5  -2  -1    7.84    2.35
  -5  -2  -1    4.65    3.00
  -5  -2  -1    5.26    2.56
  -5  -2  -3   68.54    6.50
  -5  -2  -3   72.86    7.34
   5  -2   3   68.41    6.18
  -5  -2  -3   64.07    6.55
   5  -2   3   73.82    7.46
   5  -2   5   19.49    4.67
  -5  -2  -5   18.74    4.60
   5  -2   5   20.68    3.80
  -5  -2  -5   22.11    4.68
   5  -2   7    6.10    4.03
  -5  -2  -7    3.74    3.66
   5  -2   7    4.60    2.58
  -5  -2  -7    3.94    3.85
   5  -2   9   55.55    6.40
  -5  -2  -9   38.52    5.80
  -5  -2  -9   51.63    5.57
  -5   2 -11   54.47    5.06
   5  -2  11   46.87    4.13
  -5  -2 -11   50.41    5.18
  -5  -2 -11   52.69    4.81
  -5  -3  14  233.14    9.13
   5  -3 -14  194.46    8.70
  -5  -3  12  385.79   14.47
   5  -3 -12  390.64   16.25
   5  -3 -12  430.01   16.75
  -5  -3  10  271.83   13.34
  -5  -3  10  253.02   12.29
  -5  -3  10  267.94   13.22
   5  -3 -10  233.65   13.54
   5  -3 -10  238.40   12.08
   5  -3 -10  254.41   13.74
  -5  -3   8  218.93   12.18
  -5  -3   8  225.69   12.09
  -5  -3   8  229.69   13.14
   5  -3  -8  219.42   13.41
   5  -3  -8  208.98   11.65
   5  -3  -8  216.95   13.03
  -5  -3   6  198.49   11.40
  -5  -3   6  220.04   11.97
   5  -3  -6  192.21   10.76
   5  -3  -6  195.61   12.74
   5  -3  -6  205.21   11.57
   5  -3  -6  210.78   12.84
  -5  -3   4  475.73   20.31
  -5  -3   4  518.15   21.29
   5  -3  -4  501.87   22.68
  -5  -3   4  522.73   21.77
   5  -3  -4  504.85   20.94
   5  -3  -4  514.45   21.18
   5  -3  -4  539.94   22.75
  -5  -3   2   22.95    3.50
   5  -3  -2   23.89    4.95
  -5  -3   2   23.26    4.24
  -5  -3   2   29.52    6.32
   5  -3  -2   23.04    4.88
   5  -3  -2   27.10    4.51
   5  -3   0   76.10    7.97
  -5  -3   0   75.01    7.29
   5  -3   0   82.49    7.49
   5  -3   0   81.78    7.99
  -5  -3  -2  211.78   12.37
   5  -3   2  216.05   13.38
   5  -3   2  220.59   12.27
  -5  -3  -2  210.61   11.44
   5  -3   2  208.53   13.09
  -5  -3  -4  428.65   19.85
  -5  -3  -4  448.54   20.01
   5  -3   4  437.46   19.33
  -5  -3  -4  432.06   19.30
   5  -3   6    2.39    3.76
  -5  -3  -6    3.14    4.74
   5  -3   6    3.15    2.76
  -5  -3  -6    4.48    3.66
  -5  -3  -6   -0.79    1.93
   5  -3   8  367.00   18.70
  -5  -3  -8  416.86   19.25
   5  -3   8  431.86   18.19
  -5  -3  -8  404.36   17.06
   5  -3   8  382.31   16.08
   5  -3  10  221.29   10.46
  -5  -3 -10  201.52   10.11
  -5   3 -12  161.11    7.47
  -5  -4  13    2.00    1.37
   5  -4 -11   -0.44    1.70
  -5  -4  11    2.27    2.14
  -5  -4  11    0.30    1.60
  -5  -4  11    4.40    3.05
   5  -4 -11    0.53    1.70
   5  -4  -9   -0.15    2.32
  -5  -4   9    1.08    2.55
  -5  -4   9   -1.11    2.21
  -5  -4   9    5.97    4.50
   5  -4  -9   -0.57    2.05
   5  -4  -9    0.86    2.16
  -5  -4   7   50.57    5.32
  -5  -4   7   55.18    5.87
   5  -4  -7   46.06    5.60
   5  -4  -7   51.04    5.22
   5  -4  -7   53.47    5.71
   5  -4  -7   47.06    5.86
  -5  -4   5  149.27    9.42
   5  -4  -5  167.42   11.11
  -5  -4   5  181.08   11.03
  -5  -4   5  185.76   12.23
   5  -4  -5  175.36   10.57
   5  -4  -5  181.15   11.09
   5  -4  -5  178.16   11.43
   5  -4  -3    1.16    3.03
  -5  -4   3    6.34    3.72
   5  -4  -3    2.72    3.13
   5  -4  -3    6.96    3.25
   5  -4  -1    0.39    3.24
  -5  -4   1   10.39    4.49
   5  -4  -1   -0.20    2.65
   5  -4  -1    1.99    3.05
   5  -4   1    9.32    3.83
  -5  -4  -1    7.25    3.53
  -5  -4  -1    6.27    4.04
   5  -4   1    8.94    3.87
  -5  -4  -3  107.84    8.82
  -5  -4  -3  118.53    9.25
  -5  -4  -3  100.67    7.74
   5  -4   3  110.64    8.63
   5  -4   3  103.69    8.90
   5  -4   5    2.41    3.29
  -5  -4  -5    2.53    6.03
  -5  -4  -5   11.60    5.21
   5  -4   5    4.11    3.10
   5  -4   5    4.60    2.90
  -5  -4  -5    5.84    3.11
   5  -4   7    4.82    3.05
  -5  -4  -7    2.73    4.14
   5  -4   7    4.77    2.71
   5  -4   7    6.32    2.48
  -5  -4  -7    6.59    3.39
   5  -4   9   12.22    3.09
  -5  -4  -9   -3.07    5.77
  -5   4 -11    5.97    1.66
   5  -4  11    3.80    1.29
  -5  -4 -11    3.37    1.50
  -5  -5  10   99.84    5.75
  -5  -5  10  112.14    6.57
  -5  -5  10  115.86    7.04
   5  -5 -10  102.66    6.33
  -5  -5   8  190.19    9.60
  -5  -5   8  242.95   11.48
  -5  -5   8  245.26   12.19
   5  -5  -8  206.51   10.16
   5  -5  -8  212.13   11.05
  -5  -5   6  483.14   19.71
   5  -5  -6  464.20   18.86
   5  -5  -6  432.31   18.49
  -5  -5   4 1162.75   38.93
   5  -5  -4 1171.09   39.45
   5  -5  -4 1110.24   38.96
   5  -5  -2  620.75   24.23
  -5  -5   2  671.09   25.27
  -5  -5   2  593.40   23.23
   5  -5  -2  640.05   25.03
   5  -5  -2  620.01   24.75
   5  -5   0  873.81   31.89
  -5  -5   0  918.23   32.47
   5  -5   0  852.34   32.07
   5  -5   0  881.36   32.24
   5  -5   2 1085.32   38.68
  -5  -5  -2 1156.01   38.86
   5  -5   2 1103.35   38.81
   5  -5   2 1160.92   39.15
   5  -5   2 1109.50   39.12
   5  -5   4 1044.90   35.80
  -5  -5  -4 1060.99   35.63
  -5  -5  -4  929.94   33.51
   5  -5   4 1076.97   35.72
   5  -5   4 1019.71   35.25
   5  -5   6  109.70    7.62
  -5  -5  -6   99.12    7.50
   5  -5   6  115.98    7.59
   5  -5   6  112.30    7.30
   5  -5   8  446.46   15.83
  -5  -5  -8  380.32   15.37
  -5  -6   7   49.92    4.46
   5  -6  -7   42.01    3.94
  -5  -6   5   46.73    4.71
  -5  -6   5   50.32    5.41
   5  -6  -5   45.69    4.68
  -5  -6   3   25.98    4.21
  -5  -6   3   20.18    3.86
   5  -6  -3   26.64    4.16
  -5  -6   1   29.49    4.49
  -5  -6   1   23.88    4.14
   5  -6  -1   28.13    3.63
  -5  -6  -1   10.60    3.18
  -5  -6  -1   17.26    3.84
   5  -6   1   12.42    3.30
   5  -6   1    9.48    2.87
  -5  -6  -3    6.36    3.36
   5  -6   3    6.54    2.55
   5  -6   5   34.57    3.10
   5  -6   5   33.40    3.62
  -5  -6  -7   20.20    3.83
  -5  -7   4  158.59    7.39
  -5  -7   4  168.89    7.33
  -5  -7   2   25.50    2.91
  -5  -7   2   27.24    2.83
  -5  -7   0   31.56    4.50
   5  -7   0   54.92    4.10
  -5  -7  -2  108.54    6.55
   5  -7   2  115.43    5.93
   6   0 -14   71.11    4.72
   6   0 -14   63.96    4.20
  -6   0  12  185.59    8.71
   6   0 -12  212.01   10.55
  -6   0  10   89.56    6.55
   6   0 -10   88.92    7.47
  -6   0   8  243.00   12.46
   6   0  -8  235.12   13.42
  -6   0   6 1095.23   37.62
   6   0  -6 1087.66   40.85
   6   0  -6 1087.08   38.93
   6   0  -4  441.22   21.15
   6   0  -4  443.85   20.14
  -6   0   2  637.14   24.17
   6   0  -2  592.12   25.94
   6   0  -2  614.95   25.09
  -6   0   0 1124.12   39.26
   6   0   0 1268.18   42.94
   6   0   0 1219.24   41.38
   6   0   2 1291.53   43.90
  -6   0  -2 1209.56   41.56
   6   0   2 1221.71   42.22
  -6   0  -4  504.02   21.37
   6   0   4  522.26   21.37
   6   0   6  578.57   23.49
   6   0   8  401.24   17.18
  -6   0  -8  453.56   18.61
  -6   0 -10  262.86   11.39
  -6   0 -10  240.56   10.71
   6  -1 -13    0.71    1.74
   6   1 -13    0.57    1.31
  -6  -1  13   -0.07    1.20
   6  -1 -13    0.22    1.84
   6   1 -13   -0.31    1.52
   6  -1 -11    9.76    3.32
   6   1 -11   10.32    2.82
  -6   1  11    7.74    1.98
  -6  -1  11   10.55    2.75
  -6   1   9  107.73    7.18
  -6  -1   9  106.10    7.74
   6  -1  -9  109.03    8.77
   6   1  -9  102.81    7.86
   6  -1  -7   10.04    3.86
   6   1  -7   10.60    3.18
  -6   1   7   10.51    3.24
   6  -1  -7    8.71    4.69
   6   1  -7    8.84    3.73
   6   1  -5   15.15    3.63
   6  -1  -5   16.19    4.55
  -6   1   5   19.43    3.90
  -6  -1   5   15.40    3.89
   6  -1  -5   15.91    4.75
   6   1  -5   17.66    4.25
   6   1  -3   17.36    3.49
   6  -1  -3   16.49    4.47
  -6  -1   3   14.29    3.55
  -6  -1   3   16.40    3.17
   6   1  -3   17.81    4.16
   6  -1  -3   16.36    4.80
  -6  -1   1   59.53    5.94
  -6  -1   1   55.66    5.73
   6   1  -1   61.05    6.46
   6  -1  -1   63.49    7.20
   6  -1  -1   62.21    6.93
   6   1   1   89.21    7.55
   6  -1   1   75.79    8.10
  -6  -1  -1   88.79    7.35
   6  -1   1   85.13    7.81
   6  -1   3   -0.19    2.81
  -6  -1  -3    0.35    2.68
   6  -1   3    0.21    2.98
   6  -1   5   15.10    4.21
  -6  -1  -5   13.42    4.11
   6  -1   7   35.97    5.06
  -6  -1  -7   45.44    5.60
  -6  -1  -9   22.65    3.24
  -6  -1  -9   19.48    3.73
   6  -1   9   23.89    3.57
  -6  -1 -11   -0.43    1.37
  -6   1 -11    0.58    1.26
  -6   1 -11    0.45    1.08
  -6  -2  12  271.07   10.88
   6  -2 -12  260.74   11.87
   6  -2 -12  268.41   11.74
   6  -2 -10  118.69    8.59
   6   2 -10  103.34    7.53
   6  -2 -10  102.46    8.08
  -6  -2   8  211.41   11.39
   6  -2  -8  202.00   12.77
   6   2  -8  187.57   11.33
  -6  -2   6  782.97   27.80
  -6  -2   6  710.95   26.35
   6  -2  -6  775.57   30.58
   6   2  -6  693.12   27.71
  -6  -2   4  179.41   10.41
  -6  -2   4  176.96   10.32
   6  -2  -4  183.77   12.50
   6  -2  -4  176.44   12.04
  -6  -2   2  189.18   10.55
  -6  -2   2  181.85   10.61
  -6  -2   2  185.53   11.02
   6  -2  -2  201.67   12.57
  -6  -2   0  375.71   17.15
  -6  -2   0  411.75   18.33
   6  -2   0  434.47   19.78
  -6  -2  -2  383.47   17.01
   6  -2   2  400.79   19.64
  -6  -2  -2  384.80   17.96
  -6  -2  -2  364.74   16.39
   6  -2   2  406.68   19.07
  -6  -2  -4   78.39    6.67
  -6  -2  -4   82.36    7.75
  -6  -2  -4   73.52    6.78
   6  -2   4   72.54    7.40
   6  -2   6  190.14   11.76
  -6  -2  -6  163.28   10.04
  -6  -2  -6  160.06   10.77
  -6  -2  -6  189.48   10.82
   6  -2   8  185.30   10.76
  -6  -2  -8  162.82    8.51
  -6   2 -10  162.24    7.63
  -6  -2 -10  184.13    8.48
  -6   2 -10  169.89    7.93
  -6  -3  11   40.67    3.86
   6  -3 -11   42.14    4.07
   6  -3 -11   50.71    4.60
   6  -3  -9    8.24    3.17
  -6  -3   9    6.36    2.57
  -6  -3   9    8.07    2.17
   6  -3  -9    6.24    2.94
  -6  -3   7  226.98   11.40
  -6  -3   7  211.70   11.07
   6  -3  -7  215.39   12.78
   6  -3  -7  243.50   13.17
  -6  -3   5   62.03    5.76
  -6  -3   5   60.86    5.93
   6  -3  -5   64.11    6.94
   6  -3  -5   64.41    7.19
   6  -3  -3   15.72    4.69
  -6  -3   3   15.55    3.10
  -6  -3   3   20.57    4.35
   6  -3  -3   16.03    4.52
  -6  -3   1    8.27    3.03
  -6  -3   1   10.83    4.05
   6  -3  -1   12.00    4.17
   6  -3  -1    9.96    2.79
  -6  -3  -1   63.44    6.30
   6  -3   1   71.29    7.72
  -6  -3  -1   70.59    7.26
   6  -3   1   62.82    5.76
  -6  -3  -3   32.92    4.93
  -6  -3  -3   31.51    5.84
   6  -3   3   23.44    3.60
   6  -3   5   92.82    8.38
  -6  -3  -5  111.94    8.59
   6  -3   5  109.16    7.11
  -6  -3  -5  107.47    7.54
  -6  -3  -7    4.75    3.53
   6  -3   7    4.16    1.66
  -6  -3  -7    9.31    2.93
   6  -3   9   12.85    2.56
   6  -3   9   10.45    2.00
  -6  -4  10   36.65    3.23
  -6  -4  10   29.96    2.74
   6  -4 -10   34.29    3.33
  -6  -4   8   85.41    5.79
   6  -4  -8   95.34    6.52
  -6  -4   8  101.39    6.37
   6  -4  -8  100.17    6.92
  -6  -4   6  436.24   17.23
   6  -4  -6  449.31   19.05
  -6  -4   6  498.78   19.13
   6  -4  -6  473.30   19.68
   6  -4  -4  140.35    9.58
  -6  -4   4  136.65    9.13
   6  -4  -4  137.67    9.47
  -6  -4   2  215.50   12.00
   6  -4  -2  207.32   12.28
  -6  -4   2  222.72   12.26
   6  -4  -2  216.94   12.54
  -6  -4   0  446.45   19.24
   6  -4   0  443.50   19.78
  -6  -4   0  446.22   19.36
   6  -4   0  430.39   18.27
   6  -4   0  463.38   19.97
  -6  -4  -2  552.16   21.86
   6  -4   2  522.76   20.78
   6  -4   2  559.10   22.67
   6  -4   4  192.13   11.03
  -6  -4  -4  181.51   11.01
  -6  -4  -4  190.81   10.99
   6  -4   4  172.96    9.41
   6  -4   4  177.37    9.84
   6  -4   6  268.35   12.64
  -6  -4  -6  268.13   12.55
  -6  -4  -6  254.70   12.26
   6  -4   6  250.20   11.08
   6  -4   6  258.98   11.10
   6  -4   8  225.63    9.95
   6  -5  -7    6.24    1.67
  -6  -5   7    6.94    2.25
  -6  -5   5   39.50    4.46
  -6  -5   5   40.78    4.50
   6  -5  -5   35.21    3.85
  -6  -5   3   41.30    4.72
   6  -5  -3   33.11    3.77
   6  -5  -3   35.28    4.23
  -6  -5   1   30.86    4.38
  -6  -5   1   32.15    4.65
   6  -5  -1   26.41    3.64
   6  -5  -1   31.49    4.20
   6  -5   1   67.78    5.65
  -6  -5  -1   82.42    6.46
  -6  -5  -1   83.45    6.54
   6  -5   1   70.17    5.54
   6  -5   1   75.22    5.92
   6  -5   1   69.72    5.92
   6  -5   3   10.01    2.51
  -6  -5  -3    4.16    4.83
  -6  -5  -3   10.77    3.76
   6  -5   3    8.24    2.31
   6  -5   5    1.22    1.40
  -6  -5  -5   -1.84    2.65
   6  -5   5    1.77    1.32
   6  -5   5    2.37    1.53
  -6  -6   4  152.86    7.22
   6  -6  -4  129.13    6.48
  -6  -6   2  214.50    9.21
   6  -6  -2  178.15    8.49
  -6  -6   0  340.48   12.37
   6  -6   0  327.51   11.99
   6  -6   2  294.69   11.01
   6  -6   2  287.39   10.95
   7   0 -11   78.21    5.11
   7   0 -11   64.38    4.24
   7   0  -9   20.59    3.17
   7   0  -9   13.64    3.15
   7   0  -7    7.00    2.61
  -7   0   7    5.67    2.57
   7   0  -7    7.79    3.15
   7   0  -5  110.89    8.52
   7   0  -5  106.21    7.74
   7   0  -3   66.43    6.64
   7   0  -3   59.49    5.85
   7   0  -1    1.62    2.22
   7   0  -1    2.48    2.76
   7   0   1    1.49    2.09
   7   0   1    1.65    2.63
   7   0   3    0.44    2.21
   7   0   5   46.10    4.36
  -7   0  -5   45.85    4.61
  -7   0  -7   50.83    4.25
  -7  -1  10  123.79    6.35
   7  -1 -10  120.85    7.36
   7  -1 -10  132.71    7.24
   7   1  -8  272.84   13.08
   7  -1  -8  298.50   14.23
   7  -1  -8  304.27   13.76
  -7  -1   6  218.06   10.75
   7   1  -6  188.37   10.92
   7  -1  -6  205.39   12.13
   7  -1  -6  216.04   11.76
   7   1  -4  168.27   10.28
   7  -1  -4  186.18   11.62
   7  -1  -4  183.29   10.93
   7   1  -2  196.09   11.04
   7  -1  -2  198.53   12.27
   7  -1  -2  211.48   11.84
   7  -1   0  408.49   18.32
   7  -1   0  397.82   17.32
   7  -1   2  228.63   12.44
  -7  -1  -2  191.66   10.57
   7  -1   2  216.24   11.48
   7  -1   4  101.15    7.44
  -7  -1  -4   89.41    6.15
   7  -1   6  273.07   12.01
  -7  -1  -6  260.54   11.32
  -7   1  -8   92.47    5.10
  -7  -2   9   34.35    3.32
   7  -2  -9   28.80    3.71
   7  -2  -9   32.75    3.89
  -7  -2   7   78.96    5.68
   7  -2  -7   74.31    6.50
   7  -2  -7   84.70    6.73
   7  -2  -5    2.04    2.85
  -7  -2   5    2.92    2.20
   7  -2  -3    2.48    3.02
  -7  -2   3    3.26    2.16
   7  -2  -1   35.77    5.38
  -7  -2   1   37.89    4.50
   7  -2  -1   39.97    5.30
   7  -2   1    0.63    2.77
  -7  -2  -1   -1.73    2.73
   7  -2   1    1.21    2.77
   7  -2   3   25.60    4.28
  -7  -2  -3   15.12    3.66
   7  -2   5    9.59    2.82
   7  -2   5   10.10    1.84
  -7  -2  -5    8.09    1.95
   7  -2   7   25.13    2.84
  -7  -3   8  210.90    9.11
   7  -3  -8  240.14   10.53
   7  -3  -8  235.19   10.52
  -7  -3   6  226.09    9.81
   7  -3  -6  252.62   11.82
   7  -3  -6  248.91   11.63
  -7  -3   4  264.09   11.56
  -7  -3   4  278.49   12.10
  -7  -3   2  372.91   15.07
   7  -3  -2  405.40   17.62
  -7  -3   2  398.69   16.00
  -7  -3   0  607.64   22.22
   7  -3   0  676.32   25.03
  -7  -3   0  631.38   23.53
   7  -3   0  685.17   24.81
   7  -3   2  388.66   16.81
  -7  -3  -2  357.91   14.58
  -7  -3  -2  385.78   16.05
   7  -3   2  423.46   16.85
  -7  -3  -4  213.25   10.29
   7  -3   4  200.23    9.04
   7  -3   6  301.24   12.08
   7  -4  -7    2.06    1.35
  -7  -4   5   13.14    2.10
  -7  -4   5   16.85    2.49
   7  -4  -5   15.96    2.50
   7  -4  -5   21.35    3.02
   7  -4  -3   13.55    2.80
  -7  -4   3   11.87    2.24
  -7  -4   3   17.40    2.97
   7  -4  -3   12.77    2.73
   7  -4  -1    3.35    2.27
  -7  -4   1    4.64    1.87
  -7  -4   1    8.69    2.71
   7  -4   1    1.22    1.88
  -7  -4  -1   -1.93    2.57
  -7  -4  -1    2.21    2.53
   7  -4   3    9.14    2.12
  -7  -4  -3    3.30    2.32
   7  -4   3    6.14    1.69
  -7  -5   2   29.93    2.91
   8   0  -4   28.32    3.02
   8   0  -2   35.97    3.38
   8  -1  -5    3.75    1.69
   8  -1  -3    2.87    1.50
   8  -1  -3    3.31    1.78
   8  -1  -1   13.03    2.03
   8  -1   1    0.76    1.32
   8  -2  -4  214.09    9.33
   8  -2  -4  196.94    8.70
   8  -2  -2  352.42   13.23
   8  -2  -2  298.83   12.20
   8  -2   0  308.18   12.31
   0   0   0    0.00    0.00


TITL 20170914DE1 in I2/m
REM I2/m (#12 in standard setting)
CELL 1.54184   6.737667   7.349954  14.864688  90.0000  96.0511  90.0000
ZERR    8.00   0.000104   0.000117   0.000244   0.0000   0.0014   0.0000
LATT  2
SYMM -x, y,-z
SFAC C H N O S Ni
UNIT 8.00 8.00 8.00 8.00 8.00 8.00
TREF
HKLF 4
END
_computing_structure_solution     'SHELXT 2014/5 (Sheldrick, 2014)'
;
loop_
_space_group_symop_operation_xyz
'x, y, z'
'-x, y, -z'
'x+1/2, y+1/2, z+1/2'
'-x+1/2, y+1/2, -z+1/2'
'-x, -y, -z'
'x, -y, z'
'-x+1/2, -y+1/2, -z+1/2'
'x+1/2, -y+1/2, z+1/2'
loop_
_atom_site_label
_atom_site_type_symbol
_atom_site_fract_x
_atom_site_fract_y
_atom_site_fract_z
_atom_site_U_iso_or_equiv
_atom_site_adp_type
_atom_site_occupancy
_atom_site_site_symmetry_order
_atom_site_calc_flag
_atom_site_refinement_flags_posn
_atom_site_refinement_flags_adp
_atom_site_refinement_flags_occupancy
_atom_site_disorder_assembly
_atom_site_disorder_group
Ni1 Ni 1.0000 0.5000 0.5000 0.0171(3) Uani 1 4 d S T P . .
Ni2 Ni 0.5000 0.0000 0.5000 0.0178(3) Uani 1 4 d S T P . .
O1 O 0.8655(3) 0.5000 0.36693(15) 0.0253(5) Uani 1 2 d S T P . .
N1 N 0.8040(3) 0.2983(3) 0.53023(13) 0.0218(4) Uani 1 1 d . . . . .
N2 N 0.5848(4) 0.5000 0.2681(2) 0.0272(6) Uani 1 2 d DS T P . .
C1 C 0.6917(3) 0.1821(3) 0.52274(15) 0.0206(5) Uani 1 1 d . . . . .
C2 C 0.6801(5) 0.5000 0.3500(2) 0.0233(7) Uani 1 2 d S T P . .
H2 H 0.6040 0.5000 0.3987 0.028 Uiso 1 2 calc RS T P . .
C3 C 0.3670(6) 0.5000 0.2541(3) 0.0405(10) Uani 1 2 d DS T P . .
H3A H 0.315(6) 0.5000 0.320(3) 0.030(11) Uiso 1 2 d S T P . .
H3B H 0.329(5) 0.396(5) 0.217(3) 0.059(10) Uiso 1 1 d . . . . .
C4 C 0.6906(7) 0.5000 0.1877(3) 0.0408(10) Uani 1 2 d DS T P . .
H4A H 0.654(5) 0.397(5) 0.153(2) 0.055(10) Uiso 1 1 d . . . . .
H4B H 0.828(8) 0.5000 0.202(4) 0.055(15) Uiso 1 2 d S T P . .
loop_
_atom_site_aniso_label
_atom_site_aniso_U_11
_atom_site_aniso_U_22
_atom_site_aniso_U_33
_atom_site_aniso_U_23
_atom_site_aniso_U_13
_atom_site_aniso_U_12
Ni1 0.0148(4) 0.0102(4) 0.0258(4) 0.000 -0.0005(3) 0.000
Ni2 0.0148(4) 0.0102(4) 0.0282(4) 0.000 0.0006(3) 0.000
O1 0.0226(11) 0.0245(13) 0.0279(12) 0.000 -0.0019(9) 0.000
N1 0.0200(9) 0.0154(9) 0.0294(10) 0.0010(7) -0.0002(7) -0.0009(7)
N2 0.0292(15) 0.0251(16) 0.0259(14) 0.000 -0.0037(11) 0.000
C1 0.0190(10) 0.0153(11) 0.0274(11) 0.0026(8) 0.0016(8) 0.0040(8)
C2 0.0267(16) 0.0161(16) 0.0263(16) 0.000 -0.0008(12) 0.000
C3 0.031(2) 0.048(3) 0.040(2) 0.000 -0.0088(16) 0.000
C4 0.046(3) 0.048(3) 0.029(2) 0.000 0.0027(17) 0.000
loop_
_atom_type_symbol
_atom_type_description
_atom_type_scat_dispersion_real
_atom_type_scat_dispersion_imag
_atom_type_scat_source
C C 0.0181 0.0091 'International Tables Vol C Tables 4.2.6.8 and 6.1.1.4'
H H 0.0000 0.0000 'International Tables Vol C Tables 4.2.6.8 and 6.1.1.4'
N N 0.0311 0.0180 'International Tables Vol C Tables 4.2.6.8 and 6.1.1.4'
Ni Ni -3.0029 0.5091 'International Tables Vol C Tables 4.2.6.8 and 6.1.1.4'
O O 0.0492 0.0322 'International Tables Vol C Tables 4.2.6.8 and 6.1.1.4'
loop_
_geom_angle_atom_site_label_1
_geom_angle_atom_site_label_2
_geom_angle_atom_site_label_3
_geom_angle
_geom_angle_site_symmetry_1
_geom_angle_site_symmetry_3
O1 Ni1 O1 180.0 . 5_766
N1 Ni1 O1 91.00(7) 6_565 5_766
N1 Ni1 O1 91.00(7) 5_766 .
N1 Ni1 O1 89.00(7) 6_565 .
N1 Ni1 O1 89.00(7) 2_756 5_766
N1 Ni1 O1 91.00(7) . 5_766
N1 Ni1 O1 91.00(7) 2_756 .
N1 Ni1 O1 89.00(7) 5_766 5_766
N1 Ni1 O1 89.00(7) . .
N1 Ni1 N1 180.0 5_766 .
N1 Ni1 N1 180.00(11) 6_565 2_756
N1 Ni1 N1 88.31(10) 5_766 6_565
N1 Ni1 N1 91.69(10) 6_565 .
N1 Ni1 N1 88.31(10) 2_756 .
N1 Ni1 N1 91.69(10) 5_766 2_756
C1 Ni2 C1 88.33(13) 5_656 6
C1 Ni2 C1 88.33(13) 2_656 .
C1 Ni2 C1 91.67(13) 6 .
C1 Ni2 C1 91.67(13) 5_656 2_656
C1 Ni2 C1 180.0 5_656 .
C1 Ni2 C1 180.00(14) 6 2_656
C2 O1 Ni1 121.1(2) . .
C1 N1 Ni1 161.86(17) . .
C2 N2 C3 121.1(3) . .
C2 N2 C4 121.8(3) . .
C4 N2 C3 117.1(3) . .
N1 C1 Ni2 174.78(19) . .
O1 C2 N2 124.5(3) . .
O1 C2 H2 117.7 . .
N2 C2 H2 117.7 . .
N2 C3 H3A 107(2) . .
N2 C3 H3B 107(2) . .
H3A C3 H3B 115(3) . .
N2 C4 H4A 110(2) . .
N2 C4 H4B 112(3) . .
H4A C4 H4B 109(3) . .
loop_
_geom_bond_atom_site_label_1
_geom_bond_atom_site_label_2
_geom_bond_distance
_geom_bond_site_symmetry_2
Ni1 O1 2.087(2) 5_766
Ni1 O1 2.087(2) .
Ni1 N1 2.0658(18) 2_756
Ni1 N1 2.0658(18) 6_565
Ni1 N1 2.0658(19) .
Ni1 N1 2.0658(19) 5_766
Ni2 C1 1.866(2) 5_656
Ni2 C1 1.866(2) 2_656
Ni2 C1 1.866(2) 6
Ni2 C1 1.866(2) .
O1 C2 1.248(4) .
N1 C1 1.139(3) .
N2 C2 1.315(4) .
N2 C3 1.461(5) .
N2 C4 1.455(5) .
C2 H2 0.9300 .
C3 H3A 1.08(4) .
C3 H3B 0.96(4) .
C4 H4A 0.94(4) .
C4 H4B 0.93(5) .
