#------------------------------------------------------------------------------
#$Date: 2024-04-25 17:59:02 +0300 (Thu, 25 Apr 2024) $
#$Revision: 291351 $
#$URL: file:///home/coder/svn-repositories/cod/cif/9/00/30/9003085.cif $
#------------------------------------------------------------------------------
#
# This file is available in the Crystallography Open Database (COD),
# http://www.crystallography.net/. The original data for this entry
# were provided the American Mineralogist Crystal Structure Database,
# http://rruff.geo.arizona.edu/AMS/amcsd.php
#
# The file may be used within the scientific community so long as
# proper attribution is given to the journal article from which the
# data were obtained.
#
data_9003085
loop_
_publ_author_name
'Kagi, H.'
'Nagai, T.'
'Loveday, J. S.'
'Wada, C.'
'Parise, J. B.'
_publ_section_title
;
 Pressure-induced phase transformation of kalicinite (KHCO3) at 2.8 GPa
 and local structural changes around hydrogen atoms
 Sample: at P = 1.8 GPa
;
_journal_name_full               'American Mineralogist'
_journal_page_first              1446
_journal_page_last               1451
_journal_volume                  88
_journal_year                    2003
_chemical_formula_structural     K(HCO3)
_chemical_formula_sum            'C D K O3'
_chemical_name_mineral           'Kalicinite (deuterated)'
_space_group_IT_number           14
_symmetry_space_group_name_Hall  '-P 2yab'
_symmetry_space_group_name_H-M   'P 1 21/a 1'
_cell_angle_alpha                90
_cell_angle_beta                 102.87
_cell_angle_gamma                90
_cell_length_a                   14.746
_cell_length_b                   5.555
_cell_length_c                   3.6452
_cell_formula_units_Z            4
_cell_volume                     291.092
_diffrn_ambient_pressure         1.8e+06
_exptl_crystal_density_diffrn    2.307
_cod_original_formula_sum        'K C D O3'
_cod_database_code               9003085
loop_
_symmetry_equiv_pos_as_xyz
x,y,z
1/2+x,1/2-y,z
1/2-x,1/2+y,-z
-x,-y,-z
loop_
_atom_site_label
_atom_site_fract_x
_atom_site_fract_y
_atom_site_fract_z
K1 0.16300 -0.01700 0.29600
C1 0.12100 0.47800 -0.12500
D1 0.01600 0.69100 -0.41200
O1 0.18900 0.52300 0.12000
O2 0.08000 0.68400 -0.25300
O3 0.08500 0.27000 -0.30100
_database_code_amcsd 0003174
