#------------------------------------------------------------------------------
#$Date: 2023-05-18 15:51:33 +0300 (Thu, 18 May 2023) $
#$Revision: 283866 $
#$URL: file:///home/coder/svn-repositories/cod/cif/9/00/40/9004044.cif $
#------------------------------------------------------------------------------
#
# This file is available in the Crystallography Open Database (COD),
# http://www.crystallography.net/. The original data for this entry
# were provided the American Mineralogist Crystal Structure Database,
# http://rruff.geo.arizona.edu/AMS/amcsd.php
#
# The file may be used within the scientific community so long as
# proper attribution is given to the journal article from which the
# data were obtained.
#
data_9004044
loop_
_publ_author_name
'Hassan, I.'
'Antao, S. M.'
'Parise, J. B.'
_publ_section_title
;
 Cancrinite: Crystal structure, phase transitions, and
 dehydration behaviour with temperature
 Sample: T = 298 C
;
_journal_name_full               'American Mineralogist'
_journal_page_first              1117
_journal_page_last               1124
_journal_paper_doi               10.2138/am.2006.2013
_journal_volume                  91
_journal_year                    2006
_chemical_compound_source        'Dungannon Township, Bancroft, Ontario, Canada'
_chemical_formula_sum            'C0.76 H1.78 Al3 Ca0.75 Na3.01 O14.999 Si3'
_chemical_name_mineral           Cancrinite
_space_group_IT_number           173
_symmetry_space_group_name_Hall  'P 6c'
_symmetry_space_group_name_H-M   'P 63'
_cell_angle_alpha                90
_cell_angle_beta                 90
_cell_angle_gamma                120
_cell_formula_units_Z            2
_cell_length_a                   12.6268
_cell_length_b                   12.6268
_cell_length_c                   5.1514
_cell_volume                     711.283
_database_code_amcsd             0004168
_diffrn_ambient_temperature      571.15
_exptl_crystal_density_diffrn    2.406
_cod_original_formula_sum        'Na3.01 Ca.75 Al3 Si3 C.76 O14.999 H1.78'
_cod_database_code               9004044
loop_
_space_group_symop_operation_xyz
x,y,z
x-y,x,1/2+z
-y,x-y,z
-x,-y,1/2+z
-x+y,-x,z
y,-x+y,1/2+z
loop_
_atom_site_label
_atom_site_fract_x
_atom_site_fract_y
_atom_site_fract_z
_atom_site_occupancy
_atom_site_U_iso_or_equiv
_atom_site_type_symbol
_atom_site_attached_hydrogens
Na1 0.66667 0.33333 0.12770 1.00000 0.04420 Na 0
Na2 0.12330 0.25050 0.30100 0.67000 0.04420 Na 0
Ca2 0.12330 0.25050 0.30100 0.25000 0.04420 Ca 0
Al 0.07690 0.41960 0.75990 1.00000 0.00420 Al 0
Si 0.32530 0.40210 0.75000 1.00000 0.00420 Si 0
C1 0.00000 0.00000 0.71800 0.38000 0.02800 C 0
C2 0.00000 0.00000 0.93000 0.38000 0.02800 C 0
O1 0.20680 0.40620 0.67910 1.00000 0.01980 O 0
O2 0.10680 0.55790 0.73890 1.00000 0.01980 O 0
O3 0.01730 0.34420 0.05170 1.00000 0.01980 O 0
O4 0.31180 0.35560 0.05530 1.00000 0.01980 O 0
OC1 0.07460 0.11350 0.71800 0.38000 0.02800 O 0
OC2 0.09010 0.12210 0.93000 0.38000 0.02800 O 0
Wat 0.66667 0.33333 0.71310 0.71900 0.02500 O 2
loop_
_cod_changelog_entry_id
_cod_changelog_entry_author
_cod_changelog_entry_date
_cod_changelog_entry_text
1
;cod-tools version 3.8.0
Id: cif_guess_AMCSD_atom_types 9581 2023-05-17 12:35:41Z saulius
;
2023-05-18T11:37:51+03:00
;Derived atom types and hydrogen counts
from atom names that follow the AMCSD naming convention
(Wat == water, O-H == hydroxyl).
;
loop_
_cod_related_entry_id
_cod_related_entry_database
_cod_related_entry_code
1 AMCSD 0004168
