#------------------------------------------------------------------------------
#$Date: 2023-11-12 12:37:04 +0200 (Sun, 12 Nov 2023) $
#$Revision: 287555 $
#$URL: file:///home/coder/svn-repositories/cod/cif/9/01/02/9010245.cif $
#------------------------------------------------------------------------------
#
# This file is available in the Crystallography Open Database (COD),
# http://www.crystallography.net/. The original data for this entry
# were provided the American Mineralogist Crystal Structure Database,
# http://rruff.geo.arizona.edu/AMS/amcsd.php
#
# The file may be used within the scientific community so long as
# proper attribution is given to the journal article from which the
# data were obtained.
#
data_9010245
loop_
_publ_author_name
'Allan, D. R.'
'Marshall, W. G.'
'Pulham, C. R.'
_publ_section_title
;
 The high-pressure crystal structure of
 potassium hydrogen carbonate (KHCO3)
 Note: Kalicinite-type structure
 Sample: P = 0.74 GPa
;
_journal_name_full               'American Mineralogist'
_journal_page_first              1018
_journal_page_last               1025
_journal_paper_doi               10.2138/am.2007.2336
_journal_volume                  92
_journal_year                    2007
_chemical_formula_structural     KDCO5
_chemical_formula_sum            'C D K O3'
_chemical_name_mineral           'Kalicinite (deuterated)'
_space_group_IT_number           14
_symmetry_space_group_name_Hall  '-P 2yab'
_symmetry_space_group_name_H-M   'P 1 21/a 1'
_cell_angle_alpha                90
_cell_angle_beta                 103.538
_cell_angle_gamma                90
_cell_length_a                   14.945
_cell_length_b                   5.588
_cell_length_c                   3.6691
_cell_volume                     297.902
_diffrn_ambient_pressure         7.4e+05
_exptl_crystal_density_diffrn    2.255
_cod_original_formula_sum        'K D C O3'
_cod_database_code               9010245
loop_
_symmetry_equiv_pos_as_xyz
x,y,z
1/2+x,1/2-y,z
1/2-x,1/2+y,-z
-x,-y,-z
loop_
_atom_site_label
_atom_site_fract_x
_atom_site_fract_y
_atom_site_fract_z
K 0.16730 0.02100 0.30000
D 0.01010 0.69400 0.55500
C 0.12180 0.53000 0.87000
O1 0.19530 0.54300 0.11100
O2 0.07430 0.71800 0.72200
O3 0.08420 0.32300 0.73200
_database_code_amcsd 0004366
