#------------------------------------------------------------------------------
#$Date: 2023-11-12 12:37:04 +0200 (Sun, 12 Nov 2023) $
#$Revision: 287555 $
#$URL: file:///home/coder/svn-repositories/cod/cif/9/01/02/9010258.cif $
#------------------------------------------------------------------------------
#
# This file is available in the Crystallography Open Database (COD),
# http://www.crystallography.net/. The original data for this entry
# were provided the American Mineralogist Crystal Structure Database,
# http://rruff.geo.arizona.edu/AMS/amcsd.php
#
# The file may be used within the scientific community so long as
# proper attribution is given to the journal article from which the
# data were obtained.
#
data_9010258
loop_
_publ_author_name
'Allan, D. R.'
'Marshall, W. G.'
'Pulham, C. R.'
_publ_section_title
;
 The high-pressure crystal structure of
 potassium hydrogen carbonate (KHCO3)
 Sample: P = 7.61 GPa
;
_journal_name_full               'American Mineralogist'
_journal_page_first              1018
_journal_page_last               1025
_journal_paper_doi               10.2138/am.2007.2336
_journal_volume                  92
_journal_year                    2007
_chemical_formula_structural     KDCO18
_chemical_formula_sum            'C D K O3'
_chemical_name_mineral           'Kalicinite (deuterated)'
_space_group_IT_number           2
_symmetry_space_group_name_Hall  '-P 1'
_symmetry_space_group_name_H-M   'P -1'
_cell_angle_alpha                95.298
_cell_angle_beta                 100.273
_cell_angle_gamma                108.498
_cell_length_a                   5.9935
_cell_length_b                   5.2346
_cell_length_c                   4.1889
_cell_volume                     121.061
_diffrn_ambient_pressure         7.61e+06
_exptl_crystal_density_diffrn    2.774
_cod_original_formula_sum        'K D C O3'
_cod_database_code               9010258
loop_
_symmetry_equiv_pos_as_xyz
x,y,z
-x,-y,-z
loop_
_atom_site_label
_atom_site_fract_x
_atom_site_fract_y
_atom_site_fract_z
K 0.30100 0.13200 0.29400
D 0.08600 0.70900 0.53300
C 0.23320 0.57000 0.90900
O1 0.20400 0.77400 0.74700
O2 0.11300 0.33000 0.76800
O3 0.37600 0.63500 0.18000
_database_code_amcsd 0004379
