#------------------------------------------------------------------------------
#$Date: 2023-11-12 12:37:04 +0200 (Sun, 12 Nov 2023) $
#$Revision: 287555 $
#$URL: file:///home/coder/svn-repositories/cod/cif/9/01/02/9010243.cif $
#------------------------------------------------------------------------------
#
# This file is available in the Crystallography Open Database (COD),
# http://www.crystallography.net/. The original data for this entry
# were provided the American Mineralogist Crystal Structure Database,
# http://rruff.geo.arizona.edu/AMS/amcsd.php
#
# The file may be used within the scientific community so long as
# proper attribution is given to the journal article from which the
# data were obtained.
#
data_9010243
loop_
_publ_author_name
'Allan, D. R.'
'Marshall, W. G.'
'Pulham, C. R.'
_publ_section_title
;
 The high-pressure crystal structure of
 potassium hydrogen carbonate (KHCO3)
 Note: Kalicinite-type structure
 Sample: P = 0.00 GPa
;
_journal_name_full               'American Mineralogist'
_journal_page_first              1018
_journal_page_last               1025
_journal_paper_doi               10.2138/am.2007.2336
_journal_volume                  92
_journal_year                    2007
_chemical_formula_structural     KDCO3
_chemical_formula_sum            'C D K O3'
_chemical_name_mineral           'Kalicinite (deuterated)'
_space_group_IT_number           14
_symmetry_space_group_name_Hall  '-P 2yab'
_symmetry_space_group_name_H-M   'P 1 21/a 1'
_cell_angle_alpha                90
_cell_angle_beta                 104.534
_cell_angle_gamma                90
_cell_length_a                   15.195
_cell_length_b                   5.6298
_cell_length_c                   3.7088
_cell_volume                     307.116
_diffrn_ambient_pressure         0
_exptl_crystal_density_diffrn    2.187
_cod_original_formula_sum        'K D C O3'
_cod_database_code               9010243
loop_
_symmetry_equiv_pos_as_xyz
x,y,z
1/2+x,1/2-y,z
1/2-x,1/2+y,-z
-x,-y,-z
loop_
_atom_site_label
_atom_site_fract_x
_atom_site_fract_y
_atom_site_fract_z
K 0.16810 0.03000 0.30200
D 0.01490 0.69400 0.55000
C 0.12250 0.52000 0.86000
O1 0.19450 0.53900 0.10000
O2 0.07850 0.72200 0.72900
O3 0.08350 0.32300 0.72800
_database_code_amcsd 0004364
