#------------------------------------------------------------------------------
#$Date: 2023-05-18 15:51:33 +0300 (Thu, 18 May 2023) $
#$Revision: 283866 $
#$URL: file:///home/coder/svn-repositories/cod/cif/9/01/40/9014011.cif $
#------------------------------------------------------------------------------
#
# This file is available in the Crystallography Open Database (COD),
# http://www.crystallography.net/. The original data for this entry
# were provided the American Mineralogist Crystal Structure Database,
# http://rruff.geo.arizona.edu/AMS/amcsd.php
#
# The file may be used within the scientific community so long as
# proper attribution is given to the journal article from which the
# data were obtained.
#
data_9014011
loop_
_publ_author_name
'Lotti, P.'
'Gatta, G. D.'
'Rotiroti, N.'
'Camara, F.'
_publ_section_title
;
 High-pressure study of a natural cancrinite
 Note: P = 6.63 GPa
;
_journal_name_full               'American Mineralogist'
_journal_page_first              872
_journal_page_last               882
_journal_paper_doi               10.2138/am.2012.4039
_journal_volume                  97
_journal_year                    2012
_chemical_compound_source        Cameroun
_chemical_formula_sum            'C0.88 H2 Al3 Ca0.438 Na3.522 O15.64 Si3'
_chemical_name_mineral           Cancrinite
_space_group_IT_number           173
_symmetry_space_group_name_Hall  'P 6c'
_symmetry_space_group_name_H-M   'P 63'
_cell_angle_alpha                90
_cell_angle_beta                 90
_cell_angle_gamma                120
_cell_formula_units_Z            2
_cell_length_a                   12.240
_cell_length_b                   12.240
_cell_length_c                   4.843
_cell_volume                     628.359
_database_code_amcsd             0019035
_exptl_crystal_density_diffrn    2.783
_cod_original_formula_sum        'Si3 Al3 O15.64 Na3.522 Ca.438 C.88 H2'
_cod_database_code               9014011
loop_
_space_group_symop_operation_xyz
x,y,z
x-y,x,1/2+z
-y,x-y,z
-x,-y,1/2+z
-x+y,-x,z
y,-x+y,1/2+z
loop_
_atom_site_label
_atom_site_fract_x
_atom_site_fract_y
_atom_site_fract_z
_atom_site_occupancy
_atom_site_U_iso_or_equiv
_atom_site_type_symbol
_atom_site_attached_hydrogens
Si 0.08410 0.41230 0.73920 1.00000 0.01260 Si 0
Al 0.33730 0.41420 0.74240 1.00000 0.01370 Al 0
O1 0.19590 0.39100 0.62600 1.00000 0.02200 O 0
O2 0.13020 0.55760 0.68700 1.00000 0.02700 O 0
O3 0.05720 0.37210 0.06100 1.00000 0.01800 O 0
O4 0.31990 0.36200 0.07300 1.00000 0.01900 O 0
Na1 0.66667 0.33333 0.07700 0.96000 0.06500 Na 0
Na2 0.87620 0.75270 0.77580 0.85400 0.03400 Na 0
Ca 0.87620 0.75270 0.77580 0.14600 0.03400 Ca 0
C1 0.00000 0.00000 0.90000 0.42100 0.03100 C 0
OC1 0.06100 0.12100 0.85400 0.42100 0.05500 O 0
C2 0.00000 0.00000 0.68400 0.45900 0.03100 C 0
OC2 0.06200 0.12250 0.66100 0.45900 0.05500 O 0
Wat 0.30800 0.61500 0.14100 0.33333 0.04500 O 2
loop_
_cod_changelog_entry_id
_cod_changelog_entry_author
_cod_changelog_entry_date
_cod_changelog_entry_text
1
;cod-tools version 3.8.0
Id: cif_guess_AMCSD_atom_types 9581 2023-05-17 12:35:41Z saulius
;
2023-05-18T11:42:44+03:00
;Derived atom types and hydrogen counts
from atom names that follow the AMCSD naming convention
(Wat == water, O-H == hydroxyl).
;
loop_
_cod_related_entry_id
_cod_related_entry_database
_cod_related_entry_code
1 AMCSD 0019035
